[TITLE]
UrbanFlow-GNN SWMM Regional Simulation

[OPTIONS]
FLOW_UNITS CMS
INFILTRATION HORTON
FLOW_ROUTING DYNWAVE
START_DATE 01/01/2026
START_TIME 00:00:00
REPORT_START_DATE 01/01/2026
REPORT_START_TIME 00:00:00
END_DATE 01/01/2026
END_TIME 02:00:00
REPORT_STEP 00:01:00
WET_STEP 00:00:10
DRY_STEP 00:01:00

[EVAPORATION]
CONSTANT 0.0

[REPORT]
INPUT NO
SUBCATCHMENTS ALL
NODES ALL
LINKS ALL

[RAINGAGES]
Gage1 INTENSITY 0:05 1.0 TIMESERIES RainTS

[TIMESERIES]
RainTS 00:00 300.0
RainTS 01:00 300.0
RainTS 01:05 0.0

[SUBCATCHMENTS]
;;Name RainGage Outlet Area %Imperv Width Slope CurbLen
S_251104955 Gage1 J_251104955 0.5 36.7 50 0.5 0
S_1382528609 Gage1 J_1382528609 0.5 67.9 50 0.5 0
S_11028310396 Gage1 J_11028310396 0.5 26.7 50 0.5 0
S_251105277 Gage1 J_251105277 0.5 53.6 50 0.5 0
S_6132933105 Gage1 J_6132933105 0.5 32.7 50 0.5 0
S_253448544 Gage1 J_253448544 0.5 31.5 50 0.5 0
S_251105285 Gage1 J_251105285 0.5 21.1 50 0.5 0
S_10277091600 Gage1 J_10277091600 0.5 26.0 50 0.5 0
S_1016228526 Gage1 J_1016228526 0.5 25.5 50 0.5 0
S_251106545 Gage1 J_251106545 0.5 46.2 50 0.5 0
S_6901363519 Gage1 J_6901363519 0.5 67.6 50 0.5 0
S_251106828 Gage1 J_251106828 0.5 43.6 50 0.5 0
S_251106717 Gage1 J_251106717 0.5 23.2 50 0.5 0
S_13123179217 Gage1 J_13123179217 0.5 38.7 50 0.5 0
S_13360780446 Gage1 J_13360780446 0.5 26.2 50 0.5 0
S_6632652235 Gage1 J_6632652235 0.5 27.4 50 0.5 0
S_253447895 Gage1 J_253447895 0.5 38.6 50 0.5 0
S_9857850176 Gage1 J_9857850176 0.5 48.6 50 0.5 0
S_12999157122 Gage1 J_12999157122 0.5 22.1 50 0.5 0
S_10221065289 Gage1 J_10221065289 0.5 52.5 50 0.5 0
S_253447898 Gage1 J_253447898 0.5 47.3 50 0.5 0
S_253447899 Gage1 J_253447899 0.5 42.8 50 0.5 0
S_1605954226 Gage1 J_1605954226 0.5 54.3 50 0.5 0
S_9700106334 Gage1 J_9700106334 0.5 52.3 50 0.5 0
S_1262043911 Gage1 J_1262043911 0.5 60.7 50 0.5 0
S_5281691574 Gage1 J_5281691574 0.5 53.3 50 0.5 0
S_253447903 Gage1 J_253447903 0.5 19.8 50 0.5 0
S_12171179550 Gage1 J_12171179550 0.5 67.2 50 0.5 0
S_9928560951 Gage1 J_9928560951 0.5 23.2 50 0.5 0
S_253448523 Gage1 J_253448523 0.5 44.1 50 0.5 0
S_5281691579 Gage1 J_5281691579 0.5 67.1 50 0.5 0
S_5281842542 Gage1 J_5281842542 0.5 47.6 50 0.5 0
S_253448524 Gage1 J_253448524 0.5 62.8 50 0.5 0
S_1470833614 Gage1 J_1470833614 0.5 61.5 50 0.5 0
S_5281842558 Gage1 J_5281842558 0.5 22.4 50 0.5 0
S_253448537 Gage1 J_253448537 0.5 49.7 50 0.5 0
S_1492407638 Gage1 J_1492407638 0.5 51.2 50 0.5 0
S_253448549 Gage1 J_253448549 0.5 22.2 50 0.5 0
S_253448562 Gage1 J_253448562 0.5 28.6 50 0.5 0
S_253448573 Gage1 J_253448573 0.5 24.7 50 0.5 0
S_1368117314 Gage1 J_1368117314 0.5 61.2 50 0.5 0
S_253448561 Gage1 J_253448561 0.5 55.9 50 0.5 0
S_1367922236 Gage1 J_1367922236 0.5 44.1 50 0.5 0
S_253448582 Gage1 J_253448582 0.5 27.5 50 0.5 0
S_1368117329 Gage1 J_1368117329 0.5 52.6 50 0.5 0
S_253448566 Gage1 J_253448566 0.5 55.9 50 0.5 0
S_254442569 Gage1 J_254442569 0.5 47.9 50 0.5 0
S_1694231929 Gage1 J_1694231929 0.5 67.5 50 0.5 0
S_1368117387 Gage1 J_1368117387 0.5 47.0 50 0.5 0
S_253449679 Gage1 J_253449679 0.5 28.9 50 0.5 0
S_13811792564 Gage1 J_13811792564 0.5 29.1 50 0.5 0
S_2048245857 Gage1 J_2048245857 0.5 45.5 50 0.5 0
S_253449681 Gage1 J_253449681 0.5 29.1 50 0.5 0
S_10731123199 Gage1 J_10731123199 0.5 32.3 50 0.5 0
S_7466386855 Gage1 J_7466386855 0.5 61.8 50 0.5 0
S_5281842562 Gage1 J_5281842562 0.5 18.2 50 0.5 0
S_253449683 Gage1 J_253449683 0.5 57.6 50 0.5 0
S_1492407642 Gage1 J_1492407642 0.5 60.7 50 0.5 0
S_11002574624 Gage1 J_11002574624 0.5 26.6 50 0.5 0
S_253449686 Gage1 J_253449686 0.5 33.1 50 0.5 0
S_7466386858 Gage1 J_7466386858 0.5 47.2 50 0.5 0
S_7466386856 Gage1 J_7466386856 0.5 46.3 50 0.5 0
S_9870086764 Gage1 J_9870086764 0.5 58.3 50 0.5 0
S_253449692 Gage1 J_253449692 0.5 60.6 50 0.5 0
S_10044811668 Gage1 J_10044811668 0.5 60.4 50 0.5 0
S_253449698 Gage1 J_253449698 0.5 67.3 50 0.5 0
S_10017481089 Gage1 J_10017481089 0.5 45.4 50 0.5 0
S_9992581195 Gage1 J_9992581195 0.5 48.8 50 0.5 0
S_5931305385 Gage1 J_5931305385 0.5 49.9 50 0.5 0
S_253452075 Gage1 J_253452075 0.5 43.2 50 0.5 0
S_6901407760 Gage1 J_6901407760 0.5 50.8 50 0.5 0
S_1382528655 Gage1 J_1382528655 0.5 34.4 50 0.5 0
S_7137902395 Gage1 J_7137902395 0.5 66.2 50 0.5 0
S_253452077 Gage1 J_253452077 0.5 46.2 50 0.5 0
S_3957948342 Gage1 J_3957948342 0.5 40.2 50 0.5 0
S_12155167311 Gage1 J_12155167311 0.5 18.0 50 0.5 0
S_7466386863 Gage1 J_7466386863 0.5 34.6 50 0.5 0
S_253532871 Gage1 J_253532871 0.5 37.4 50 0.5 0
S_253532914 Gage1 J_253532914 0.5 22.1 50 0.5 0
S_5281842567 Gage1 J_5281842567 0.5 20.5 50 0.5 0
S_253532874 Gage1 J_253532874 0.5 46.5 50 0.5 0
S_3545987055 Gage1 J_3545987055 0.5 65.2 50 0.5 0
S_12206473568 Gage1 J_12206473568 0.5 45.0 50 0.5 0
S_7121386221 Gage1 J_7121386221 0.5 22.4 50 0.5 0
S_253532894 Gage1 J_253532894 0.5 65.8 50 0.5 0
S_11399419950 Gage1 J_11399419950 0.5 31.7 50 0.5 0
S_7101760803 Gage1 J_7101760803 0.5 47.5 50 0.5 0
S_1634932079 Gage1 J_1634932079 0.5 55.8 50 0.5 0
S_253532896 Gage1 J_253532896 0.5 31.6 50 0.5 0
S_11021627219 Gage1 J_11021627219 0.5 58.6 50 0.5 0
S_253532905 Gage1 J_253532905 0.5 46.7 50 0.5 0
S_7298289272 Gage1 J_7298289272 0.5 34.1 50 0.5 0
S_253532978 Gage1 J_253532978 0.5 33.4 50 0.5 0
S_253532910 Gage1 J_253532910 0.5 19.3 50 0.5 0
S_11021478367 Gage1 J_11021478367 0.5 65.0 50 0.5 0
S_1103017558 Gage1 J_1103017558 0.5 18.1 50 0.5 0
S_11135547223 Gage1 J_11135547223 0.5 32.6 50 0.5 0
S_253532931 Gage1 J_253532931 0.5 54.3 50 0.5 0
S_11434296179 Gage1 J_11434296179 0.5 67.4 50 0.5 0
S_253532934 Gage1 J_253532934 0.5 31.4 50 0.5 0
S_1443044870 Gage1 J_1443044870 0.5 50.5 50 0.5 0
S_3530426108 Gage1 J_3530426108 0.5 51.2 50 0.5 0
S_11002801404 Gage1 J_11002801404 0.5 20.0 50 0.5 0
S_253532971 Gage1 J_253532971 0.5 27.8 50 0.5 0
S_11121286748 Gage1 J_11121286748 0.5 37.8 50 0.5 0
S_11002878595 Gage1 J_11002878595 0.5 61.0 50 0.5 0
S_331146193 Gage1 J_331146193 0.5 20.0 50 0.5 0
S_254442570 Gage1 J_254442570 0.5 19.7 50 0.5 0
S_1590229386 Gage1 J_1590229386 0.5 58.6 50 0.5 0
S_1367922212 Gage1 J_1367922212 0.5 35.2 50 0.5 0
S_1472791625 Gage1 J_1472791625 0.5 43.0 50 0.5 0
S_307940137 Gage1 J_307940137 0.5 62.0 50 0.5 0
S_9645445129 Gage1 J_9645445129 0.5 62.0 50 0.5 0
S_1434089177 Gage1 J_1434089177 0.5 49.2 50 0.5 0
S_320240652 Gage1 J_320240652 0.5 26.1 50 0.5 0
S_1371807641 Gage1 J_1371807641 0.5 57.8 50 0.5 0
S_1371807634 Gage1 J_1371807634 0.5 40.4 50 0.5 0
S_9700074489 Gage1 J_9700074489 0.5 58.4 50 0.5 0
S_320240654 Gage1 J_320240654 0.5 41.7 50 0.5 0
S_1371807648 Gage1 J_1371807648 0.5 49.5 50 0.5 0
S_320240656 Gage1 J_320240656 0.5 26.4 50 0.5 0
S_6193957625 Gage1 J_6193957625 0.5 51.0 50 0.5 0
S_12141933091 Gage1 J_12141933091 0.5 36.3 50 0.5 0
S_11027638241 Gage1 J_11027638241 0.5 37.4 50 0.5 0
S_320241385 Gage1 J_320241385 0.5 58.3 50 0.5 0
S_6182692049 Gage1 J_6182692049 0.5 21.5 50 0.5 0
S_11015226548 Gage1 J_11015226548 0.5 33.0 50 0.5 0
S_11021479825 Gage1 J_11021479825 0.5 38.8 50 0.5 0
S_320241388 Gage1 J_320241388 0.5 53.6 50 0.5 0
S_1514989637 Gage1 J_1514989637 0.5 18.0 50 0.5 0
S_7452692543 Gage1 J_7452692543 0.5 44.8 50 0.5 0
S_2225133166 Gage1 J_2225133166 0.5 55.8 50 0.5 0
S_320241390 Gage1 J_320241390 0.5 27.4 50 0.5 0
S_4458722678 Gage1 J_4458722678 0.5 22.0 50 0.5 0
S_6194091031 Gage1 J_6194091031 0.5 65.7 50 0.5 0
S_320242565 Gage1 J_320242565 0.5 24.6 50 0.5 0
S_7453315390 Gage1 J_7453315390 0.5 62.8 50 0.5 0
S_4458722615 Gage1 J_4458722615 0.5 41.4 50 0.5 0
S_4458722596 Gage1 J_4458722596 0.5 53.0 50 0.5 0
S_1514989618 Gage1 J_1514989618 0.5 67.1 50 0.5 0
S_320242567 Gage1 J_320242567 0.5 62.3 50 0.5 0
S_4458722572 Gage1 J_4458722572 0.5 36.3 50 0.5 0
S_6177428350 Gage1 J_6177428350 0.5 18.4 50 0.5 0
S_7453315312 Gage1 J_7453315312 0.5 19.2 50 0.5 0
S_320242571 Gage1 J_320242571 0.5 35.7 50 0.5 0
S_7453315398 Gage1 J_7453315398 0.5 67.6 50 0.5 0
S_2225133290 Gage1 J_2225133290 0.5 66.7 50 0.5 0
S_6904168224 Gage1 J_6904168224 0.5 38.2 50 0.5 0
S_320242582 Gage1 J_320242582 0.5 67.7 50 0.5 0
S_6182547032 Gage1 J_6182547032 0.5 33.8 50 0.5 0
S_6751829037 Gage1 J_6751829037 0.5 46.2 50 0.5 0
S_2225133544 Gage1 J_2225133544 0.5 45.0 50 0.5 0
S_320242587 Gage1 J_320242587 0.5 43.4 50 0.5 0
S_1347565272 Gage1 J_1347565272 0.5 20.3 50 0.5 0
S_7465456804 Gage1 J_7465456804 0.5 26.7 50 0.5 0
S_7138383916 Gage1 J_7138383916 0.5 32.4 50 0.5 0
S_320242814 Gage1 J_320242814 0.5 18.7 50 0.5 0
S_6901280942 Gage1 J_6901280942 0.5 64.2 50 0.5 0
S_1371816433 Gage1 J_1371816433 0.5 58.8 50 0.5 0
S_6758593405 Gage1 J_6758593405 0.5 60.1 50 0.5 0
S_320242815 Gage1 J_320242815 0.5 18.7 50 0.5 0
S_1371816389 Gage1 J_1371816389 0.5 61.4 50 0.5 0
S_11885729668 Gage1 J_11885729668 0.5 26.7 50 0.5 0
S_1371816411 Gage1 J_1371816411 0.5 46.6 50 0.5 0
S_320242819 Gage1 J_320242819 0.5 62.2 50 0.5 0
S_6748996048 Gage1 J_6748996048 0.5 52.1 50 0.5 0
S_11021428239 Gage1 J_11021428239 0.5 21.4 50 0.5 0
S_2225133701 Gage1 J_2225133701 0.5 39.8 50 0.5 0
S_7291167555 Gage1 J_7291167555 0.5 32.3 50 0.5 0
S_1368829030 Gage1 J_1368829030 0.5 37.8 50 0.5 0
S_331146194 Gage1 J_331146194 0.5 47.1 50 0.5 0
S_14072070989 Gage1 J_14072070989 0.5 31.4 50 0.5 0
S_331146195 Gage1 J_331146195 0.5 62.4 50 0.5 0
S_12998590069 Gage1 J_12998590069 0.5 39.4 50 0.5 0
S_10991651169 Gage1 J_10991651169 0.5 21.5 50 0.5 0
S_4315977113 Gage1 J_4315977113 0.5 42.8 50 0.5 0
S_331146196 Gage1 J_331146196 0.5 30.3 50 0.5 0
S_1016228579 Gage1 J_1016228579 0.5 64.3 50 0.5 0
S_331146200 Gage1 J_331146200 0.5 62.9 50 0.5 0
S_1470833642 Gage1 J_1470833642 0.5 53.7 50 0.5 0
S_1718789013 Gage1 J_1718789013 0.5 27.5 50 0.5 0
S_331146203 Gage1 J_331146203 0.5 33.6 50 0.5 0
S_10056189410 Gage1 J_10056189410 0.5 59.8 50 0.5 0
S_331147616 Gage1 J_331147616 0.5 61.5 50 0.5 0
S_7298289287 Gage1 J_7298289287 0.5 51.0 50 0.5 0
S_331147621 Gage1 J_331147621 0.5 49.2 50 0.5 0
S_11381136612 Gage1 J_11381136612 0.5 40.5 50 0.5 0
S_331147627 Gage1 J_331147627 0.5 54.3 50 0.5 0
S_1374396082 Gage1 J_1374396082 0.5 60.5 50 0.5 0
S_1368814490 Gage1 J_1368814490 0.5 35.0 50 0.5 0
S_7298289289 Gage1 J_7298289289 0.5 37.6 50 0.5 0
S_331147702 Gage1 J_331147702 0.5 21.2 50 0.5 0
S_1104250513 Gage1 J_1104250513 0.5 55.1 50 0.5 0
S_331147771 Gage1 J_331147771 0.5 24.7 50 0.5 0
S_1371814186 Gage1 J_1371814186 0.5 33.6 50 0.5 0
S_1371814178 Gage1 J_1371814178 0.5 49.6 50 0.5 0
S_1371807570 Gage1 J_1371807570 0.5 44.4 50 0.5 0
S_331147773 Gage1 J_331147773 0.5 18.2 50 0.5 0
S_1371807583 Gage1 J_1371807583 0.5 23.4 50 0.5 0
S_2225133203 Gage1 J_2225133203 0.5 24.8 50 0.5 0
S_1371807553 Gage1 J_1371807553 0.5 52.4 50 0.5 0
S_331150815 Gage1 J_331150815 0.5 46.5 50 0.5 0
S_1103017563 Gage1 J_1103017563 0.5 51.6 50 0.5 0
S_956958701 Gage1 J_956958701 0.5 61.8 50 0.5 0
S_11074670551 Gage1 J_11074670551 0.5 42.3 50 0.5 0
S_331150822 Gage1 J_331150822 0.5 53.4 50 0.5 0
S_7298268883 Gage1 J_7298268883 0.5 55.9 50 0.5 0
S_10637202311 Gage1 J_10637202311 0.5 20.0 50 0.5 0
S_10038766779 Gage1 J_10038766779 0.5 59.6 50 0.5 0
S_574872968 Gage1 J_574872968 0.5 42.0 50 0.5 0
S_11885834679 Gage1 J_11885834679 0.5 36.6 50 0.5 0
S_12961466033 Gage1 J_12961466033 0.5 55.8 50 0.5 0
S_7465456821 Gage1 J_7465456821 0.5 67.5 50 0.5 0
S_594600161 Gage1 J_594600161 0.5 33.5 50 0.5 0
S_2376774439 Gage1 J_2376774439 0.5 40.3 50 0.5 0
S_7452692549 Gage1 J_7452692549 0.5 35.6 50 0.5 0
S_2225133157 Gage1 J_2225133157 0.5 30.3 50 0.5 0
S_594600189 Gage1 J_594600189 0.5 59.3 50 0.5 0
S_594600191 Gage1 J_594600191 0.5 30.5 50 0.5 0
S_7453315573 Gage1 J_7453315573 0.5 45.6 50 0.5 0
S_7453315574 Gage1 J_7453315574 0.5 43.6 50 0.5 0
S_594600200 Gage1 J_594600200 0.5 43.6 50 0.5 0
S_7452692544 Gage1 J_7452692544 0.5 48.1 50 0.5 0
S_809461728 Gage1 J_809461728 0.5 36.6 50 0.5 0
S_5485647354 Gage1 J_5485647354 0.5 55.8 50 0.5 0
S_809461787 Gage1 J_809461787 0.5 60.8 50 0.5 0
S_3713858821 Gage1 J_3713858821 0.5 63.4 50 0.5 0
S_1104250512 Gage1 J_1104250512 0.5 25.6 50 0.5 0
S_832572431 Gage1 J_832572431 0.5 51.6 50 0.5 0
S_12604472593 Gage1 J_12604472593 0.5 48.2 50 0.5 0
S_1633904753 Gage1 J_1633904753 0.5 37.6 50 0.5 0
S_955696066 Gage1 J_955696066 0.5 60.0 50 0.5 0
S_9937603726 Gage1 J_9937603726 0.5 29.0 50 0.5 0
S_12918665449 Gage1 J_12918665449 0.5 26.4 50 0.5 0
S_1078253085 Gage1 J_1078253085 0.5 32.7 50 0.5 0
S_956975072 Gage1 J_956975072 0.5 50.9 50 0.5 0
S_1104250537 Gage1 J_1104250537 0.5 27.0 50 0.5 0
S_1078253094 Gage1 J_1078253094 0.5 34.3 50 0.5 0
S_1014648217 Gage1 J_1014648217 0.5 49.2 50 0.5 0
S_10760860021 Gage1 J_10760860021 0.5 36.1 50 0.5 0
S_2066388579 Gage1 J_2066388579 0.5 23.2 50 0.5 0
S_6043189067 Gage1 J_6043189067 0.5 51.5 50 0.5 0
S_1014707800 Gage1 J_1014707800 0.5 60.3 50 0.5 0
S_1371828536 Gage1 J_1371828536 0.5 66.8 50 0.5 0
S_1371828541 Gage1 J_1371828541 0.5 18.6 50 0.5 0
S_1014707856 Gage1 J_1014707856 0.5 55.5 50 0.5 0
S_1014707848 Gage1 J_1014707848 0.5 35.8 50 0.5 0
S_1371828527 Gage1 J_1371828527 0.5 26.4 50 0.5 0
S_13830086493 Gage1 J_13830086493 0.5 21.4 50 0.5 0
S_7298289213 Gage1 J_7298289213 0.5 40.2 50 0.5 0
S_7298289244 Gage1 J_7298289244 0.5 58.6 50 0.5 0
S_7298289236 Gage1 J_7298289236 0.5 43.0 50 0.5 0
S_1014707872 Gage1 J_1014707872 0.5 27.2 50 0.5 0
S_13830105941 Gage1 J_13830105941 0.5 46.9 50 0.5 0
S_7298289211 Gage1 J_7298289211 0.5 30.4 50 0.5 0
S_1371828542 Gage1 J_1371828542 0.5 19.7 50 0.5 0
S_1014707907 Gage1 J_1014707907 0.5 64.6 50 0.5 0
S_1371828544 Gage1 J_1371828544 0.5 51.2 50 0.5 0
S_1371828530 Gage1 J_1371828530 0.5 52.1 50 0.5 0
S_1066108522 Gage1 J_1066108522 0.5 49.0 50 0.5 0
S_1016228504 Gage1 J_1016228504 0.5 43.7 50 0.5 0
S_1104250503 Gage1 J_1104250503 0.5 55.6 50 0.5 0
S_1016228517 Gage1 J_1016228517 0.5 53.8 50 0.5 0
S_1368117344 Gage1 J_1368117344 0.5 24.9 50 0.5 0
S_1368828980 Gage1 J_1368828980 0.5 54.3 50 0.5 0
S_1368829000 Gage1 J_1368829000 0.5 62.7 50 0.5 0
S_12196582428 Gage1 J_12196582428 0.5 42.4 50 0.5 0
S_1016228534 Gage1 J_1016228534 0.5 53.8 50 0.5 0
S_1683088958 Gage1 J_1683088958 0.5 30.7 50 0.5 0
S_10991813477 Gage1 J_10991813477 0.5 54.3 50 0.5 0
S_1016228556 Gage1 J_1016228556 0.5 50.5 50 0.5 0
S_1016228610 Gage1 J_1016228610 0.5 35.0 50 0.5 0
S_1634931711 Gage1 J_1634931711 0.5 57.6 50 0.5 0
S_1368828996 Gage1 J_1368828996 0.5 52.8 50 0.5 0
S_2066388589 Gage1 J_2066388589 0.5 60.8 50 0.5 0
S_1368828999 Gage1 J_1368828999 0.5 23.1 50 0.5 0
S_1016228596 Gage1 J_1016228596 0.5 34.5 50 0.5 0
S_1066041419 Gage1 J_1066041419 0.5 28.0 50 0.5 0
S_1066041427 Gage1 J_1066041427 0.5 26.1 50 0.5 0
S_11021766298 Gage1 J_11021766298 0.5 60.7 50 0.5 0
S_11074670573 Gage1 J_11074670573 0.5 23.5 50 0.5 0
S_1368801653 Gage1 J_1368801653 0.5 50.5 50 0.5 0
S_1066108534 Gage1 J_1066108534 0.5 66.3 50 0.5 0
S_1368801668 Gage1 J_1368801668 0.5 47.6 50 0.5 0
S_1103012306 Gage1 J_1103012306 0.5 52.1 50 0.5 0
S_7261406108 Gage1 J_7261406108 0.5 44.4 50 0.5 0
S_14074138183 Gage1 J_14074138183 0.5 44.3 50 0.5 0
S_2623251185 Gage1 J_2623251185 0.5 19.6 50 0.5 0
S_1104250488 Gage1 J_1104250488 0.5 32.5 50 0.5 0
S_1078253103 Gage1 J_1078253103 0.5 56.7 50 0.5 0
S_11434298134 Gage1 J_11434298134 0.5 56.9 50 0.5 0
S_14074138200 Gage1 J_14074138200 0.5 64.6 50 0.5 0
S_1078253167 Gage1 J_1078253167 0.5 24.7 50 0.5 0
S_1080176720 Gage1 J_1080176720 0.5 37.7 50 0.5 0
S_5281842556 Gage1 J_5281842556 0.5 56.5 50 0.5 0
S_1437330565 Gage1 J_1437330565 0.5 20.0 50 0.5 0
S_1080176721 Gage1 J_1080176721 0.5 65.9 50 0.5 0
S_1605954184 Gage1 J_1605954184 0.5 62.7 50 0.5 0
S_1103012303 Gage1 J_1103012303 0.5 27.8 50 0.5 0
S_13535865211 Gage1 J_13535865211 0.5 20.4 50 0.5 0
S_1103012305 Gage1 J_1103012305 0.5 54.7 50 0.5 0
S_1368117382 Gage1 J_1368117382 0.5 60.1 50 0.5 0
S_1368117384 Gage1 J_1368117384 0.5 19.8 50 0.5 0
S_1502865751 Gage1 J_1502865751 0.5 55.6 50 0.5 0
S_11021437035 Gage1 J_11021437035 0.5 49.5 50 0.5 0
S_11021437031 Gage1 J_11021437031 0.5 67.6 50 0.5 0
S_9841504887 Gage1 J_9841504887 0.5 44.8 50 0.5 0
S_1104241031 Gage1 J_1104241031 0.5 25.4 50 0.5 0
S_1104241056 Gage1 J_1104241056 0.5 31.2 50 0.5 0
S_11197334454 Gage1 J_11197334454 0.5 23.2 50 0.5 0
S_1104250501 Gage1 J_1104250501 0.5 66.6 50 0.5 0
S_1104250495 Gage1 J_1104250495 0.5 30.0 50 0.5 0
S_6194047462 Gage1 J_6194047462 0.5 35.8 50 0.5 0
S_6759139268 Gage1 J_6759139268 0.5 63.9 50 0.5 0
S_1507064149 Gage1 J_1507064149 0.5 46.5 50 0.5 0
S_1507064152 Gage1 J_1507064152 0.5 52.5 50 0.5 0
S_3649025396 Gage1 J_3649025396 0.5 58.2 50 0.5 0
S_1558993952 Gage1 J_1558993952 0.5 18.3 50 0.5 0
S_9645445144 Gage1 J_9645445144 0.5 45.5 50 0.5 0
S_1590229362 Gage1 J_1590229362 0.5 34.9 50 0.5 0
S_10056189411 Gage1 J_10056189411 0.5 32.1 50 0.5 0
S_1104250524 Gage1 J_1104250524 0.5 67.0 50 0.5 0
S_12187447575 Gage1 J_12187447575 0.5 42.1 50 0.5 0
S_12098136116 Gage1 J_12098136116 0.5 52.1 50 0.5 0
S_5281842535 Gage1 J_5281842535 0.5 28.2 50 0.5 0
S_10284858598 Gage1 J_10284858598 0.5 29.6 50 0.5 0
S_1177705626 Gage1 J_1177705626 0.5 49.3 50 0.5 0
S_6901276163 Gage1 J_6901276163 0.5 54.4 50 0.5 0
S_12187502877 Gage1 J_12187502877 0.5 37.0 50 0.5 0
S_1177705914 Gage1 J_1177705914 0.5 21.4 50 0.5 0
S_11434710893 Gage1 J_11434710893 0.5 25.7 50 0.5 0
S_12961466034 Gage1 J_12961466034 0.5 48.2 50 0.5 0
S_1198163774 Gage1 J_1198163774 0.5 36.3 50 0.5 0
S_1374397406 Gage1 J_1374397406 0.5 30.2 50 0.5 0
S_12161557850 Gage1 J_12161557850 0.5 39.2 50 0.5 0
S_13802597960 Gage1 J_13802597960 0.5 38.5 50 0.5 0
S_1198169318 Gage1 J_1198169318 0.5 58.0 50 0.5 0
S_7465393503 Gage1 J_7465393503 0.5 25.5 50 0.5 0
S_7465393502 Gage1 J_7465393502 0.5 52.5 50 0.5 0
S_12362900668 Gage1 J_12362900668 0.5 38.6 50 0.5 0
S_1198169359 Gage1 J_1198169359 0.5 51.6 50 0.5 0
S_5281840014 Gage1 J_5281840014 0.5 45.9 50 0.5 0
S_7465393504 Gage1 J_7465393504 0.5 47.5 50 0.5 0
S_4458722757 Gage1 J_4458722757 0.5 44.2 50 0.5 0
S_11812221695 Gage1 J_11812221695 0.5 56.8 50 0.5 0
S_1262043907 Gage1 J_1262043907 0.5 32.0 50 0.5 0
S_1262043930 Gage1 J_1262043930 0.5 39.3 50 0.5 0
S_1770465756 Gage1 J_1770465756 0.5 53.0 50 0.5 0
S_1262043929 Gage1 J_1262043929 0.5 23.0 50 0.5 0
S_1262043916 Gage1 J_1262043916 0.5 60.7 50 0.5 0
S_1262043909 Gage1 J_1262043909 0.5 36.8 50 0.5 0
S_9928560958 Gage1 J_9928560958 0.5 60.5 50 0.5 0
S_13105830030 Gage1 J_13105830030 0.5 53.6 50 0.5 0
S_1262043934 Gage1 J_1262043934 0.5 34.4 50 0.5 0
S_1262043910 Gage1 J_1262043910 0.5 28.3 50 0.5 0
S_1262043922 Gage1 J_1262043922 0.5 36.6 50 0.5 0
S_7466386826 Gage1 J_7466386826 0.5 38.0 50 0.5 0
S_1262043932 Gage1 J_1262043932 0.5 45.6 50 0.5 0
S_1262043912 Gage1 J_1262043912 0.5 62.1 50 0.5 0
S_1262043947 Gage1 J_1262043947 0.5 26.0 50 0.5 0
S_1262043933 Gage1 J_1262043933 0.5 46.3 50 0.5 0
S_7466386827 Gage1 J_7466386827 0.5 21.4 50 0.5 0
S_1262043914 Gage1 J_1262043914 0.5 54.4 50 0.5 0
S_1262043936 Gage1 J_1262043936 0.5 48.4 50 0.5 0
S_1262043931 Gage1 J_1262043931 0.5 50.2 50 0.5 0
S_1262043919 Gage1 J_1262043919 0.5 32.6 50 0.5 0
S_6144436485 Gage1 J_6144436485 0.5 34.0 50 0.5 0
S_1966466667 Gage1 J_1966466667 0.5 28.4 50 0.5 0
S_1262043920 Gage1 J_1262043920 0.5 44.1 50 0.5 0
S_1262043938 Gage1 J_1262043938 0.5 48.1 50 0.5 0
S_7466386830 Gage1 J_7466386830 0.5 57.2 50 0.5 0
S_1262043923 Gage1 J_1262043923 0.5 36.1 50 0.5 0
S_13807649806 Gage1 J_13807649806 0.5 18.6 50 0.5 0
S_1770465746 Gage1 J_1770465746 0.5 38.2 50 0.5 0
S_9928560957 Gage1 J_9928560957 0.5 39.1 50 0.5 0
S_7466386825 Gage1 J_7466386825 0.5 19.2 50 0.5 0
S_1770465743 Gage1 J_1770465743 0.5 36.9 50 0.5 0
S_1327387669 Gage1 J_1327387669 0.5 19.6 50 0.5 0
S_1371814296 Gage1 J_1371814296 0.5 36.9 50 0.5 0
S_1371814145 Gage1 J_1371814145 0.5 45.1 50 0.5 0
S_4204925697 Gage1 J_4204925697 0.5 44.5 50 0.5 0
S_1327387674 Gage1 J_1327387674 0.5 26.3 50 0.5 0
S_1371814201 Gage1 J_1371814201 0.5 35.2 50 0.5 0
S_1371814219 Gage1 J_1371814219 0.5 28.8 50 0.5 0
S_1923819587 Gage1 J_1923819587 0.5 18.7 50 0.5 0
S_1327387675 Gage1 J_1327387675 0.5 42.6 50 0.5 0
S_1327387677 Gage1 J_1327387677 0.5 58.1 50 0.5 0
S_1327387676 Gage1 J_1327387676 0.5 66.1 50 0.5 0
S_1371814282 Gage1 J_1371814282 0.5 39.1 50 0.5 0
S_7465614235 Gage1 J_7465614235 0.5 19.0 50 0.5 0
S_1327387682 Gage1 J_1327387682 0.5 41.9 50 0.5 0
S_6194157441 Gage1 J_6194157441 0.5 54.4 50 0.5 0
S_1371814252 Gage1 J_1371814252 0.5 44.1 50 0.5 0
S_1327387679 Gage1 J_1327387679 0.5 66.8 50 0.5 0
S_1327387681 Gage1 J_1327387681 0.5 54.0 50 0.5 0
S_1371814205 Gage1 J_1371814205 0.5 38.7 50 0.5 0
S_1327387683 Gage1 J_1327387683 0.5 54.8 50 0.5 0
S_7465614240 Gage1 J_7465614240 0.5 56.0 50 0.5 0
S_1327387684 Gage1 J_1327387684 0.5 33.7 50 0.5 0
S_1327387685 Gage1 J_1327387685 0.5 27.1 50 0.5 0
S_1371814312 Gage1 J_1371814312 0.5 38.3 50 0.5 0
S_7465614246 Gage1 J_7465614246 0.5 27.5 50 0.5 0
S_11009508675 Gage1 J_11009508675 0.5 56.0 50 0.5 0
S_1327387687 Gage1 J_1327387687 0.5 38.3 50 0.5 0
S_1327387689 Gage1 J_1327387689 0.5 25.5 50 0.5 0
S_1371814209 Gage1 J_1371814209 0.5 60.6 50 0.5 0
S_1327387686 Gage1 J_1327387686 0.5 51.7 50 0.5 0
S_1371816431 Gage1 J_1371816431 0.5 33.4 50 0.5 0
S_1327387694 Gage1 J_1327387694 0.5 65.5 50 0.5 0
S_1327387695 Gage1 J_1327387695 0.5 62.0 50 0.5 0
S_1371814298 Gage1 J_1371814298 0.5 55.0 50 0.5 0
S_1327387690 Gage1 J_1327387690 0.5 61.3 50 0.5 0
S_6152762851 Gage1 J_6152762851 0.5 57.0 50 0.5 0
S_1327387692 Gage1 J_1327387692 0.5 55.8 50 0.5 0
S_4204925700 Gage1 J_4204925700 0.5 33.0 50 0.5 0
S_1371816413 Gage1 J_1371816413 0.5 30.1 50 0.5 0
S_1327387697 Gage1 J_1327387697 0.5 49.1 50 0.5 0
S_1327387698 Gage1 J_1327387698 0.5 64.0 50 0.5 0
S_11395452271 Gage1 J_11395452271 0.5 66.0 50 0.5 0
S_1327387696 Gage1 J_1327387696 0.5 51.7 50 0.5 0
S_1371816442 Gage1 J_1371816442 0.5 59.4 50 0.5 0
S_1371816427 Gage1 J_1371816427 0.5 52.2 50 0.5 0
S_1327387702 Gage1 J_1327387702 0.5 51.7 50 0.5 0
S_5281727082 Gage1 J_5281727082 0.5 39.4 50 0.5 0
S_1327387699 Gage1 J_1327387699 0.5 44.2 50 0.5 0
S_1327387701 Gage1 J_1327387701 0.5 19.8 50 0.5 0
S_1371816463 Gage1 J_1371816463 0.5 18.4 50 0.5 0
S_1371816459 Gage1 J_1371816459 0.5 51.7 50 0.5 0
S_7465614249 Gage1 J_7465614249 0.5 56.6 50 0.5 0
S_7465614251 Gage1 J_7465614251 0.5 62.7 50 0.5 0
S_1327387704 Gage1 J_1327387704 0.5 57.4 50 0.5 0
S_7465614253 Gage1 J_7465614253 0.5 41.8 50 0.5 0
S_7465614254 Gage1 J_7465614254 0.5 21.0 50 0.5 0
S_1347565267 Gage1 J_1347565267 0.5 52.3 50 0.5 0
S_7465646179 Gage1 J_7465646179 0.5 31.2 50 0.5 0
S_6620856876 Gage1 J_6620856876 0.5 36.7 50 0.5 0
S_2225133603 Gage1 J_2225133603 0.5 46.6 50 0.5 0
S_7465646180 Gage1 J_7465646180 0.5 37.0 50 0.5 0
S_1347565269 Gage1 J_1347565269 0.5 38.8 50 0.5 0
S_1347565270 Gage1 J_1347565270 0.5 42.9 50 0.5 0
S_11021533254 Gage1 J_11021533254 0.5 64.2 50 0.5 0
S_7465456816 Gage1 J_7465456816 0.5 57.3 50 0.5 0
S_7465672901 Gage1 J_7465672901 0.5 53.4 50 0.5 0
S_1634931753 Gage1 J_1634931753 0.5 65.5 50 0.5 0
S_1368117346 Gage1 J_1368117346 0.5 24.6 50 0.5 0
S_1368117304 Gage1 J_1368117304 0.5 26.7 50 0.5 0
S_1368117316 Gage1 J_1368117316 0.5 66.9 50 0.5 0
S_1371814142 Gage1 J_1371814142 0.5 23.2 50 0.5 0
S_9700074482 Gage1 J_9700074482 0.5 21.9 50 0.5 0
S_1368117325 Gage1 J_1368117325 0.5 29.0 50 0.5 0
S_9900960189 Gage1 J_9900960189 0.5 48.1 50 0.5 0
S_1368117350 Gage1 J_1368117350 0.5 30.9 50 0.5 0
S_1502865753 Gage1 J_1502865753 0.5 57.2 50 0.5 0
S_1368117363 Gage1 J_1368117363 0.5 25.9 50 0.5 0
S_5281842539 Gage1 J_5281842539 0.5 35.7 50 0.5 0
S_9645445154 Gage1 J_9645445154 0.5 36.0 50 0.5 0
S_11434400637 Gage1 J_11434400637 0.5 64.7 50 0.5 0
S_11926574593 Gage1 J_11926574593 0.5 22.8 50 0.5 0
S_1368672364 Gage1 J_1368672364 0.5 21.3 50 0.5 0
S_1701004552 Gage1 J_1701004552 0.5 18.8 50 0.5 0
S_1558993987 Gage1 J_1558993987 0.5 62.5 50 0.5 0
S_7298295670 Gage1 J_7298295670 0.5 42.3 50 0.5 0
S_1368801655 Gage1 J_1368801655 0.5 66.0 50 0.5 0
S_6182817159 Gage1 J_6182817159 0.5 49.5 50 0.5 0
S_7101732711 Gage1 J_7101732711 0.5 43.3 50 0.5 0
S_1368801659 Gage1 J_1368801659 0.5 62.9 50 0.5 0
S_1368801669 Gage1 J_1368801669 0.5 40.2 50 0.5 0
S_11027804585 Gage1 J_11027804585 0.5 41.5 50 0.5 0
S_11077269487 Gage1 J_11077269487 0.5 32.5 50 0.5 0
S_1558993902 Gage1 J_1558993902 0.5 23.7 50 0.5 0
S_1558994002 Gage1 J_1558994002 0.5 59.6 50 0.5 0
S_11397593720 Gage1 J_11397593720 0.5 32.8 50 0.5 0
S_1368801673 Gage1 J_1368801673 0.5 35.4 50 0.5 0
S_1371828535 Gage1 J_1371828535 0.5 58.2 50 0.5 0
S_10738521350 Gage1 J_10738521350 0.5 50.8 50 0.5 0
S_1368801692 Gage1 J_1368801692 0.5 33.4 50 0.5 0
S_9681688971 Gage1 J_9681688971 0.5 44.3 50 0.5 0
S_1376905664 Gage1 J_1376905664 0.5 24.5 50 0.5 0
S_1368828978 Gage1 J_1368828978 0.5 31.8 50 0.5 0
S_7298289285 Gage1 J_7298289285 0.5 67.6 50 0.5 0
S_7291167549 Gage1 J_7291167549 0.5 34.1 50 0.5 0
S_2066388564 Gage1 J_2066388564 0.5 28.5 50 0.5 0
S_1368933533 Gage1 J_1368933533 0.5 51.0 50 0.5 0
S_11640782969 Gage1 J_11640782969 0.5 56.8 50 0.5 0
S_1368933536 Gage1 J_1368933536 0.5 21.6 50 0.5 0
S_14066684544 Gage1 J_14066684544 0.5 26.6 50 0.5 0
S_7298268884 Gage1 J_7298268884 0.5 50.6 50 0.5 0
S_1371807527 Gage1 J_1371807527 0.5 60.3 50 0.5 0
S_1371807599 Gage1 J_1371807599 0.5 22.8 50 0.5 0
S_1371807607 Gage1 J_1371807607 0.5 57.5 50 0.5 0
S_5281839991 Gage1 J_5281839991 0.5 42.5 50 0.5 0
S_1371807528 Gage1 J_1371807528 0.5 54.8 50 0.5 0
S_1371807530 Gage1 J_1371807530 0.5 39.6 50 0.5 0
S_13654038141 Gage1 J_13654038141 0.5 20.5 50 0.5 0
S_1371807531 Gage1 J_1371807531 0.5 39.1 50 0.5 0
S_1371807645 Gage1 J_1371807645 0.5 18.5 50 0.5 0
S_1371807533 Gage1 J_1371807533 0.5 22.2 50 0.5 0
S_13654038123 Gage1 J_13654038123 0.5 52.7 50 0.5 0
S_1371807573 Gage1 J_1371807573 0.5 63.7 50 0.5 0
S_1371807534 Gage1 J_1371807534 0.5 44.7 50 0.5 0
S_1371807587 Gage1 J_1371807587 0.5 20.6 50 0.5 0
S_1371807535 Gage1 J_1371807535 0.5 56.5 50 0.5 0
S_1371807649 Gage1 J_1371807649 0.5 57.1 50 0.5 0
S_1371807537 Gage1 J_1371807537 0.5 27.7 50 0.5 0
S_2486617762 Gage1 J_2486617762 0.5 31.7 50 0.5 0
S_9884546155 Gage1 J_9884546155 0.5 61.2 50 0.5 0
S_7453315722 Gage1 J_7453315722 0.5 35.9 50 0.5 0
S_1371807538 Gage1 J_1371807538 0.5 64.1 50 0.5 0
S_13667500256 Gage1 J_13667500256 0.5 50.5 50 0.5 0
S_1371807540 Gage1 J_1371807540 0.5 66.7 50 0.5 0
S_1371807651 Gage1 J_1371807651 0.5 28.1 50 0.5 0
S_1371807595 Gage1 J_1371807595 0.5 48.6 50 0.5 0
S_13654030352 Gage1 J_13654030352 0.5 28.2 50 0.5 0
S_1371807542 Gage1 J_1371807542 0.5 61.0 50 0.5 0
S_11027638242 Gage1 J_11027638242 0.5 55.9 50 0.5 0
S_1371807544 Gage1 J_1371807544 0.5 58.8 50 0.5 0
S_1371807598 Gage1 J_1371807598 0.5 54.0 50 0.5 0
S_1371807657 Gage1 J_1371807657 0.5 31.7 50 0.5 0
S_3649025393 Gage1 J_3649025393 0.5 31.8 50 0.5 0
S_1371807546 Gage1 J_1371807546 0.5 63.1 50 0.5 0
S_1371807616 Gage1 J_1371807616 0.5 58.6 50 0.5 0
S_13130350871 Gage1 J_13130350871 0.5 67.6 50 0.5 0
S_13654038433 Gage1 J_13654038433 0.5 53.1 50 0.5 0
S_1371807549 Gage1 J_1371807549 0.5 57.0 50 0.5 0
S_1371807564 Gage1 J_1371807564 0.5 48.3 50 0.5 0
S_1371807666 Gage1 J_1371807666 0.5 54.4 50 0.5 0
S_1371807551 Gage1 J_1371807551 0.5 34.9 50 0.5 0
S_5281840020 Gage1 J_5281840020 0.5 48.5 50 0.5 0
S_13503417936 Gage1 J_13503417936 0.5 54.4 50 0.5 0
S_1371807558 Gage1 J_1371807558 0.5 29.8 50 0.5 0
S_1371807559 Gage1 J_1371807559 0.5 26.9 50 0.5 0
S_1371807561 Gage1 J_1371807561 0.5 35.7 50 0.5 0
S_1371807620 Gage1 J_1371807620 0.5 36.8 50 0.5 0
S_1371807563 Gage1 J_1371807563 0.5 65.8 50 0.5 0
S_13667500010 Gage1 J_13667500010 0.5 37.6 50 0.5 0
S_1371807631 Gage1 J_1371807631 0.5 60.3 50 0.5 0
S_1578236015 Gage1 J_1578236015 0.5 21.3 50 0.5 0
S_1371807612 Gage1 J_1371807612 0.5 61.7 50 0.5 0
S_7453315612 Gage1 J_7453315612 0.5 59.9 50 0.5 0
S_7453315740 Gage1 J_7453315740 0.5 56.6 50 0.5 0
S_1371807571 Gage1 J_1371807571 0.5 52.0 50 0.5 0
S_1371807652 Gage1 J_1371807652 0.5 51.7 50 0.5 0
S_7452673911 Gage1 J_7452673911 0.5 53.2 50 0.5 0
S_5283343749 Gage1 J_5283343749 0.5 27.8 50 0.5 0
S_11021488563 Gage1 J_11021488563 0.5 63.5 50 0.5 0
S_1371807572 Gage1 J_1371807572 0.5 51.8 50 0.5 0
S_1371807661 Gage1 J_1371807661 0.5 54.5 50 0.5 0
S_13667500433 Gage1 J_13667500433 0.5 22.5 50 0.5 0
S_9700074494 Gage1 J_9700074494 0.5 51.5 50 0.5 0
S_11021806270 Gage1 J_11021806270 0.5 58.7 50 0.5 0
S_9700074492 Gage1 J_9700074492 0.5 55.6 50 0.5 0
S_1371807575 Gage1 J_1371807575 0.5 62.1 50 0.5 0
S_1371807639 Gage1 J_1371807639 0.5 28.4 50 0.5 0
S_1371807578 Gage1 J_1371807578 0.5 51.7 50 0.5 0
S_1371807627 Gage1 J_1371807627 0.5 53.3 50 0.5 0
S_1371807637 Gage1 J_1371807637 0.5 28.0 50 0.5 0
S_1371807659 Gage1 J_1371807659 0.5 50.9 50 0.5 0
S_7147042929 Gage1 J_7147042929 0.5 30.2 50 0.5 0
S_1371807586 Gage1 J_1371807586 0.5 43.3 50 0.5 0
S_5281842526 Gage1 J_5281842526 0.5 36.6 50 0.5 0
S_5283547061 Gage1 J_5283547061 0.5 65.3 50 0.5 0
S_1371807592 Gage1 J_1371807592 0.5 45.2 50 0.5 0
S_5283547056 Gage1 J_5283547056 0.5 21.6 50 0.5 0
S_1371807642 Gage1 J_1371807642 0.5 41.0 50 0.5 0
S_1371807593 Gage1 J_1371807593 0.5 23.7 50 0.5 0
S_1371807654 Gage1 J_1371807654 0.5 25.9 50 0.5 0
S_2225133216 Gage1 J_2225133216 0.5 49.4 50 0.5 0
S_1371807596 Gage1 J_1371807596 0.5 42.8 50 0.5 0
S_1514989648 Gage1 J_1514989648 0.5 24.6 50 0.5 0
S_11015226552 Gage1 J_11015226552 0.5 28.2 50 0.5 0
S_7453315652 Gage1 J_7453315652 0.5 41.5 50 0.5 0
S_1371807602 Gage1 J_1371807602 0.5 49.7 50 0.5 0
S_1371807630 Gage1 J_1371807630 0.5 52.1 50 0.5 0
S_1371807606 Gage1 J_1371807606 0.5 45.7 50 0.5 0
S_1371807660 Gage1 J_1371807660 0.5 21.4 50 0.5 0
S_1371807608 Gage1 J_1371807608 0.5 19.0 50 0.5 0
S_1514989684 Gage1 J_1514989684 0.5 63.2 50 0.5 0
S_7453315436 Gage1 J_7453315436 0.5 57.9 50 0.5 0
S_1371807614 Gage1 J_1371807614 0.5 38.9 50 0.5 0
S_1590229489 Gage1 J_1590229489 0.5 31.5 50 0.5 0
S_1371814159 Gage1 J_1371814159 0.5 35.2 50 0.5 0
S_13654038308 Gage1 J_13654038308 0.5 54.6 50 0.5 0
S_11397275311 Gage1 J_11397275311 0.5 42.8 50 0.5 0
S_1371807625 Gage1 J_1371807625 0.5 50.6 50 0.5 0
S_1371814174 Gage1 J_1371814174 0.5 24.6 50 0.5 0
S_12186088999 Gage1 J_12186088999 0.5 42.3 50 0.5 0
S_1371807626 Gage1 J_1371807626 0.5 22.6 50 0.5 0
S_5281842527 Gage1 J_5281842527 0.5 28.9 50 0.5 0
S_11021417755 Gage1 J_11021417755 0.5 46.6 50 0.5 0
S_1371807646 Gage1 J_1371807646 0.5 28.0 50 0.5 0
S_11015643600 Gage1 J_11015643600 0.5 66.3 50 0.5 0
S_13654030332 Gage1 J_13654030332 0.5 43.5 50 0.5 0
S_1371814339 Gage1 J_1371814339 0.5 58.5 50 0.5 0
S_1371807633 Gage1 J_1371807633 0.5 58.4 50 0.5 0
S_1371807636 Gage1 J_1371807636 0.5 19.6 50 0.5 0
S_5283343745 Gage1 J_5283343745 0.5 63.8 50 0.5 0
S_7138383879 Gage1 J_7138383879 0.5 43.3 50 0.5 0
S_7453315624 Gage1 J_7453315624 0.5 55.5 50 0.5 0
S_3530277755 Gage1 J_3530277755 0.5 19.8 50 0.5 0
S_1371807655 Gage1 J_1371807655 0.5 39.4 50 0.5 0
S_1371807665 Gage1 J_1371807665 0.5 45.1 50 0.5 0
S_5283547059 Gage1 J_5283547059 0.5 31.6 50 0.5 0
S_1371807644 Gage1 J_1371807644 0.5 49.8 50 0.5 0
S_12598616677 Gage1 J_12598616677 0.5 24.3 50 0.5 0
S_13654030378 Gage1 J_13654030378 0.5 34.1 50 0.5 0
S_7452673919 Gage1 J_7452673919 0.5 35.6 50 0.5 0
S_11021648174 Gage1 J_11021648174 0.5 63.6 50 0.5 0
S_2225133206 Gage1 J_2225133206 0.5 22.0 50 0.5 0
S_1371807658 Gage1 J_1371807658 0.5 52.5 50 0.5 0
S_2486617761 Gage1 J_2486617761 0.5 51.3 50 0.5 0
S_1371814115 Gage1 J_1371814115 0.5 65.5 50 0.5 0
S_1371814269 Gage1 J_1371814269 0.5 27.2 50 0.5 0
S_1371814238 Gage1 J_1371814238 0.5 49.8 50 0.5 0
S_1371814161 Gage1 J_1371814161 0.5 37.2 50 0.5 0
S_1371814117 Gage1 J_1371814117 0.5 47.6 50 0.5 0
S_1371814138 Gage1 J_1371814138 0.5 43.3 50 0.5 0
S_3324726802 Gage1 J_3324726802 0.5 37.8 50 0.5 0
S_1371814248 Gage1 J_1371814248 0.5 25.9 50 0.5 0
S_1371814124 Gage1 J_1371814124 0.5 37.5 50 0.5 0
S_1371814175 Gage1 J_1371814175 0.5 54.0 50 0.5 0
S_1371814188 Gage1 J_1371814188 0.5 44.2 50 0.5 0
S_1371814251 Gage1 J_1371814251 0.5 59.8 50 0.5 0
S_1371814172 Gage1 J_1371814172 0.5 23.3 50 0.5 0
S_1371814128 Gage1 J_1371814128 0.5 23.4 50 0.5 0
S_1371814230 Gage1 J_1371814230 0.5 64.4 50 0.5 0
S_9700074467 Gage1 J_9700074467 0.5 45.6 50 0.5 0
S_1578238465 Gage1 J_1578238465 0.5 44.5 50 0.5 0
S_6617329692 Gage1 J_6617329692 0.5 56.9 50 0.5 0
S_1371814129 Gage1 J_1371814129 0.5 21.6 50 0.5 0
S_1371814193 Gage1 J_1371814193 0.5 26.4 50 0.5 0
S_1371814130 Gage1 J_1371814130 0.5 31.3 50 0.5 0
S_1371814132 Gage1 J_1371814132 0.5 23.3 50 0.5 0
S_1371814194 Gage1 J_1371814194 0.5 53.1 50 0.5 0
S_1371814294 Gage1 J_1371814294 0.5 32.7 50 0.5 0
S_1371814162 Gage1 J_1371814162 0.5 33.9 50 0.5 0
S_1598804290 Gage1 J_1598804290 0.5 31.9 50 0.5 0
S_1371814140 Gage1 J_1371814140 0.5 39.1 50 0.5 0
S_1578237528 Gage1 J_1578237528 0.5 26.2 50 0.5 0
S_1371814297 Gage1 J_1371814297 0.5 45.6 50 0.5 0
S_1371814255 Gage1 J_1371814255 0.5 26.3 50 0.5 0
S_1371814237 Gage1 J_1371814237 0.5 63.1 50 0.5 0
S_9897294963 Gage1 J_9897294963 0.5 26.4 50 0.5 0
S_1371814316 Gage1 J_1371814316 0.5 31.6 50 0.5 0
S_1371814146 Gage1 J_1371814146 0.5 46.6 50 0.5 0
S_1371814246 Gage1 J_1371814246 0.5 63.9 50 0.5 0
S_1371814148 Gage1 J_1371814148 0.5 24.4 50 0.5 0
S_1371814154 Gage1 J_1371814154 0.5 64.8 50 0.5 0
S_1371814281 Gage1 J_1371814281 0.5 60.8 50 0.5 0
S_1371814156 Gage1 J_1371814156 0.5 63.7 50 0.5 0
S_1371814265 Gage1 J_1371814265 0.5 38.8 50 0.5 0
S_1457451923 Gage1 J_1457451923 0.5 27.6 50 0.5 0
S_1371814158 Gage1 J_1371814158 0.5 63.9 50 0.5 0
S_1371814160 Gage1 J_1371814160 0.5 38.3 50 0.5 0
S_1371814267 Gage1 J_1371814267 0.5 37.5 50 0.5 0
S_7465393489 Gage1 J_7465393489 0.5 23.1 50 0.5 0
S_1371814332 Gage1 J_1371814332 0.5 30.9 50 0.5 0
S_1371814176 Gage1 J_1371814176 0.5 57.5 50 0.5 0
S_1371814300 Gage1 J_1371814300 0.5 29.3 50 0.5 0
S_1371814326 Gage1 J_1371814326 0.5 50.7 50 0.5 0
S_1371814331 Gage1 J_1371814331 0.5 37.2 50 0.5 0
S_10991440018 Gage1 J_10991440018 0.5 63.8 50 0.5 0
S_5281842533 Gage1 J_5281842533 0.5 39.8 50 0.5 0
S_1371814310 Gage1 J_1371814310 0.5 53.2 50 0.5 0
S_1371814191 Gage1 J_1371814191 0.5 18.5 50 0.5 0
S_1371814254 Gage1 J_1371814254 0.5 65.6 50 0.5 0
S_1371814222 Gage1 J_1371814222 0.5 39.3 50 0.5 0
S_7465393486 Gage1 J_7465393486 0.5 61.9 50 0.5 0
S_4204925699 Gage1 J_4204925699 0.5 54.9 50 0.5 0
S_1371814327 Gage1 J_1371814327 0.5 58.0 50 0.5 0
S_7465614239 Gage1 J_7465614239 0.5 30.9 50 0.5 0
S_1371814206 Gage1 J_1371814206 0.5 60.0 50 0.5 0
S_1371814223 Gage1 J_1371814223 0.5 40.8 50 0.5 0
S_5281842546 Gage1 J_5281842546 0.5 27.8 50 0.5 0
S_5281839988 Gage1 J_5281839988 0.5 19.3 50 0.5 0
S_1371814207 Gage1 J_1371814207 0.5 25.2 50 0.5 0
S_1371814280 Gage1 J_1371814280 0.5 56.9 50 0.5 0
S_11395452270 Gage1 J_11395452270 0.5 25.3 50 0.5 0
S_12765426026 Gage1 J_12765426026 0.5 60.8 50 0.5 0
S_6617328973 Gage1 J_6617328973 0.5 20.2 50 0.5 0
S_1371814232 Gage1 J_1371814232 0.5 30.1 50 0.5 0
S_1371814285 Gage1 J_1371814285 0.5 53.4 50 0.5 0
S_1371814239 Gage1 J_1371814239 0.5 37.6 50 0.5 0
S_5281840018 Gage1 J_5281840018 0.5 41.6 50 0.5 0
S_5281840016 Gage1 J_5281840016 0.5 57.0 50 0.5 0
S_5281842545 Gage1 J_5281842545 0.5 56.0 50 0.5 0
S_1371814308 Gage1 J_1371814308 0.5 53.9 50 0.5 0
S_10991475142 Gage1 J_10991475142 0.5 61.6 50 0.5 0
S_1371814284 Gage1 J_1371814284 0.5 18.2 50 0.5 0
S_1371814314 Gage1 J_1371814314 0.5 20.3 50 0.5 0
S_7097657282 Gage1 J_7097657282 0.5 29.2 50 0.5 0
S_9700074460 Gage1 J_9700074460 0.5 56.5 50 0.5 0
S_1371814324 Gage1 J_1371814324 0.5 37.6 50 0.5 0
S_7452673893 Gage1 J_7452673893 0.5 21.6 50 0.5 0
S_5281840019 Gage1 J_5281840019 0.5 38.9 50 0.5 0
S_5283343739 Gage1 J_5283343739 0.5 25.7 50 0.5 0
S_1371816450 Gage1 J_1371816450 0.5 27.6 50 0.5 0
S_1371816422 Gage1 J_1371816422 0.5 52.2 50 0.5 0
S_1371816419 Gage1 J_1371816419 0.5 40.9 50 0.5 0
S_1371816391 Gage1 J_1371816391 0.5 51.5 50 0.5 0
S_1371816400 Gage1 J_1371816400 0.5 26.1 50 0.5 0
S_1371816415 Gage1 J_1371816415 0.5 50.8 50 0.5 0
S_1371816443 Gage1 J_1371816443 0.5 60.7 50 0.5 0
S_1371816460 Gage1 J_1371816460 0.5 24.5 50 0.5 0
S_1371816401 Gage1 J_1371816401 0.5 42.9 50 0.5 0
S_1371816402 Gage1 J_1371816402 0.5 30.4 50 0.5 0
S_1371816464 Gage1 J_1371816464 0.5 37.2 50 0.5 0
S_1371816425 Gage1 J_1371816425 0.5 67.7 50 0.5 0
S_1371816407 Gage1 J_1371816407 0.5 30.4 50 0.5 0
S_1371816435 Gage1 J_1371816435 0.5 36.3 50 0.5 0
S_11438418704 Gage1 J_11438418704 0.5 33.0 50 0.5 0
S_1371816440 Gage1 J_1371816440 0.5 67.1 50 0.5 0
S_11885696210 Gage1 J_11885696210 0.5 45.2 50 0.5 0
S_1371816417 Gage1 J_1371816417 0.5 50.5 50 0.5 0
S_1371816446 Gage1 J_1371816446 0.5 54.5 50 0.5 0
S_5281842548 Gage1 J_5281842548 0.5 28.8 50 0.5 0
S_4730103812 Gage1 J_4730103812 0.5 61.7 50 0.5 0
S_1371816441 Gage1 J_1371816441 0.5 39.2 50 0.5 0
S_6901280956 Gage1 J_6901280956 0.5 49.2 50 0.5 0
S_7465456827 Gage1 J_7465456827 0.5 63.0 50 0.5 0
S_1371816462 Gage1 J_1371816462 0.5 52.9 50 0.5 0
S_1371828528 Gage1 J_1371828528 0.5 58.8 50 0.5 0
S_1371828545 Gage1 J_1371828545 0.5 26.7 50 0.5 0
S_7298289263 Gage1 J_7298289263 0.5 44.0 50 0.5 0
S_1371828540 Gage1 J_1371828540 0.5 66.9 50 0.5 0
S_7298289227 Gage1 J_7298289227 0.5 26.1 50 0.5 0
S_1371828539 Gage1 J_1371828539 0.5 24.2 50 0.5 0
S_1371828531 Gage1 J_1371828531 0.5 30.2 50 0.5 0
S_13830106177 Gage1 J_13830106177 0.5 40.0 50 0.5 0
S_9900960144 Gage1 J_9900960144 0.5 59.0 50 0.5 0
S_11397402715 Gage1 J_11397402715 0.5 44.8 50 0.5 0
S_1371828533 Gage1 J_1371828533 0.5 25.6 50 0.5 0
S_7298289303 Gage1 J_7298289303 0.5 24.8 50 0.5 0
S_10084814543 Gage1 J_10084814543 0.5 47.0 50 0.5 0
S_7140718125 Gage1 J_7140718125 0.5 24.5 50 0.5 0
S_7140718121 Gage1 J_7140718121 0.5 42.4 50 0.5 0
S_1371828543 Gage1 J_1371828543 0.5 56.5 50 0.5 0
S_7298289304 Gage1 J_7298289304 0.5 42.6 50 0.5 0
S_10266837398 Gage1 J_10266837398 0.5 65.2 50 0.5 0
S_7140718123 Gage1 J_7140718123 0.5 28.9 50 0.5 0
S_7298289290 Gage1 J_7298289290 0.5 59.9 50 0.5 0
S_1511238410 Gage1 J_1511238410 0.5 41.9 50 0.5 0
S_1376905673 Gage1 J_1376905673 0.5 41.4 50 0.5 0
S_1376905667 Gage1 J_1376905667 0.5 20.5 50 0.5 0
S_1376905672 Gage1 J_1376905672 0.5 23.6 50 0.5 0
S_1376905671 Gage1 J_1376905671 0.5 43.9 50 0.5 0
S_7452712421 Gage1 J_7452712421 0.5 37.8 50 0.5 0
S_13655653225 Gage1 J_13655653225 0.5 40.8 50 0.5 0
S_1382528610 Gage1 J_1382528610 0.5 67.5 50 0.5 0
S_1384732339 Gage1 J_1384732339 0.5 36.6 50 0.5 0
S_9982048425 Gage1 J_9982048425 0.5 61.7 50 0.5 0
S_7465456846 Gage1 J_7465456846 0.5 63.1 50 0.5 0
S_11885832888 Gage1 J_11885832888 0.5 58.1 50 0.5 0
S_1384732709 Gage1 J_1384732709 0.5 45.1 50 0.5 0
S_11885832889 Gage1 J_11885832889 0.5 24.7 50 0.5 0
S_7465456828 Gage1 J_7465456828 0.5 40.2 50 0.5 0
S_1384732910 Gage1 J_1384732910 0.5 34.3 50 0.5 0
S_7465456843 Gage1 J_7465456843 0.5 42.2 50 0.5 0
S_9982048419 Gage1 J_9982048419 0.5 26.7 50 0.5 0
S_11409245945 Gage1 J_11409245945 0.5 46.1 50 0.5 0
S_1384733202 Gage1 J_1384733202 0.5 48.4 50 0.5 0
S_11397260844 Gage1 J_11397260844 0.5 34.3 50 0.5 0
S_1585741084 Gage1 J_1585741084 0.5 58.4 50 0.5 0
S_11006982239 Gage1 J_11006982239 0.5 54.3 50 0.5 0
S_1605954141 Gage1 J_1605954141 0.5 21.6 50 0.5 0
S_1439027926 Gage1 J_1439027926 0.5 35.8 50 0.5 0
S_1505269146 Gage1 J_1505269146 0.5 37.2 50 0.5 0
S_1443044904 Gage1 J_1443044904 0.5 21.8 50 0.5 0
S_1631443363 Gage1 J_1631443363 0.5 28.4 50 0.5 0
S_1443044792 Gage1 J_1443044792 0.5 29.3 50 0.5 0
S_11002846646 Gage1 J_11002846646 0.5 38.3 50 0.5 0
S_13130886315 Gage1 J_13130886315 0.5 34.8 50 0.5 0
S_9867253967 Gage1 J_9867253967 0.5 21.1 50 0.5 0
S_11002846647 Gage1 J_11002846647 0.5 45.9 50 0.5 0
S_1443044865 Gage1 J_1443044865 0.5 26.7 50 0.5 0
S_1443044896 Gage1 J_1443044896 0.5 30.1 50 0.5 0
S_7298289268 Gage1 J_7298289268 0.5 23.8 50 0.5 0
S_1443044900 Gage1 J_1443044900 0.5 49.1 50 0.5 0
S_1631443235 Gage1 J_1631443235 0.5 55.4 50 0.5 0
S_1457451930 Gage1 J_1457451930 0.5 53.0 50 0.5 0
S_1457451925 Gage1 J_1457451925 0.5 50.1 50 0.5 0
S_1598804288 Gage1 J_1598804288 0.5 24.0 50 0.5 0
S_5281839987 Gage1 J_5281839987 0.5 64.1 50 0.5 0
S_1470833636 Gage1 J_1470833636 0.5 48.4 50 0.5 0
S_1470833628 Gage1 J_1470833628 0.5 48.5 50 0.5 0
S_1470833622 Gage1 J_1470833622 0.5 62.1 50 0.5 0
S_1470833646 Gage1 J_1470833646 0.5 23.9 50 0.5 0
S_1470833630 Gage1 J_1470833630 0.5 37.2 50 0.5 0
S_1470833645 Gage1 J_1470833645 0.5 31.1 50 0.5 0
S_1470833629 Gage1 J_1470833629 0.5 43.0 50 0.5 0
S_10716532018 Gage1 J_10716532018 0.5 26.7 50 0.5 0
S_1470833639 Gage1 J_1470833639 0.5 49.4 50 0.5 0
S_1470833634 Gage1 J_1470833634 0.5 38.6 50 0.5 0
S_1470833650 Gage1 J_1470833650 0.5 20.4 50 0.5 0
S_6632636571 Gage1 J_6632636571 0.5 67.0 50 0.5 0
S_1470833643 Gage1 J_1470833643 0.5 60.8 50 0.5 0
S_11017633319 Gage1 J_11017633319 0.5 26.2 50 0.5 0
S_1492407658 Gage1 J_1492407658 0.5 33.2 50 0.5 0
S_11414136196 Gage1 J_11414136196 0.5 43.6 50 0.5 0
S_11182447927 Gage1 J_11182447927 0.5 44.8 50 0.5 0
S_1485730731 Gage1 J_1485730731 0.5 28.8 50 0.5 0
S_6180767894 Gage1 J_6180767894 0.5 66.4 50 0.5 0
S_1485730738 Gage1 J_1485730738 0.5 48.7 50 0.5 0
S_6142680814 Gage1 J_6142680814 0.5 63.1 50 0.5 0
S_1485730754 Gage1 J_1485730754 0.5 18.4 50 0.5 0
S_1485730751 Gage1 J_1485730751 0.5 39.1 50 0.5 0
S_1485730776 Gage1 J_1485730776 0.5 67.6 50 0.5 0
S_6142680813 Gage1 J_6142680813 0.5 21.1 50 0.5 0
S_1485730755 Gage1 J_1485730755 0.5 34.3 50 0.5 0
S_1485730774 Gage1 J_1485730774 0.5 45.1 50 0.5 0
S_1485730775 Gage1 J_1485730775 0.5 47.7 50 0.5 0
S_6142628592 Gage1 J_6142628592 0.5 54.7 50 0.5 0
S_1492407651 Gage1 J_1492407651 0.5 51.8 50 0.5 0
S_1492407663 Gage1 J_1492407663 0.5 20.8 50 0.5 0
S_1492407639 Gage1 J_1492407639 0.5 50.0 50 0.5 0
S_9839093177 Gage1 J_9839093177 0.5 63.4 50 0.5 0
S_9839093175 Gage1 J_9839093175 0.5 56.0 50 0.5 0
S_1492407640 Gage1 J_1492407640 0.5 47.4 50 0.5 0
S_10017481091 Gage1 J_10017481091 0.5 30.5 50 0.5 0
S_1634931733 Gage1 J_1634931733 0.5 18.4 50 0.5 0
S_1492407645 Gage1 J_1492407645 0.5 30.8 50 0.5 0
S_13041011660 Gage1 J_13041011660 0.5 50.6 50 0.5 0
S_2048245856 Gage1 J_2048245856 0.5 55.8 50 0.5 0
S_11184922059 Gage1 J_11184922059 0.5 28.0 50 0.5 0
S_1492407646 Gage1 J_1492407646 0.5 18.5 50 0.5 0
S_7466375684 Gage1 J_7466375684 0.5 58.8 50 0.5 0
S_11017641140 Gage1 J_11017641140 0.5 67.5 50 0.5 0
S_1492407652 Gage1 J_1492407652 0.5 38.4 50 0.5 0
S_1497326586 Gage1 J_1497326586 0.5 46.1 50 0.5 0
S_5281840005 Gage1 J_5281840005 0.5 20.8 50 0.5 0
S_10841617807 Gage1 J_10841617807 0.5 59.8 50 0.5 0
S_7298289308 Gage1 J_7298289308 0.5 35.9 50 0.5 0
S_1502865760 Gage1 J_1502865760 0.5 35.5 50 0.5 0
S_7101732724 Gage1 J_7101732724 0.5 46.8 50 0.5 0
S_1558993985 Gage1 J_1558993985 0.5 58.0 50 0.5 0
S_1502865776 Gage1 J_1502865776 0.5 43.3 50 0.5 0
S_1502865762 Gage1 J_1502865762 0.5 32.5 50 0.5 0
S_10209103447 Gage1 J_10209103447 0.5 37.3 50 0.5 0
S_7140718119 Gage1 J_7140718119 0.5 50.7 50 0.5 0
S_1852671167 Gage1 J_1852671167 0.5 61.6 50 0.5 0
S_1502865774 Gage1 J_1502865774 0.5 49.3 50 0.5 0
S_1558993906 Gage1 J_1558993906 0.5 42.3 50 0.5 0
S_1558994048 Gage1 J_1558994048 0.5 29.9 50 0.5 0
S_1505269133 Gage1 J_1505269133 0.5 64.9 50 0.5 0
S_1505269186 Gage1 J_1505269186 0.5 23.7 50 0.5 0
S_7101760810 Gage1 J_7101760810 0.5 21.9 50 0.5 0
S_1505269171 Gage1 J_1505269171 0.5 33.3 50 0.5 0
S_7298289243 Gage1 J_7298289243 0.5 25.9 50 0.5 0
S_7298289210 Gage1 J_7298289210 0.5 44.2 50 0.5 0
S_11028823357 Gage1 J_11028823357 0.5 62.1 50 0.5 0
S_1507064166 Gage1 J_1507064166 0.5 21.2 50 0.5 0
S_13655652829 Gage1 J_13655652829 0.5 33.2 50 0.5 0
S_1511238406 Gage1 J_1511238406 0.5 62.3 50 0.5 0
S_12999157124 Gage1 J_12999157124 0.5 31.8 50 0.5 0
S_9928561082 Gage1 J_9928561082 0.5 58.1 50 0.5 0
S_6901363516 Gage1 J_6901363516 0.5 37.5 50 0.5 0
S_4458722643 Gage1 J_4458722643 0.5 24.8 50 0.5 0
S_4458722689 Gage1 J_4458722689 0.5 42.4 50 0.5 0
S_11015173157 Gage1 J_11015173157 0.5 55.0 50 0.5 0
S_1514989656 Gage1 J_1514989656 0.5 22.2 50 0.5 0
S_7453315306 Gage1 J_7453315306 0.5 54.4 50 0.5 0
S_7453315718 Gage1 J_7453315718 0.5 27.6 50 0.5 0
S_7452673917 Gage1 J_7452673917 0.5 66.4 50 0.5 0
S_1514989685 Gage1 J_1514989685 0.5 36.2 50 0.5 0
S_9901111715 Gage1 J_9901111715 0.5 19.0 50 0.5 0
S_1558993988 Gage1 J_1558993988 0.5 40.6 50 0.5 0
S_1558993939 Gage1 J_1558993939 0.5 28.1 50 0.5 0
S_7298289310 Gage1 J_7298289310 0.5 53.9 50 0.5 0
S_1558993929 Gage1 J_1558993929 0.5 39.0 50 0.5 0
S_1558994010 Gage1 J_1558994010 0.5 26.6 50 0.5 0
S_11397404812 Gage1 J_11397404812 0.5 40.4 50 0.5 0
S_1558993961 Gage1 J_1558993961 0.5 23.8 50 0.5 0
S_1558993933 Gage1 J_1558993933 0.5 51.9 50 0.5 0
S_7298289189 Gage1 J_7298289189 0.5 44.6 50 0.5 0
S_12244701790 Gage1 J_12244701790 0.5 52.3 50 0.5 0
S_11397404821 Gage1 J_11397404821 0.5 53.9 50 0.5 0
S_10209123011 Gage1 J_10209123011 0.5 51.3 50 0.5 0
S_6142293179 Gage1 J_6142293179 0.5 39.8 50 0.5 0
S_1558993942 Gage1 J_1558993942 0.5 44.5 50 0.5 0
S_12196464672 Gage1 J_12196464672 0.5 26.3 50 0.5 0
S_11397593732 Gage1 J_11397593732 0.5 32.8 50 0.5 0
S_7175603121 Gage1 J_7175603121 0.5 36.7 50 0.5 0
S_10991915618 Gage1 J_10991915618 0.5 23.4 50 0.5 0
S_1558993960 Gage1 J_1558993960 0.5 55.0 50 0.5 0
S_12151901678 Gage1 J_12151901678 0.5 52.7 50 0.5 0
S_7175594106 Gage1 J_7175594106 0.5 56.3 50 0.5 0
S_7175594101 Gage1 J_7175594101 0.5 23.8 50 0.5 0
S_11045649363 Gage1 J_11045649363 0.5 49.5 50 0.5 0
S_11045649364 Gage1 J_11045649364 0.5 47.6 50 0.5 0
S_7101732727 Gage1 J_7101732727 0.5 62.2 50 0.5 0
S_7101732710 Gage1 J_7101732710 0.5 47.3 50 0.5 0
S_1558993992 Gage1 J_1558993992 0.5 42.7 50 0.5 0
S_7101732723 Gage1 J_7101732723 0.5 38.9 50 0.5 0
S_1558994009 Gage1 J_1558994009 0.5 36.3 50 0.5 0
S_1558994055 Gage1 J_1558994055 0.5 57.0 50 0.5 0
S_11397404814 Gage1 J_11397404814 0.5 27.0 50 0.5 0
S_1558994024 Gage1 J_1558994024 0.5 34.8 50 0.5 0
S_10978638722 Gage1 J_10978638722 0.5 36.1 50 0.5 0
S_1558994025 Gage1 J_1558994025 0.5 25.8 50 0.5 0
S_1558994047 Gage1 J_1558994047 0.5 49.4 50 0.5 0
S_10978640856 Gage1 J_10978640856 0.5 18.7 50 0.5 0
S_7291167618 Gage1 J_7291167618 0.5 27.4 50 0.5 0
S_1589223971 Gage1 J_1589223971 0.5 27.0 50 0.5 0
S_1590229329 Gage1 J_1590229329 0.5 26.9 50 0.5 0
S_1590229523 Gage1 J_1590229523 0.5 59.2 50 0.5 0
S_1590229591 Gage1 J_1590229591 0.5 52.4 50 0.5 0
S_1605954172 Gage1 J_1605954172 0.5 63.8 50 0.5 0
S_1605954220 Gage1 J_1605954220 0.5 46.8 50 0.5 0
S_1605954168 Gage1 J_1605954168 0.5 21.0 50 0.5 0
S_1605954178 Gage1 J_1605954178 0.5 55.7 50 0.5 0
S_1605954206 Gage1 J_1605954206 0.5 52.5 50 0.5 0
S_11375356861 Gage1 J_11375356861 0.5 34.0 50 0.5 0
S_1605954179 Gage1 J_1605954179 0.5 27.5 50 0.5 0
S_7466456019 Gage1 J_7466456019 0.5 57.3 50 0.5 0
S_1605954215 Gage1 J_1605954215 0.5 30.4 50 0.5 0
S_11169596337 Gage1 J_11169596337 0.5 42.7 50 0.5 0
S_7291147477 Gage1 J_7291147477 0.5 19.8 50 0.5 0
S_1633904682 Gage1 J_1633904682 0.5 45.2 50 0.5 0
S_1633904785 Gage1 J_1633904785 0.5 63.6 50 0.5 0
S_7465449566 Gage1 J_7465449566 0.5 51.2 50 0.5 0
S_1633904727 Gage1 J_1633904727 0.5 25.5 50 0.5 0
S_13152307780 Gage1 J_13152307780 0.5 59.0 50 0.5 0
S_10232936572 Gage1 J_10232936572 0.5 49.9 50 0.5 0
S_1633904764 Gage1 J_1633904764 0.5 55.8 50 0.5 0
S_7465449561 Gage1 J_7465449561 0.5 55.3 50 0.5 0
S_7465449565 Gage1 J_7465449565 0.5 24.5 50 0.5 0
S_7465449562 Gage1 J_7465449562 0.5 66.8 50 0.5 0
S_7465449557 Gage1 J_7465449557 0.5 59.4 50 0.5 0
S_13152322515 Gage1 J_13152322515 0.5 62.4 50 0.5 0
S_1633904819 Gage1 J_1633904819 0.5 36.5 50 0.5 0
S_7465393573 Gage1 J_7465393573 0.5 19.7 50 0.5 0
S_7263113742 Gage1 J_7263113742 0.5 54.4 50 0.5 0
S_11002858225 Gage1 J_11002858225 0.5 29.6 50 0.5 0
S_1634931522 Gage1 J_1634931522 0.5 27.5 50 0.5 0
S_1634931847 Gage1 J_1634931847 0.5 29.3 50 0.5 0
S_1634931610 Gage1 J_1634931610 0.5 23.3 50 0.5 0
S_7298289286 Gage1 J_7298289286 0.5 51.1 50 0.5 0
S_10044811669 Gage1 J_10044811669 0.5 47.8 50 0.5 0
S_1634931831 Gage1 J_1634931831 0.5 43.5 50 0.5 0
S_11003036767 Gage1 J_11003036767 0.5 44.3 50 0.5 0
S_1634931868 Gage1 J_1634931868 0.5 44.5 50 0.5 0
S_12393621582 Gage1 J_12393621582 0.5 27.0 50 0.5 0
S_5281842568 Gage1 J_5281842568 0.5 42.3 50 0.5 0
S_5281842566 Gage1 J_5281842566 0.5 39.1 50 0.5 0
S_1634963569 Gage1 J_1634963569 0.5 37.4 50 0.5 0
S_1697942242 Gage1 J_1697942242 0.5 47.6 50 0.5 0
S_5281842584 Gage1 J_5281842584 0.5 55.8 50 0.5 0
S_5281842576 Gage1 J_5281842576 0.5 41.9 50 0.5 0
S_1701004555 Gage1 J_1701004555 0.5 28.2 50 0.5 0
S_13098366974 Gage1 J_13098366974 0.5 61.3 50 0.5 0
S_1718788929 Gage1 J_1718788929 0.5 50.5 50 0.5 0
S_10277100421 Gage1 J_10277100421 0.5 33.5 50 0.5 0
S_1718789067 Gage1 J_1718789067 0.5 26.7 50 0.5 0
S_1718788930 Gage1 J_1718788930 0.5 43.2 50 0.5 0
S_3649031394 Gage1 J_3649031394 0.5 62.0 50 0.5 0
S_1759857345 Gage1 J_1759857345 0.5 62.3 50 0.5 0
S_2987147432 Gage1 J_2987147432 0.5 46.1 50 0.5 0
S_1770465751 Gage1 J_1770465751 0.5 25.3 50 0.5 0
S_1770465753 Gage1 J_1770465753 0.5 18.9 50 0.5 0
S_7298295682 Gage1 J_7298295682 0.5 46.0 50 0.5 0
S_13041011663 Gage1 J_13041011663 0.5 46.2 50 0.5 0
S_2048245859 Gage1 J_2048245859 0.5 55.0 50 0.5 0
S_13041011665 Gage1 J_13041011665 0.5 32.6 50 0.5 0
S_11002607129 Gage1 J_11002607129 0.5 55.9 50 0.5 0
S_11056570933 Gage1 J_11056570933 0.5 57.5 50 0.5 0
S_2376774391 Gage1 J_2376774391 0.5 48.1 50 0.5 0
S_11434512223 Gage1 J_11434512223 0.5 21.1 50 0.5 0
S_2225133167 Gage1 J_2225133167 0.5 38.4 50 0.5 0
S_2225133173 Gage1 J_2225133173 0.5 31.9 50 0.5 0
S_2225133175 Gage1 J_2225133175 0.5 54.5 50 0.5 0
S_9700074499 Gage1 J_9700074499 0.5 36.9 50 0.5 0
S_2225133195 Gage1 J_2225133195 0.5 48.2 50 0.5 0
S_2225133212 Gage1 J_2225133212 0.5 63.2 50 0.5 0
S_7147088714 Gage1 J_7147088714 0.5 48.0 50 0.5 0
S_2225133199 Gage1 J_2225133199 0.5 22.4 50 0.5 0
S_12698276487 Gage1 J_12698276487 0.5 41.3 50 0.5 0
S_11021676037 Gage1 J_11021676037 0.5 39.9 50 0.5 0
S_13645830539 Gage1 J_13645830539 0.5 32.5 50 0.5 0
S_7453315614 Gage1 J_7453315614 0.5 24.3 50 0.5 0
S_2225133295 Gage1 J_2225133295 0.5 35.1 50 0.5 0
S_2225133273 Gage1 J_2225133273 0.5 24.8 50 0.5 0
S_11021755952 Gage1 J_11021755952 0.5 65.8 50 0.5 0
S_7453315392 Gage1 J_7453315392 0.5 38.1 50 0.5 0
S_2225133309 Gage1 J_2225133309 0.5 47.1 50 0.5 0
S_2225133523 Gage1 J_2225133523 0.5 53.0 50 0.5 0
S_6753110523 Gage1 J_6753110523 0.5 30.8 50 0.5 0
S_6753110522 Gage1 J_6753110522 0.5 60.4 50 0.5 0
S_2225133530 Gage1 J_2225133530 0.5 35.1 50 0.5 0
S_6753110521 Gage1 J_6753110521 0.5 57.5 50 0.5 0
S_7263139539 Gage1 J_7263139539 0.5 58.6 50 0.5 0
S_2225133551 Gage1 J_2225133551 0.5 31.3 50 0.5 0
S_11438298620 Gage1 J_11438298620 0.5 32.3 50 0.5 0
S_7465456797 Gage1 J_7465456797 0.5 36.1 50 0.5 0
S_9982048431 Gage1 J_9982048431 0.5 39.7 50 0.5 0
S_6748996026 Gage1 J_6748996026 0.5 34.6 50 0.5 0
S_11846741326 Gage1 J_11846741326 0.5 38.6 50 0.5 0
S_7453315632 Gage1 J_7453315632 0.5 53.7 50 0.5 0
S_2376774417 Gage1 J_2376774417 0.5 52.7 50 0.5 0
S_13720252591 Gage1 J_13720252591 0.5 26.1 50 0.5 0
S_12141933090 Gage1 J_12141933090 0.5 24.8 50 0.5 0
S_13656305932 Gage1 J_13656305932 0.5 45.5 50 0.5 0
S_2508149195 Gage1 J_2508149195 0.5 41.5 50 0.5 0
S_2578488068 Gage1 J_2578488068 0.5 45.5 50 0.5 0
S_13607317196 Gage1 J_13607317196 0.5 32.7 50 0.5 0
S_13607317191 Gage1 J_13607317191 0.5 47.5 50 0.5 0
S_2578488069 Gage1 J_2578488069 0.5 35.8 50 0.5 0
S_2623258606 Gage1 J_2623258606 0.5 65.6 50 0.5 0
S_2987147429 Gage1 J_2987147429 0.5 59.7 50 0.5 0
S_2987148124 Gage1 J_2987148124 0.5 40.8 50 0.5 0
S_7465614187 Gage1 J_7465614187 0.5 64.2 50 0.5 0
S_2987149133 Gage1 J_2987149133 0.5 40.9 50 0.5 0
S_2987148123 Gage1 J_2987148123 0.5 23.2 50 0.5 0
S_11885834678 Gage1 J_11885834678 0.5 28.9 50 0.5 0
S_7465614189 Gage1 J_7465614189 0.5 21.3 50 0.5 0
S_3300742565 Gage1 J_3300742565 0.5 50.1 50 0.5 0
S_3324730976 Gage1 J_3324730976 0.5 44.5 50 0.5 0
S_3528034343 Gage1 J_3528034343 0.5 32.5 50 0.5 0
S_6748996035 Gage1 J_6748996035 0.5 59.7 50 0.5 0
S_9700303070 Gage1 J_9700303070 0.5 46.7 50 0.5 0
S_3545987056 Gage1 J_3545987056 0.5 55.2 50 0.5 0
S_11003046329 Gage1 J_11003046329 0.5 59.6 50 0.5 0
S_11003034318 Gage1 J_11003034318 0.5 60.7 50 0.5 0
S_3649025375 Gage1 J_3649025375 0.5 55.0 50 0.5 0
S_3649025381 Gage1 J_3649025381 0.5 64.3 50 0.5 0
S_13655652480 Gage1 J_13655652480 0.5 61.3 50 0.5 0
S_3649031405 Gage1 J_3649031405 0.5 34.9 50 0.5 0
S_7147090917 Gage1 J_7147090917 0.5 62.4 50 0.5 0
S_13715446989 Gage1 J_13715446989 0.5 47.6 50 0.5 0
S_13064733100 Gage1 J_13064733100 0.5 26.9 50 0.5 0
S_4458722522 Gage1 J_4458722522 0.5 24.1 50 0.5 0
S_4458722721 Gage1 J_4458722721 0.5 20.5 50 0.5 0
S_4458722823 Gage1 J_4458722823 0.5 37.5 50 0.5 0
S_4458722559 Gage1 J_4458722559 0.5 47.5 50 0.5 0
S_4458722553 Gage1 J_4458722553 0.5 21.5 50 0.5 0
S_7452673912 Gage1 J_7452673912 0.5 44.3 50 0.5 0
S_7453315599 Gage1 J_7453315599 0.5 63.6 50 0.5 0
S_13041584929 Gage1 J_13041584929 0.5 33.8 50 0.5 0
S_7138383902 Gage1 J_7138383902 0.5 63.2 50 0.5 0
S_11419446866 Gage1 J_11419446866 0.5 63.1 50 0.5 0
S_11015153616 Gage1 J_11015153616 0.5 23.8 50 0.5 0
S_4458722622 Gage1 J_4458722622 0.5 67.0 50 0.5 0
S_4458722731 Gage1 J_4458722731 0.5 65.7 50 0.5 0
S_11007663483 Gage1 J_11007663483 0.5 46.8 50 0.5 0
S_4458722675 Gage1 J_4458722675 0.5 34.7 50 0.5 0
S_4458722626 Gage1 J_4458722626 0.5 38.6 50 0.5 0
S_7453315580 Gage1 J_7453315580 0.5 43.0 50 0.5 0
S_7453315717 Gage1 J_7453315717 0.5 47.3 50 0.5 0
S_7453315577 Gage1 J_7453315577 0.5 29.0 50 0.5 0
S_12690216001 Gage1 J_12690216001 0.5 66.9 50 0.5 0
S_4458722633 Gage1 J_4458722633 0.5 39.6 50 0.5 0
S_10593463232 Gage1 J_10593463232 0.5 62.0 50 0.5 0
S_7263140430 Gage1 J_7263140430 0.5 36.0 50 0.5 0
S_7138383899 Gage1 J_7138383899 0.5 26.0 50 0.5 0
S_11007663477 Gage1 J_11007663477 0.5 63.8 50 0.5 0
S_11812221683 Gage1 J_11812221683 0.5 57.0 50 0.5 0
S_4458722815 Gage1 J_4458722815 0.5 22.9 50 0.5 0
S_4458722824 Gage1 J_4458722824 0.5 57.6 50 0.5 0
S_6141750279 Gage1 J_6141750279 0.5 20.4 50 0.5 0
S_4730103806 Gage1 J_4730103806 0.5 50.8 50 0.5 0
S_4730103816 Gage1 J_4730103816 0.5 28.2 50 0.5 0
S_9866129294 Gage1 J_9866129294 0.5 27.3 50 0.5 0
S_5281691576 Gage1 J_5281691576 0.5 49.1 50 0.5 0
S_5281691577 Gage1 J_5281691577 0.5 60.1 50 0.5 0
S_5281842544 Gage1 J_5281842544 0.5 47.3 50 0.5 0
S_5281727083 Gage1 J_5281727083 0.5 25.5 50 0.5 0
S_7465614252 Gage1 J_7465614252 0.5 57.0 50 0.5 0
S_5281839990 Gage1 J_5281839990 0.5 29.9 50 0.5 0
S_5281840000 Gage1 J_5281840000 0.5 41.9 50 0.5 0
S_6902150001 Gage1 J_6902150001 0.5 58.4 50 0.5 0
S_11197334457 Gage1 J_11197334457 0.5 64.4 50 0.5 0
S_5281840017 Gage1 J_5281840017 0.5 59.2 50 0.5 0
S_5281842521 Gage1 J_5281842521 0.5 48.3 50 0.5 0
S_6168910216 Gage1 J_6168910216 0.5 38.3 50 0.5 0
S_5281842523 Gage1 J_5281842523 0.5 57.9 50 0.5 0
S_13656305937 Gage1 J_13656305937 0.5 27.2 50 0.5 0
S_5283547058 Gage1 J_5283547058 0.5 25.3 50 0.5 0
S_13667500182 Gage1 J_13667500182 0.5 30.2 50 0.5 0
S_5281842528 Gage1 J_5281842528 0.5 64.2 50 0.5 0
S_5281842531 Gage1 J_5281842531 0.5 43.3 50 0.5 0
S_5283343737 Gage1 J_5283343737 0.5 67.3 50 0.5 0
S_13652990523 Gage1 J_13652990523 0.5 51.2 50 0.5 0
S_5281842532 Gage1 J_5281842532 0.5 40.9 50 0.5 0
S_5281842534 Gage1 J_5281842534 0.5 20.1 50 0.5 0
S_5281842537 Gage1 J_5281842537 0.5 53.5 50 0.5 0
S_5281842536 Gage1 J_5281842536 0.5 60.6 50 0.5 0
S_5281842538 Gage1 J_5281842538 0.5 42.9 50 0.5 0
S_10991832380 Gage1 J_10991832380 0.5 58.2 50 0.5 0
S_5281842557 Gage1 J_5281842557 0.5 34.5 50 0.5 0
S_5281842559 Gage1 J_5281842559 0.5 47.7 50 0.5 0
S_5281842560 Gage1 J_5281842560 0.5 26.7 50 0.5 0
S_5281842561 Gage1 J_5281842561 0.5 54.9 50 0.5 0
S_5281842563 Gage1 J_5281842563 0.5 33.5 50 0.5 0
S_5281842564 Gage1 J_5281842564 0.5 25.6 50 0.5 0
S_5281842565 Gage1 J_5281842565 0.5 21.6 50 0.5 0
S_7101760800 Gage1 J_7101760800 0.5 52.0 50 0.5 0
S_5281842569 Gage1 J_5281842569 0.5 38.8 50 0.5 0
S_6911835051 Gage1 J_6911835051 0.5 48.1 50 0.5 0
S_5281842571 Gage1 J_5281842571 0.5 44.6 50 0.5 0
S_6911835052 Gage1 J_6911835052 0.5 52.6 50 0.5 0
S_5281842573 Gage1 J_5281842573 0.5 56.3 50 0.5 0
S_6911835053 Gage1 J_6911835053 0.5 39.9 50 0.5 0
S_5281842574 Gage1 J_5281842574 0.5 48.9 50 0.5 0
S_5281842575 Gage1 J_5281842575 0.5 57.2 50 0.5 0
S_6911835054 Gage1 J_6911835054 0.5 33.5 50 0.5 0
S_5283343736 Gage1 J_5283343736 0.5 56.8 50 0.5 0
S_11395872426 Gage1 J_11395872426 0.5 55.5 50 0.5 0
S_5283343744 Gage1 J_5283343744 0.5 41.1 50 0.5 0
S_11015173154 Gage1 J_11015173154 0.5 35.2 50 0.5 0
S_11436636897 Gage1 J_11436636897 0.5 31.8 50 0.5 0
S_5283343748 Gage1 J_5283343748 0.5 50.3 50 0.5 0
S_13127664189 Gage1 J_13127664189 0.5 45.5 50 0.5 0
S_5283343750 Gage1 J_5283343750 0.5 52.4 50 0.5 0
S_5283343751 Gage1 J_5283343751 0.5 34.5 50 0.5 0
S_5283343753 Gage1 J_5283343753 0.5 48.4 50 0.5 0
S_13667499252 Gage1 J_13667499252 0.5 63.6 50 0.5 0
S_10687414876 Gage1 J_10687414876 0.5 59.4 50 0.5 0
S_7147063884 Gage1 J_7147063884 0.5 34.0 50 0.5 0
S_7334211452 Gage1 J_7334211452 0.5 64.7 50 0.5 0
S_5928041457 Gage1 J_5928041457 0.5 24.3 50 0.5 0
S_10017481076 Gage1 J_10017481076 0.5 65.5 50 0.5 0
S_7466386861 Gage1 J_7466386861 0.5 52.8 50 0.5 0
S_12155167315 Gage1 J_12155167315 0.5 33.6 50 0.5 0
S_10038712736 Gage1 J_10038712736 0.5 33.6 50 0.5 0
S_5931305386 Gage1 J_5931305386 0.5 55.6 50 0.5 0
S_12180012795 Gage1 J_12180012795 0.5 21.8 50 0.5 0
S_6043189063 Gage1 J_6043189063 0.5 34.2 50 0.5 0
S_12196521966 Gage1 J_12196521966 0.5 23.0 50 0.5 0
S_6137413125 Gage1 J_6137413125 0.5 44.0 50 0.5 0
S_11363958154 Gage1 J_11363958154 0.5 50.9 50 0.5 0
S_11397801173 Gage1 J_11397801173 0.5 33.9 50 0.5 0
S_7291167515 Gage1 J_7291167515 0.5 35.7 50 0.5 0
S_6142628590 Gage1 J_6142628590 0.5 66.4 50 0.5 0
S_6168910212 Gage1 J_6168910212 0.5 48.2 50 0.5 0
S_7452673924 Gage1 J_7452673924 0.5 43.5 50 0.5 0
S_6168910213 Gage1 J_6168910213 0.5 65.0 50 0.5 0
S_12185851902 Gage1 J_12185851902 0.5 50.7 50 0.5 0
S_11021479822 Gage1 J_11021479822 0.5 57.4 50 0.5 0
S_6177428349 Gage1 J_6177428349 0.5 33.4 50 0.5 0
S_9899714417 Gage1 J_9899714417 0.5 53.9 50 0.5 0
S_11021465194 Gage1 J_11021465194 0.5 36.6 50 0.5 0
S_11419448879 Gage1 J_11419448879 0.5 32.2 50 0.5 0
S_10185513621 Gage1 J_10185513621 0.5 21.7 50 0.5 0
S_11015706619 Gage1 J_11015706619 0.5 60.9 50 0.5 0
S_13130422494 Gage1 J_13130422494 0.5 22.9 50 0.5 0
S_6194091030 Gage1 J_6194091030 0.5 47.1 50 0.5 0
S_7452692540 Gage1 J_7452692540 0.5 47.2 50 0.5 0
S_7452692538 Gage1 J_7452692538 0.5 63.3 50 0.5 0
S_6194238913 Gage1 J_6194238913 0.5 54.1 50 0.5 0
S_13130332397 Gage1 J_13130332397 0.5 60.0 50 0.5 0
S_6194238914 Gage1 J_6194238914 0.5 48.4 50 0.5 0
S_13127790412 Gage1 J_13127790412 0.5 64.8 50 0.5 0
S_7147090948 Gage1 J_7147090948 0.5 30.1 50 0.5 0
S_6617328935 Gage1 J_6617328935 0.5 43.4 50 0.5 0
S_12635196524 Gage1 J_12635196524 0.5 25.0 50 0.5 0
S_13076932658 Gage1 J_13076932658 0.5 42.2 50 0.5 0
S_6617328955 Gage1 J_6617328955 0.5 19.1 50 0.5 0
S_11812221673 Gage1 J_11812221673 0.5 43.5 50 0.5 0
S_11007664986 Gage1 J_11007664986 0.5 28.1 50 0.5 0
S_6617329698 Gage1 J_6617329698 0.5 37.1 50 0.5 0
S_11009607007 Gage1 J_11009607007 0.5 41.2 50 0.5 0
S_6617329699 Gage1 J_6617329699 0.5 43.4 50 0.5 0
S_6617329732 Gage1 J_6617329732 0.5 32.0 50 0.5 0
S_11812221689 Gage1 J_11812221689 0.5 63.4 50 0.5 0
S_11812221684 Gage1 J_11812221684 0.5 22.9 50 0.5 0
S_6620856859 Gage1 J_6620856859 0.5 37.1 50 0.5 0
S_11812221682 Gage1 J_11812221682 0.5 27.3 50 0.5 0
S_10221065294 Gage1 J_10221065294 0.5 31.7 50 0.5 0
S_6632652201 Gage1 J_6632652201 0.5 40.2 50 0.5 0
S_10076263537 Gage1 J_10076263537 0.5 60.5 50 0.5 0
S_6632652240 Gage1 J_6632652240 0.5 36.5 50 0.5 0
S_11041656612 Gage1 J_11041656612 0.5 63.2 50 0.5 0
S_6746682761 Gage1 J_6746682761 0.5 36.8 50 0.5 0
S_6894486324 Gage1 J_6894486324 0.5 45.2 50 0.5 0
S_6746708992 Gage1 J_6746708992 0.5 48.2 50 0.5 0
S_9700303071 Gage1 J_9700303071 0.5 45.5 50 0.5 0
S_6748996039 Gage1 J_6748996039 0.5 43.4 50 0.5 0
S_7465456856 Gage1 J_7465456856 0.5 19.2 50 0.5 0
S_6748996042 Gage1 J_6748996042 0.5 60.3 50 0.5 0
S_6748996040 Gage1 J_6748996040 0.5 29.2 50 0.5 0
S_7465456851 Gage1 J_7465456851 0.5 23.3 50 0.5 0
S_11409263307 Gage1 J_11409263307 0.5 37.7 50 0.5 0
S_6748996044 Gage1 J_6748996044 0.5 18.1 50 0.5 0
S_6748996043 Gage1 J_6748996043 0.5 18.1 50 0.5 0
S_6748996075 Gage1 J_6748996075 0.5 65.0 50 0.5 0
S_6748996045 Gage1 J_6748996045 0.5 27.9 50 0.5 0
S_6748996047 Gage1 J_6748996047 0.5 40.2 50 0.5 0
S_6748996049 Gage1 J_6748996049 0.5 54.6 50 0.5 0
S_11944239451 Gage1 J_11944239451 0.5 52.9 50 0.5 0
S_7465614139 Gage1 J_7465614139 0.5 49.1 50 0.5 0
S_6749434106 Gage1 J_6749434106 0.5 19.3 50 0.5 0
S_12185986689 Gage1 J_12185986689 0.5 62.0 50 0.5 0
S_7452692536 Gage1 J_7452692536 0.5 19.3 50 0.5 0
S_11438167760 Gage1 J_11438167760 0.5 25.3 50 0.5 0
S_6755551374 Gage1 J_6755551374 0.5 50.4 50 0.5 0
S_6755551377 Gage1 J_6755551377 0.5 66.5 50 0.5 0
S_11409293349 Gage1 J_11409293349 0.5 58.0 50 0.5 0
S_10687741979 Gage1 J_10687741979 0.5 56.3 50 0.5 0
S_6755551379 Gage1 J_6755551379 0.5 46.9 50 0.5 0
S_11409322630 Gage1 J_11409322630 0.5 20.4 50 0.5 0
S_11409346234 Gage1 J_11409346234 0.5 68.0 50 0.5 0
S_6758593404 Gage1 J_6758593404 0.5 44.7 50 0.5 0
S_6884970118 Gage1 J_6884970118 0.5 37.2 50 0.5 0
S_6884970119 Gage1 J_6884970119 0.5 43.1 50 0.5 0
S_11197334456 Gage1 J_11197334456 0.5 54.0 50 0.5 0
S_8935990994 Gage1 J_8935990994 0.5 23.6 50 0.5 0
S_6894243326 Gage1 J_6894243326 0.5 61.6 50 0.5 0
S_6894243328 Gage1 J_6894243328 0.5 59.1 50 0.5 0
S_6894486323 Gage1 J_6894486323 0.5 56.4 50 0.5 0
S_6901276162 Gage1 J_6901276162 0.5 40.6 50 0.5 0
S_11885820562 Gage1 J_11885820562 0.5 26.0 50 0.5 0
S_6901363518 Gage1 J_6901363518 0.5 19.7 50 0.5 0
S_6901363517 Gage1 J_6901363517 0.5 29.4 50 0.5 0
S_6904168220 Gage1 J_6904168220 0.5 25.3 50 0.5 0
S_6904168225 Gage1 J_6904168225 0.5 63.9 50 0.5 0
S_7453315400 Gage1 J_7453315400 0.5 22.3 50 0.5 0
S_7097657283 Gage1 J_7097657283 0.5 22.4 50 0.5 0
S_7465393495 Gage1 J_7465393495 0.5 52.7 50 0.5 0
S_11027804587 Gage1 J_11027804587 0.5 19.4 50 0.5 0
S_7101732726 Gage1 J_7101732726 0.5 62.6 50 0.5 0
S_7101732730 Gage1 J_7101732730 0.5 46.5 50 0.5 0
S_7101732731 Gage1 J_7101732731 0.5 53.3 50 0.5 0
S_7298289306 Gage1 J_7298289306 0.5 49.4 50 0.5 0
S_7101732735 Gage1 J_7101732735 0.5 29.4 50 0.5 0
S_7101760804 Gage1 J_7101760804 0.5 38.0 50 0.5 0
S_14066684771 Gage1 J_14066684771 0.5 57.1 50 0.5 0
S_14066684791 Gage1 J_14066684791 0.5 46.5 50 0.5 0
S_7101760812 Gage1 J_7101760812 0.5 53.8 50 0.5 0
S_7101760813 Gage1 J_7101760813 0.5 25.0 50 0.5 0
S_7101760816 Gage1 J_7101760816 0.5 66.5 50 0.5 0
S_10038722876 Gage1 J_10038722876 0.5 58.6 50 0.5 0
S_7121386231 Gage1 J_7121386231 0.5 44.5 50 0.5 0
S_10719511590 Gage1 J_10719511590 0.5 24.6 50 0.5 0
S_7138383883 Gage1 J_7138383883 0.5 46.3 50 0.5 0
S_7138383898 Gage1 J_7138383898 0.5 65.7 50 0.5 0
S_7453315631 Gage1 J_7453315631 0.5 55.7 50 0.5 0
S_7138383900 Gage1 J_7138383900 0.5 18.3 50 0.5 0
S_7138383903 Gage1 J_7138383903 0.5 56.2 50 0.5 0
S_7138383906 Gage1 J_7138383906 0.5 44.9 50 0.5 0
S_7465614223 Gage1 J_7465614223 0.5 43.7 50 0.5 0
S_7138383911 Gage1 J_7138383911 0.5 33.1 50 0.5 0
S_13149044768 Gage1 J_13149044768 0.5 39.7 50 0.5 0
S_7138383912 Gage1 J_7138383912 0.5 58.4 50 0.5 0
S_7140718117 Gage1 J_7140718117 0.5 47.7 50 0.5 0
S_7298289230 Gage1 J_7298289230 0.5 28.1 50 0.5 0
S_7140718126 Gage1 J_7140718126 0.5 51.1 50 0.5 0
S_7140718128 Gage1 J_7140718128 0.5 37.0 50 0.5 0
S_7140718132 Gage1 J_7140718132 0.5 36.9 50 0.5 0
S_11397421981 Gage1 J_11397421981 0.5 36.5 50 0.5 0
S_7147042927 Gage1 J_7147042927 0.5 61.7 50 0.5 0
S_7147088707 Gage1 J_7147088707 0.5 30.3 50 0.5 0
S_7147090938 Gage1 J_7147090938 0.5 58.2 50 0.5 0
S_7147090939 Gage1 J_7147090939 0.5 45.2 50 0.5 0
S_7453315650 Gage1 J_7453315650 0.5 60.6 50 0.5 0
S_7453315651 Gage1 J_7453315651 0.5 55.0 50 0.5 0
S_7175594108 Gage1 J_7175594108 0.5 36.1 50 0.5 0
S_7291147464 Gage1 J_7291147464 0.5 56.8 50 0.5 0
S_11397632762 Gage1 J_11397632762 0.5 58.3 50 0.5 0
S_7175614341 Gage1 J_7175614341 0.5 42.8 50 0.5 0
S_7175614342 Gage1 J_7175614342 0.5 31.5 50 0.5 0
S_11397591498 Gage1 J_11397591498 0.5 22.4 50 0.5 0
S_7187815406 Gage1 J_7187815406 0.5 22.5 50 0.5 0
S_7298289291 Gage1 J_7298289291 0.5 30.7 50 0.5 0
S_10222690300 Gage1 J_10222690300 0.5 66.5 50 0.5 0
S_7261406107 Gage1 J_7261406107 0.5 54.2 50 0.5 0
S_7263113741 Gage1 J_7263113741 0.5 55.7 50 0.5 0
S_7465393579 Gage1 J_7465393579 0.5 51.4 50 0.5 0
S_7263139538 Gage1 J_7263139538 0.5 51.5 50 0.5 0
S_7452673901 Gage1 J_7452673901 0.5 65.6 50 0.5 0
S_7452673906 Gage1 J_7452673906 0.5 28.5 50 0.5 0
S_7263140433 Gage1 J_7263140433 0.5 59.3 50 0.5 0
S_7452673908 Gage1 J_7452673908 0.5 36.3 50 0.5 0
S_7291147457 Gage1 J_7291147457 0.5 46.5 50 0.5 0
S_11045649359 Gage1 J_11045649359 0.5 59.5 50 0.5 0
S_7291147465 Gage1 J_7291147465 0.5 53.4 50 0.5 0
S_7291147483 Gage1 J_7291147483 0.5 59.3 50 0.5 0
S_11021454465 Gage1 J_11021454465 0.5 39.7 50 0.5 0
S_11306557823 Gage1 J_11306557823 0.5 18.4 50 0.5 0
S_7291167499 Gage1 J_7291167499 0.5 30.1 50 0.5 0
S_7291167500 Gage1 J_7291167500 0.5 50.4 50 0.5 0
S_7291167504 Gage1 J_7291167504 0.5 42.2 50 0.5 0
S_11397591500 Gage1 J_11397591500 0.5 53.3 50 0.5 0
S_7291167511 Gage1 J_7291167511 0.5 29.7 50 0.5 0
S_11176392352 Gage1 J_11176392352 0.5 65.6 50 0.5 0
S_7291167520 Gage1 J_7291167520 0.5 47.9 50 0.5 0
S_11045649360 Gage1 J_11045649360 0.5 58.1 50 0.5 0
S_10991796882 Gage1 J_10991796882 0.5 33.7 50 0.5 0
S_7291167617 Gage1 J_7291167617 0.5 38.3 50 0.5 0
S_7291167619 Gage1 J_7291167619 0.5 24.4 50 0.5 0
S_7298268882 Gage1 J_7298268882 0.5 54.5 50 0.5 0
S_7298289193 Gage1 J_7298289193 0.5 48.0 50 0.5 0
S_11397486839 Gage1 J_11397486839 0.5 30.9 50 0.5 0
S_7298289198 Gage1 J_7298289198 0.5 38.2 50 0.5 0
S_7298289212 Gage1 J_7298289212 0.5 32.5 50 0.5 0
S_7298289223 Gage1 J_7298289223 0.5 67.5 50 0.5 0
S_7298289226 Gage1 J_7298289226 0.5 39.7 50 0.5 0
S_13097684026 Gage1 J_13097684026 0.5 19.2 50 0.5 0
S_7298289241 Gage1 J_7298289241 0.5 65.4 50 0.5 0
S_7298289246 Gage1 J_7298289246 0.5 28.1 50 0.5 0
S_7298289248 Gage1 J_7298289248 0.5 54.8 50 0.5 0
S_7298289316 Gage1 J_7298289316 0.5 31.8 50 0.5 0
S_14066685083 Gage1 J_14066685083 0.5 37.6 50 0.5 0
S_7298289269 Gage1 J_7298289269 0.5 67.8 50 0.5 0
S_7298289295 Gage1 J_7298289295 0.5 39.1 50 0.5 0
S_7298289292 Gage1 J_7298289292 0.5 31.3 50 0.5 0
S_7298289293 Gage1 J_7298289293 0.5 56.6 50 0.5 0
S_7298289294 Gage1 J_7298289294 0.5 48.1 50 0.5 0
S_11802465263 Gage1 J_11802465263 0.5 45.9 50 0.5 0
S_7298289296 Gage1 J_7298289296 0.5 36.0 50 0.5 0
S_13830106205 Gage1 J_13830106205 0.5 29.1 50 0.5 0
S_7298289307 Gage1 J_7298289307 0.5 36.1 50 0.5 0
S_7298289309 Gage1 J_7298289309 0.5 55.8 50 0.5 0
S_7298289314 Gage1 J_7298289314 0.5 38.7 50 0.5 0
S_10284858574 Gage1 J_10284858574 0.5 55.6 50 0.5 0
S_7298295674 Gage1 J_7298295674 0.5 34.6 50 0.5 0
S_11025384531 Gage1 J_11025384531 0.5 62.6 50 0.5 0
S_13535853200 Gage1 J_13535853200 0.5 63.6 50 0.5 0
S_9866129292 Gage1 J_9866129292 0.5 55.3 50 0.5 0
S_7298295675 Gage1 J_7298295675 0.5 21.5 50 0.5 0
S_10168889545 Gage1 J_10168889545 0.5 49.8 50 0.5 0
S_7298295681 Gage1 J_7298295681 0.5 25.1 50 0.5 0
S_7452673897 Gage1 J_7452673897 0.5 19.1 50 0.5 0
S_10991375325 Gage1 J_10991375325 0.5 39.8 50 0.5 0
S_7452673898 Gage1 J_7452673898 0.5 28.5 50 0.5 0
S_7452673899 Gage1 J_7452673899 0.5 50.4 50 0.5 0
S_7452673900 Gage1 J_7452673900 0.5 26.5 50 0.5 0
S_7452673902 Gage1 J_7452673902 0.5 44.6 50 0.5 0
S_7452673907 Gage1 J_7452673907 0.5 41.0 50 0.5 0
S_11021488560 Gage1 J_11021488560 0.5 54.1 50 0.5 0
S_7452673914 Gage1 J_7452673914 0.5 54.6 50 0.5 0
S_7452673915 Gage1 J_7452673915 0.5 58.3 50 0.5 0
S_7453315600 Gage1 J_7453315600 0.5 58.7 50 0.5 0
S_11175924867 Gage1 J_11175924867 0.5 21.0 50 0.5 0
S_7452673916 Gage1 J_7452673916 0.5 23.4 50 0.5 0
S_11021648177 Gage1 J_11021648177 0.5 47.9 50 0.5 0
S_7452673920 Gage1 J_7452673920 0.5 43.7 50 0.5 0
S_7452673921 Gage1 J_7452673921 0.5 40.6 50 0.5 0
S_7453315301 Gage1 J_7453315301 0.5 43.7 50 0.5 0
S_11015778368 Gage1 J_11015778368 0.5 53.0 50 0.5 0
S_7452692537 Gage1 J_7452692537 0.5 34.3 50 0.5 0
S_7452692541 Gage1 J_7452692541 0.5 63.8 50 0.5 0
S_9700074501 Gage1 J_9700074501 0.5 49.0 50 0.5 0
S_11015166119 Gage1 J_11015166119 0.5 49.8 50 0.5 0
S_7453315636 Gage1 J_7453315636 0.5 23.5 50 0.5 0
S_12697947081 Gage1 J_12697947081 0.5 21.1 50 0.5 0
S_7452712420 Gage1 J_7452712420 0.5 32.3 50 0.5 0
S_9990058602 Gage1 J_9990058602 0.5 31.3 50 0.5 0
S_9700074486 Gage1 J_9700074486 0.5 25.1 50 0.5 0
S_7453315302 Gage1 J_7453315302 0.5 46.5 50 0.5 0
S_7453315305 Gage1 J_7453315305 0.5 18.4 50 0.5 0
S_7453315307 Gage1 J_7453315307 0.5 52.6 50 0.5 0
S_7453315313 Gage1 J_7453315313 0.5 18.7 50 0.5 0
S_7453315387 Gage1 J_7453315387 0.5 62.4 50 0.5 0
S_7453315388 Gage1 J_7453315388 0.5 29.3 50 0.5 0
S_7453315391 Gage1 J_7453315391 0.5 45.9 50 0.5 0
S_7453315393 Gage1 J_7453315393 0.5 55.6 50 0.5 0
S_7453315399 Gage1 J_7453315399 0.5 45.8 50 0.5 0
S_7453315401 Gage1 J_7453315401 0.5 35.7 50 0.5 0
S_7453315432 Gage1 J_7453315432 0.5 24.3 50 0.5 0
S_7453315581 Gage1 J_7453315581 0.5 55.0 50 0.5 0
S_7453315582 Gage1 J_7453315582 0.5 55.8 50 0.5 0
S_7453315583 Gage1 J_7453315583 0.5 18.7 50 0.5 0
S_7453315584 Gage1 J_7453315584 0.5 63.1 50 0.5 0
S_7453315735 Gage1 J_7453315735 0.5 34.0 50 0.5 0
S_7453315613 Gage1 J_7453315613 0.5 34.2 50 0.5 0
S_7453315618 Gage1 J_7453315618 0.5 21.4 50 0.5 0
S_7453315622 Gage1 J_7453315622 0.5 33.9 50 0.5 0
S_13127664187 Gage1 J_13127664187 0.5 48.6 50 0.5 0
S_7453315627 Gage1 J_7453315627 0.5 63.8 50 0.5 0
S_7453315654 Gage1 J_7453315654 0.5 50.2 50 0.5 0
S_7453315653 Gage1 J_7453315653 0.5 56.3 50 0.5 0
S_7453315655 Gage1 J_7453315655 0.5 54.5 50 0.5 0
S_7453315731 Gage1 J_7453315731 0.5 52.5 50 0.5 0
S_7465393488 Gage1 J_7465393488 0.5 43.2 50 0.5 0
S_7465393498 Gage1 J_7465393498 0.5 27.9 50 0.5 0
S_7465393505 Gage1 J_7465393505 0.5 31.5 50 0.5 0
S_10991357069 Gage1 J_10991357069 0.5 37.3 50 0.5 0
S_7465393516 Gage1 J_7465393516 0.5 18.8 50 0.5 0
S_13645830505 Gage1 J_13645830505 0.5 19.7 50 0.5 0
S_7465393525 Gage1 J_7465393525 0.5 30.6 50 0.5 0
S_10593463228 Gage1 J_10593463228 0.5 44.8 50 0.5 0
S_7465393527 Gage1 J_7465393527 0.5 40.0 50 0.5 0
S_13645830516 Gage1 J_13645830516 0.5 63.3 50 0.5 0
S_13645830527 Gage1 J_13645830527 0.5 40.1 50 0.5 0
S_7465393572 Gage1 J_7465393572 0.5 33.3 50 0.5 0
S_7465393578 Gage1 J_7465393578 0.5 56.2 50 0.5 0
S_12260767760 Gage1 J_12260767760 0.5 37.6 50 0.5 0
S_7465449546 Gage1 J_7465449546 0.5 52.3 50 0.5 0
S_7465449555 Gage1 J_7465449555 0.5 55.1 50 0.5 0
S_11438132731 Gage1 J_11438132731 0.5 47.3 50 0.5 0
S_7465449547 Gage1 J_7465449547 0.5 24.7 50 0.5 0
S_7465449558 Gage1 J_7465449558 0.5 63.3 50 0.5 0
S_7465449554 Gage1 J_7465449554 0.5 22.8 50 0.5 0
S_11438132728 Gage1 J_11438132728 0.5 62.6 50 0.5 0
S_7465449556 Gage1 J_7465449556 0.5 51.0 50 0.5 0
S_7465449559 Gage1 J_7465449559 0.5 63.0 50 0.5 0
S_7465449560 Gage1 J_7465449560 0.5 64.3 50 0.5 0
S_7465449564 Gage1 J_7465449564 0.5 41.0 50 0.5 0
S_7465449567 Gage1 J_7465449567 0.5 54.6 50 0.5 0
S_7465449568 Gage1 J_7465449568 0.5 35.1 50 0.5 0
S_13152307781 Gage1 J_13152307781 0.5 67.4 50 0.5 0
S_7465449582 Gage1 J_7465449582 0.5 50.4 50 0.5 0
S_7465449583 Gage1 J_7465449583 0.5 50.2 50 0.5 0
S_7465456785 Gage1 J_7465456785 0.5 18.5 50 0.5 0
S_11438144606 Gage1 J_11438144606 0.5 44.9 50 0.5 0
S_7465449584 Gage1 J_7465449584 0.5 39.0 50 0.5 0
S_13152302110 Gage1 J_13152302110 0.5 60.1 50 0.5 0
S_7465456788 Gage1 J_7465456788 0.5 57.0 50 0.5 0
S_7465456798 Gage1 J_7465456798 0.5 19.0 50 0.5 0
S_7465456803 Gage1 J_7465456803 0.5 29.2 50 0.5 0
S_11021578456 Gage1 J_11021578456 0.5 37.4 50 0.5 0
S_7465456806 Gage1 J_7465456806 0.5 63.9 50 0.5 0
S_7465456810 Gage1 J_7465456810 0.5 50.1 50 0.5 0
S_11409454649 Gage1 J_11409454649 0.5 67.6 50 0.5 0
S_9700303072 Gage1 J_9700303072 0.5 19.0 50 0.5 0
S_7465456817 Gage1 J_7465456817 0.5 62.9 50 0.5 0
S_11021569037 Gage1 J_11021569037 0.5 55.5 50 0.5 0
S_10687741966 Gage1 J_10687741966 0.5 49.7 50 0.5 0
S_7465456830 Gage1 J_7465456830 0.5 19.0 50 0.5 0
S_7465456831 Gage1 J_7465456831 0.5 20.3 50 0.5 0
S_7465456839 Gage1 J_7465456839 0.5 46.8 50 0.5 0
S_7465456850 Gage1 J_7465456850 0.5 53.8 50 0.5 0
S_7465577040 Gage1 J_7465577040 0.5 38.7 50 0.5 0
S_7465577041 Gage1 J_7465577041 0.5 45.0 50 0.5 0
S_11409159131 Gage1 J_11409159131 0.5 22.1 50 0.5 0
S_7465577043 Gage1 J_7465577043 0.5 61.2 50 0.5 0
S_7465577042 Gage1 J_7465577042 0.5 23.2 50 0.5 0
S_11409263303 Gage1 J_11409263303 0.5 58.4 50 0.5 0
S_11409172855 Gage1 J_11409172855 0.5 41.1 50 0.5 0
S_7465577044 Gage1 J_7465577044 0.5 33.5 50 0.5 0
S_7465577051 Gage1 J_7465577051 0.5 50.5 50 0.5 0
S_7465614134 Gage1 J_7465614134 0.5 32.5 50 0.5 0
S_7465614144 Gage1 J_7465614144 0.5 53.7 50 0.5 0
S_11409171825 Gage1 J_11409171825 0.5 47.2 50 0.5 0
S_7465614140 Gage1 J_7465614140 0.5 67.8 50 0.5 0
S_7465614146 Gage1 J_7465614146 0.5 67.2 50 0.5 0
S_7465614145 Gage1 J_7465614145 0.5 57.3 50 0.5 0
S_7465614228 Gage1 J_7465614228 0.5 32.5 50 0.5 0
S_11002963424 Gage1 J_11002963424 0.5 34.4 50 0.5 0
S_7465614227 Gage1 J_7465614227 0.5 38.2 50 0.5 0
S_9700074465 Gage1 J_9700074465 0.5 56.6 50 0.5 0
S_7465614241 Gage1 J_7465614241 0.5 63.5 50 0.5 0
S_7465614245 Gage1 J_7465614245 0.5 40.3 50 0.5 0
S_7465614250 Gage1 J_7465614250 0.5 51.2 50 0.5 0
S_7465646171 Gage1 J_7465646171 0.5 59.0 50 0.5 0
S_7465646172 Gage1 J_7465646172 0.5 39.6 50 0.5 0
S_7465646173 Gage1 J_7465646173 0.5 64.1 50 0.5 0
S_9880569589 Gage1 J_9880569589 0.5 35.9 50 0.5 0
S_7465672893 Gage1 J_7465672893 0.5 54.7 50 0.5 0
S_7466375661 Gage1 J_7466375661 0.5 29.0 50 0.5 0
S_7466375683 Gage1 J_7466375683 0.5 36.2 50 0.5 0
S_13807649550 Gage1 J_13807649550 0.5 65.7 50 0.5 0
S_9928560993 Gage1 J_9928560993 0.5 57.0 50 0.5 0
S_13807649466 Gage1 J_13807649466 0.5 20.3 50 0.5 0
S_10017481078 Gage1 J_10017481078 0.5 21.7 50 0.5 0
S_10017481082 Gage1 J_10017481082 0.5 48.2 50 0.5 0
S_7466386859 Gage1 J_7466386859 0.5 67.6 50 0.5 0
S_7466386860 Gage1 J_7466386860 0.5 34.1 50 0.5 0
S_8935990991 Gage1 J_8935990991 0.5 34.4 50 0.5 0
S_13802597961 Gage1 J_13802597961 0.5 48.6 50 0.5 0
S_8935990993 Gage1 J_8935990993 0.5 20.9 50 0.5 0
S_11197323405 Gage1 J_11197323405 0.5 23.8 50 0.5 0
S_12161557849 Gage1 J_12161557849 0.5 30.2 50 0.5 0
S_9645445153 Gage1 J_9645445153 0.5 60.0 50 0.5 0
S_9645445136 Gage1 J_9645445136 0.5 19.7 50 0.5 0
S_9645445142 Gage1 J_9645445142 0.5 45.8 50 0.5 0
S_9645445151 Gage1 J_9645445151 0.5 37.3 50 0.5 0
S_10991478286 Gage1 J_10991478286 0.5 18.4 50 0.5 0
S_11015641079 Gage1 J_11015641079 0.5 53.6 50 0.5 0
S_9839093178 Gage1 J_9839093178 0.5 59.0 50 0.5 0
S_10695024184 Gage1 J_10695024184 0.5 59.6 50 0.5 0
S_9841504888 Gage1 J_9841504888 0.5 60.6 50 0.5 0
S_9841504889 Gage1 J_9841504889 0.5 67.8 50 0.5 0
S_10695024186 Gage1 J_10695024186 0.5 39.1 50 0.5 0
S_9841504890 Gage1 J_9841504890 0.5 28.4 50 0.5 0
S_12918642886 Gage1 J_12918642886 0.5 25.5 50 0.5 0
S_9866129293 Gage1 J_9866129293 0.5 45.8 50 0.5 0
S_11002921849 Gage1 J_11002921849 0.5 49.1 50 0.5 0
S_12180012794 Gage1 J_12180012794 0.5 29.8 50 0.5 0
S_9870086766 Gage1 J_9870086766 0.5 31.4 50 0.5 0
S_9870086765 Gage1 J_9870086765 0.5 21.6 50 0.5 0
S_9873963410 Gage1 J_9873963410 0.5 20.9 50 0.5 0
S_9870086773 Gage1 J_9870086773 0.5 35.3 50 0.5 0
S_11002595848 Gage1 J_11002595848 0.5 42.7 50 0.5 0
S_9880569588 Gage1 J_9880569588 0.5 35.9 50 0.5 0
S_11409454669 Gage1 J_11409454669 0.5 46.8 50 0.5 0
S_11409413544 Gage1 J_11409413544 0.5 39.2 50 0.5 0
S_9897294964 Gage1 J_9897294964 0.5 59.0 50 0.5 0
S_9899714418 Gage1 J_9899714418 0.5 47.3 50 0.5 0
S_9900960143 Gage1 J_9900960143 0.5 20.0 50 0.5 0
S_9900960190 Gage1 J_9900960190 0.5 42.8 50 0.5 0
S_9900960192 Gage1 J_9900960192 0.5 45.5 50 0.5 0
S_9900960191 Gage1 J_9900960191 0.5 47.2 50 0.5 0
S_9900969018 Gage1 J_9900969018 0.5 53.9 50 0.5 0
S_9900960193 Gage1 J_9900960193 0.5 31.1 50 0.5 0
S_9900969019 Gage1 J_9900969019 0.5 57.7 50 0.5 0
S_9901111716 Gage1 J_9901111716 0.5 20.8 50 0.5 0
S_9910918458 Gage1 J_9910918458 0.5 30.1 50 0.5 0
S_9910918465 Gage1 J_9910918465 0.5 45.5 50 0.5 0
S_11197334455 Gage1 J_11197334455 0.5 61.3 50 0.5 0
S_11197323412 Gage1 J_11197323412 0.5 26.9 50 0.5 0
S_9928560952 Gage1 J_9928560952 0.5 31.2 50 0.5 0
S_9928561083 Gage1 J_9928561083 0.5 36.2 50 0.5 0
S_11885820563 Gage1 J_11885820563 0.5 64.1 50 0.5 0
S_11397285061 Gage1 J_11397285061 0.5 61.1 50 0.5 0
S_9990058603 Gage1 J_9990058603 0.5 24.2 50 0.5 0
S_10017481116 Gage1 J_10017481116 0.5 63.6 50 0.5 0
S_9992581197 Gage1 J_9992581197 0.5 56.0 50 0.5 0
S_10017481077 Gage1 J_10017481077 0.5 57.0 50 0.5 0
S_10017481079 Gage1 J_10017481079 0.5 61.9 50 0.5 0
S_10017481090 Gage1 J_10017481090 0.5 68.0 50 0.5 0
S_10017481092 Gage1 J_10017481092 0.5 57.4 50 0.5 0
S_13041011657 Gage1 J_13041011657 0.5 55.5 50 0.5 0
S_12155114398 Gage1 J_12155114398 0.5 29.0 50 0.5 0
S_12155114399 Gage1 J_12155114399 0.5 59.6 50 0.5 0
S_10578097581 Gage1 J_10578097581 0.5 24.0 50 0.5 0
S_11003016445 Gage1 J_11003016445 0.5 33.4 50 0.5 0
S_14066685118 Gage1 J_14066685118 0.5 43.7 50 0.5 0
S_10038782704 Gage1 J_10038782704 0.5 27.7 50 0.5 0
S_10038799161 Gage1 J_10038799161 0.5 32.5 50 0.5 0
S_10168889544 Gage1 J_10168889544 0.5 66.0 50 0.5 0
S_10038799162 Gage1 J_10038799162 0.5 49.1 50 0.5 0
S_10038800926 Gage1 J_10038800926 0.5 64.7 50 0.5 0
S_10038800927 Gage1 J_10038800927 0.5 40.7 50 0.5 0
S_10044811670 Gage1 J_10044811670 0.5 19.2 50 0.5 0
S_11002587524 Gage1 J_11002587524 0.5 50.8 50 0.5 0
S_10209103448 Gage1 J_10209103448 0.5 44.5 50 0.5 0
S_10209123012 Gage1 J_10209123012 0.5 56.5 50 0.5 0
S_12696050651 Gage1 J_12696050651 0.5 20.4 50 0.5 0
S_10222738375 Gage1 J_10222738375 0.5 67.0 50 0.5 0
S_10222738376 Gage1 J_10222738376 0.5 67.4 50 0.5 0
S_12210693584 Gage1 J_12210693584 0.5 53.0 50 0.5 0
S_10266837400 Gage1 J_10266837400 0.5 46.3 50 0.5 0
S_12210693586 Gage1 J_12210693586 0.5 67.1 50 0.5 0
S_10266837403 Gage1 J_10266837403 0.5 26.2 50 0.5 0
S_13830106009 Gage1 J_13830106009 0.5 22.6 50 0.5 0
S_10266837401 Gage1 J_10266837401 0.5 26.4 50 0.5 0
S_10266837402 Gage1 J_10266837402 0.5 47.9 50 0.5 0
S_12157689023 Gage1 J_12157689023 0.5 53.5 50 0.5 0
S_12157689021 Gage1 J_12157689021 0.5 43.2 50 0.5 0
S_10277100419 Gage1 J_10277100419 0.5 31.8 50 0.5 0
S_10277100420 Gage1 J_10277100420 0.5 45.8 50 0.5 0
S_10277100422 Gage1 J_10277100422 0.5 63.8 50 0.5 0
S_10277100423 Gage1 J_10277100423 0.5 54.3 50 0.5 0
S_10284858578 Gage1 J_10284858578 0.5 38.1 50 0.5 0
S_10312430299 Gage1 J_10312430299 0.5 19.9 50 0.5 0
S_11028255656 Gage1 J_11028255656 0.5 45.3 50 0.5 0
S_12078798115 Gage1 J_12078798115 0.5 24.2 50 0.5 0
S_10574674451 Gage1 J_10574674451 0.5 20.1 50 0.5 0
S_10593463229 Gage1 J_10593463229 0.5 62.2 50 0.5 0
S_10593463230 Gage1 J_10593463230 0.5 24.5 50 0.5 0
S_10593463233 Gage1 J_10593463233 0.5 28.9 50 0.5 0
S_10593463231 Gage1 J_10593463231 0.5 54.2 50 0.5 0
S_10731125515 Gage1 J_10731125515 0.5 64.0 50 0.5 0
S_10687741969 Gage1 J_10687741969 0.5 31.7 50 0.5 0
S_10687741968 Gage1 J_10687741968 0.5 47.4 50 0.5 0
S_10687741973 Gage1 J_10687741973 0.5 43.9 50 0.5 0
S_10687741972 Gage1 J_10687741972 0.5 24.2 50 0.5 0
S_10687741975 Gage1 J_10687741975 0.5 63.7 50 0.5 0
S_10687741974 Gage1 J_10687741974 0.5 22.9 50 0.5 0
S_10687741977 Gage1 J_10687741977 0.5 21.0 50 0.5 0
S_10687741976 Gage1 J_10687741976 0.5 23.4 50 0.5 0
S_10687741978 Gage1 J_10687741978 0.5 53.8 50 0.5 0
S_12918665451 Gage1 J_12918665451 0.5 50.6 50 0.5 0
S_10695024185 Gage1 J_10695024185 0.5 37.7 50 0.5 0
S_10695024187 Gage1 J_10695024187 0.5 20.9 50 0.5 0
S_10716532019 Gage1 J_10716532019 0.5 48.1 50 0.5 0
S_10731123200 Gage1 J_10731123200 0.5 19.1 50 0.5 0
S_12185458377 Gage1 J_12185458377 0.5 53.4 50 0.5 0
S_10760860023 Gage1 J_10760860023 0.5 18.8 50 0.5 0
S_10760860022 Gage1 J_10760860022 0.5 23.5 50 0.5 0
S_10760860025 Gage1 J_10760860025 0.5 26.5 50 0.5 0
S_10760860024 Gage1 J_10760860024 0.5 40.1 50 0.5 0
S_10760860026 Gage1 J_10760860026 0.5 59.9 50 0.5 0
S_10820231133 Gage1 J_10820231133 0.5 40.8 50 0.5 0
S_11021555208 Gage1 J_11021555208 0.5 25.4 50 0.5 0
S_10820231134 Gage1 J_10820231134 0.5 37.7 50 0.5 0
S_11021548225 Gage1 J_11021548225 0.5 40.0 50 0.5 0
S_12187507077 Gage1 J_12187507077 0.5 59.4 50 0.5 0
S_10978638724 Gage1 J_10978638724 0.5 45.2 50 0.5 0
S_10978640858 Gage1 J_10978640858 0.5 51.9 50 0.5 0
S_10991357070 Gage1 J_10991357070 0.5 26.7 50 0.5 0
S_10991375326 Gage1 J_10991375326 0.5 34.7 50 0.5 0
S_10991440020 Gage1 J_10991440020 0.5 35.3 50 0.5 0
S_10991475147 Gage1 J_10991475147 0.5 38.0 50 0.5 0
S_10991651170 Gage1 J_10991651170 0.5 50.0 50 0.5 0
S_13717751723 Gage1 J_13717751723 0.5 33.9 50 0.5 0
S_10991915619 Gage1 J_10991915619 0.5 48.8 50 0.5 0
S_11001362539 Gage1 J_11001362539 0.5 53.4 50 0.5 0
S_11002607127 Gage1 J_11002607127 0.5 38.6 50 0.5 0
S_11002607128 Gage1 J_11002607128 0.5 61.4 50 0.5 0
S_11002607131 Gage1 J_11002607131 0.5 46.4 50 0.5 0
S_11002607133 Gage1 J_11002607133 0.5 36.8 50 0.5 0
S_11002607130 Gage1 J_11002607130 0.5 37.9 50 0.5 0
S_11002607132 Gage1 J_11002607132 0.5 34.7 50 0.5 0
S_11002890405 Gage1 J_11002890405 0.5 43.8 50 0.5 0
S_12180012791 Gage1 J_12180012791 0.5 57.5 50 0.5 0
S_13130886313 Gage1 J_13130886313 0.5 27.0 50 0.5 0
S_11002958966 Gage1 J_11002958966 0.5 35.5 50 0.5 0
S_11003016446 Gage1 J_11003016446 0.5 63.8 50 0.5 0
S_11003037132 Gage1 J_11003037132 0.5 40.8 50 0.5 0
S_11003036768 Gage1 J_11003036768 0.5 63.3 50 0.5 0
S_11006982240 Gage1 J_11006982240 0.5 20.3 50 0.5 0
S_11007664987 Gage1 J_11007664987 0.5 32.6 50 0.5 0
S_11015153617 Gage1 J_11015153617 0.5 22.4 50 0.5 0
S_11015166118 Gage1 J_11015166118 0.5 24.1 50 0.5 0
S_11015226553 Gage1 J_11015226553 0.5 48.7 50 0.5 0
S_11015226554 Gage1 J_11015226554 0.5 23.4 50 0.5 0
S_11017633320 Gage1 J_11017633320 0.5 53.6 50 0.5 0
S_11021428252 Gage1 J_11021428252 0.5 56.0 50 0.5 0
S_11399465859 Gage1 J_11399465859 0.5 60.0 50 0.5 0
S_11021437034 Gage1 J_11021437034 0.5 67.3 50 0.5 0
S_11021437033 Gage1 J_11021437033 0.5 62.9 50 0.5 0
S_11399469960 Gage1 J_11399469960 0.5 45.7 50 0.5 0
S_11021454466 Gage1 J_11021454466 0.5 29.2 50 0.5 0
S_11021478368 Gage1 J_11021478368 0.5 66.2 50 0.5 0
S_11021488561 Gage1 J_11021488561 0.5 20.7 50 0.5 0
S_11021514732 Gage1 J_11021514732 0.5 62.9 50 0.5 0
S_11021555207 Gage1 J_11021555207 0.5 34.1 50 0.5 0
S_11021555209 Gage1 J_11021555209 0.5 50.9 50 0.5 0
S_11021569038 Gage1 J_11021569038 0.5 36.1 50 0.5 0
S_11409461237 Gage1 J_11409461237 0.5 45.5 50 0.5 0
S_11021603481 Gage1 J_11021603481 0.5 45.4 50 0.5 0
S_11021603484 Gage1 J_11021603484 0.5 39.1 50 0.5 0
S_11826963020 Gage1 J_11826963020 0.5 35.2 50 0.5 0
S_11021676040 Gage1 J_11021676040 0.5 62.3 50 0.5 0
S_11021755953 Gage1 J_11021755953 0.5 36.9 50 0.5 0
S_11074670549 Gage1 J_11074670549 0.5 65.5 50 0.5 0
S_11021766299 Gage1 J_11021766299 0.5 53.5 50 0.5 0
S_11074670574 Gage1 J_11074670574 0.5 38.2 50 0.5 0
S_11025384532 Gage1 J_11025384532 0.5 54.4 50 0.5 0
S_11027804586 Gage1 J_11027804586 0.5 39.6 50 0.5 0
S_11027804588 Gage1 J_11027804588 0.5 30.0 50 0.5 0
S_11329623304 Gage1 J_11329623304 0.5 23.7 50 0.5 0
S_11028823358 Gage1 J_11028823358 0.5 67.5 50 0.5 0
S_11028858435 Gage1 J_11028858435 0.5 48.1 50 0.5 0
S_11033916343 Gage1 J_11033916343 0.5 60.2 50 0.5 0
S_11124633999 Gage1 J_11124633999 0.5 55.0 50 0.5 0
S_11033916345 Gage1 J_11033916345 0.5 66.4 50 0.5 0
S_11121867056 Gage1 J_11121867056 0.5 56.3 50 0.5 0
S_11397404813 Gage1 J_11397404813 0.5 46.3 50 0.5 0
S_12151901679 Gage1 J_12151901679 0.5 48.2 50 0.5 0
S_11397404822 Gage1 J_11397404822 0.5 46.7 50 0.5 0
S_12918642840 Gage1 J_12918642840 0.5 32.0 50 0.5 0
S_11077269488 Gage1 J_11077269488 0.5 45.9 50 0.5 0
S_11121286749 Gage1 J_11121286749 0.5 62.8 50 0.5 0
S_12997704936 Gage1 J_12997704936 0.5 21.3 50 0.5 0
S_11182447928 Gage1 J_11182447928 0.5 18.9 50 0.5 0
S_11397285063 Gage1 J_11397285063 0.5 26.1 50 0.5 0
S_11397388905 Gage1 J_11397388905 0.5 35.2 50 0.5 0
S_12151901633 Gage1 J_12151901633 0.5 59.7 50 0.5 0
S_11397404823 Gage1 J_11397404823 0.5 18.3 50 0.5 0
S_11397591499 Gage1 J_11397591499 0.5 67.7 50 0.5 0
S_11397593723 Gage1 J_11397593723 0.5 62.8 50 0.5 0
S_11397593733 Gage1 J_11397593733 0.5 38.5 50 0.5 0
S_11397632765 Gage1 J_11397632765 0.5 22.9 50 0.5 0
S_11397632764 Gage1 J_11397632764 0.5 21.6 50 0.5 0
S_11397632766 Gage1 J_11397632766 0.5 22.9 50 0.5 0
S_11409159132 Gage1 J_11409159132 0.5 66.4 50 0.5 0
S_11409171826 Gage1 J_11409171826 0.5 22.6 50 0.5 0
S_11409172856 Gage1 J_11409172856 0.5 39.8 50 0.5 0
S_11409245946 Gage1 J_11409245946 0.5 44.4 50 0.5 0
S_11409293348 Gage1 J_11409293348 0.5 52.2 50 0.5 0
S_11409341814 Gage1 J_11409341814 0.5 56.1 50 0.5 0
S_11409322629 Gage1 J_11409322629 0.5 22.1 50 0.5 0
S_11409327905 Gage1 J_11409327905 0.5 24.6 50 0.5 0
S_11409327904 Gage1 J_11409327904 0.5 43.8 50 0.5 0
S_11409341813 Gage1 J_11409341813 0.5 35.6 50 0.5 0
S_11409461238 Gage1 J_11409461238 0.5 19.4 50 0.5 0
S_11414136197 Gage1 J_11414136197 0.5 41.5 50 0.5 0
S_11419446867 Gage1 J_11419446867 0.5 28.8 50 0.5 0
S_11419448880 Gage1 J_11419448880 0.5 26.8 50 0.5 0
S_11434298150 Gage1 J_11434298150 0.5 32.4 50 0.5 0
S_11434298136 Gage1 J_11434298136 0.5 21.2 50 0.5 0
S_11434298145 Gage1 J_11434298145 0.5 26.7 50 0.5 0
S_11434298148 Gage1 J_11434298148 0.5 19.6 50 0.5 0
S_11434298147 Gage1 J_11434298147 0.5 39.9 50 0.5 0
S_11434298137 Gage1 J_11434298137 0.5 26.4 50 0.5 0
S_11434298138 Gage1 J_11434298138 0.5 39.2 50 0.5 0
S_11434298144 Gage1 J_11434298144 0.5 46.9 50 0.5 0
S_11434298143 Gage1 J_11434298143 0.5 41.1 50 0.5 0
S_11434298142 Gage1 J_11434298142 0.5 22.1 50 0.5 0
S_11434298146 Gage1 J_11434298146 0.5 39.4 50 0.5 0
S_11434298149 Gage1 J_11434298149 0.5 45.5 50 0.5 0
S_11434298151 Gage1 J_11434298151 0.5 28.8 50 0.5 0
S_11434512224 Gage1 J_11434512224 0.5 40.8 50 0.5 0
S_11434710894 Gage1 J_11434710894 0.5 35.5 50 0.5 0
S_11436636898 Gage1 J_11436636898 0.5 40.2 50 0.5 0
S_11438132729 Gage1 J_11438132729 0.5 19.4 50 0.5 0
S_11438132732 Gage1 J_11438132732 0.5 53.0 50 0.5 0
S_11438144607 Gage1 J_11438144607 0.5 58.2 50 0.5 0
S_11438167761 Gage1 J_11438167761 0.5 25.8 50 0.5 0
S_11438298623 Gage1 J_11438298623 0.5 53.7 50 0.5 0
S_11438418705 Gage1 J_11438418705 0.5 51.9 50 0.5 0
S_12196909080 Gage1 J_12196909080 0.5 53.3 50 0.5 0
S_13076932659 Gage1 J_13076932659 0.5 55.9 50 0.5 0
S_13076932657 Gage1 J_13076932657 0.5 60.4 50 0.5 0
S_12765390074 Gage1 J_12765390074 0.5 56.5 50 0.5 0
S_11826963022 Gage1 J_11826963022 0.5 32.4 50 0.5 0
S_12961466032 Gage1 J_12961466032 0.5 29.2 50 0.5 0
S_11934696261 Gage1 J_11934696261 0.5 38.0 50 0.5 0
S_11934696262 Gage1 J_11934696262 0.5 19.6 50 0.5 0
S_13715446990 Gage1 J_13715446990 0.5 67.7 50 0.5 0
S_11934696264 Gage1 J_11934696264 0.5 19.8 50 0.5 0
S_11934696263 Gage1 J_11934696263 0.5 50.5 50 0.5 0
S_11944239436 Gage1 J_11944239436 0.5 41.4 50 0.5 0
S_11944239448 Gage1 J_11944239448 0.5 56.0 50 0.5 0
S_11944239449 Gage1 J_11944239449 0.5 62.0 50 0.5 0
S_11944239437 Gage1 J_11944239437 0.5 54.1 50 0.5 0
S_11944239442 Gage1 J_11944239442 0.5 57.0 50 0.5 0
S_11944239447 Gage1 J_11944239447 0.5 32.5 50 0.5 0
S_11944239441 Gage1 J_11944239441 0.5 48.2 50 0.5 0
S_11944239438 Gage1 J_11944239438 0.5 20.3 50 0.5 0
S_11944239450 Gage1 J_11944239450 0.5 56.6 50 0.5 0
S_11944239439 Gage1 J_11944239439 0.5 66.8 50 0.5 0
S_11944239444 Gage1 J_11944239444 0.5 32.8 50 0.5 0
S_11944239440 Gage1 J_11944239440 0.5 57.7 50 0.5 0
S_11944239445 Gage1 J_11944239445 0.5 57.7 50 0.5 0
S_11944239446 Gage1 J_11944239446 0.5 46.4 50 0.5 0
S_11944239443 Gage1 J_11944239443 0.5 23.3 50 0.5 0
S_11951620623 Gage1 J_11951620623 0.5 37.3 50 0.5 0
S_12078798117 Gage1 J_12078798117 0.5 30.5 50 0.5 0
S_12151901680 Gage1 J_12151901680 0.5 59.5 50 0.5 0
S_12155167317 Gage1 J_12155167317 0.5 54.1 50 0.5 0
S_12155167316 Gage1 J_12155167316 0.5 25.4 50 0.5 0
S_12157689025 Gage1 J_12157689025 0.5 51.7 50 0.5 0
S_13086731148 Gage1 J_13086731148 0.5 67.9 50 0.5 0
S_12180012792 Gage1 J_12180012792 0.5 20.5 50 0.5 0
S_12180012793 Gage1 J_12180012793 0.5 51.8 50 0.5 0
S_12185458378 Gage1 J_12185458378 0.5 64.6 50 0.5 0
S_12186088998 Gage1 J_12186088998 0.5 52.2 50 0.5 0
S_12187447576 Gage1 J_12187447576 0.5 67.1 50 0.5 0
S_12196464673 Gage1 J_12196464673 0.5 47.9 50 0.5 0
S_12196521967 Gage1 J_12196521967 0.5 35.7 50 0.5 0
S_12206473572 Gage1 J_12206473572 0.5 33.0 50 0.5 0
S_12210693585 Gage1 J_12210693585 0.5 51.7 50 0.5 0
S_12393621581 Gage1 J_12393621581 0.5 57.8 50 0.5 0
S_12604472596 Gage1 J_12604472596 0.5 34.0 50 0.5 0
S_12696050650 Gage1 J_12696050650 0.5 61.9 50 0.5 0
S_12697947084 Gage1 J_12697947084 0.5 25.4 50 0.5 0
S_12698276488 Gage1 J_12698276488 0.5 50.4 50 0.5 0
S_13645830500 Gage1 J_13645830500 0.5 35.4 50 0.5 0
S_12732525820 Gage1 J_12732525820 0.5 59.4 50 0.5 0
S_13787035709 Gage1 J_13787035709 0.5 33.7 50 0.5 0
S_13787010485 Gage1 J_13787010485 0.5 32.2 50 0.5 0
S_12918642841 Gage1 J_12918642841 0.5 37.8 50 0.5 0
S_12961466031 Gage1 J_12961466031 0.5 31.6 50 0.5 0
S_12997704925 Gage1 J_12997704925 0.5 43.0 50 0.5 0
S_12997704926 Gage1 J_12997704926 0.5 41.6 50 0.5 0
S_12997704944 Gage1 J_12997704944 0.5 62.4 50 0.5 0
S_13787010459 Gage1 J_13787010459 0.5 28.7 50 0.5 0
S_12999157123 Gage1 J_12999157123 0.5 25.4 50 0.5 0
S_12999157125 Gage1 J_12999157125 0.5 21.6 50 0.5 0
S_13041011653 Gage1 J_13041011653 0.5 24.8 50 0.5 0
S_13041011654 Gage1 J_13041011654 0.5 30.0 50 0.5 0
S_13041011658 Gage1 J_13041011658 0.5 60.1 50 0.5 0
S_13041011659 Gage1 J_13041011659 0.5 26.3 50 0.5 0
S_13041011662 Gage1 J_13041011662 0.5 48.8 50 0.5 0
S_13041011664 Gage1 J_13041011664 0.5 40.7 50 0.5 0
S_13041584928 Gage1 J_13041584928 0.5 61.4 50 0.5 0
S_13064736701 Gage1 J_13064736701 0.5 44.2 50 0.5 0
S_13098366975 Gage1 J_13098366975 0.5 49.6 50 0.5 0
S_13127664188 Gage1 J_13127664188 0.5 48.3 50 0.5 0
S_13127664193 Gage1 J_13127664193 0.5 61.5 50 0.5 0
S_13127790409 Gage1 J_13127790409 0.5 59.7 50 0.5 0
S_13127790410 Gage1 J_13127790410 0.5 49.1 50 0.5 0
S_13127790411 Gage1 J_13127790411 0.5 45.2 50 0.5 0
S_13130332396 Gage1 J_13130332396 0.5 42.0 50 0.5 0
S_13149044766 Gage1 J_13149044766 0.5 49.8 50 0.5 0
S_13149044767 Gage1 J_13149044767 0.5 29.4 50 0.5 0
S_13152302109 Gage1 J_13152302109 0.5 39.5 50 0.5 0
S_13360780445 Gage1 J_13360780445 0.5 34.3 50 0.5 0
S_13607317195 Gage1 J_13607317195 0.5 34.0 50 0.5 0
S_13645830523 Gage1 J_13645830523 0.5 38.2 50 0.5 0
S_13645830524 Gage1 J_13645830524 0.5 30.8 50 0.5 0
S_13645830525 Gage1 J_13645830525 0.5 66.0 50 0.5 0
S_13645830526 Gage1 J_13645830526 0.5 55.8 50 0.5 0
S_13654038306 Gage1 J_13654038306 0.5 67.7 50 0.5 0
S_13654038432 Gage1 J_13654038432 0.5 18.3 50 0.5 0
S_13655652478 Gage1 J_13655652478 0.5 35.2 50 0.5 0
S_13655653224 Gage1 J_13655653224 0.5 63.5 50 0.5 0
S_13667500009 Gage1 J_13667500009 0.5 23.4 50 0.5 0
S_13787010454 Gage1 J_13787010454 0.5 49.4 50 0.5 0
S_13787010455 Gage1 J_13787010455 0.5 50.2 50 0.5 0
S_13787010456 Gage1 J_13787010456 0.5 48.0 50 0.5 0
S_13787010457 Gage1 J_13787010457 0.5 34.4 50 0.5 0
S_13787010458 Gage1 J_13787010458 0.5 45.6 50 0.5 0
S_13787010460 Gage1 J_13787010460 0.5 28.9 50 0.5 0
S_13807649465 Gage1 J_13807649465 0.5 43.2 50 0.5 0
S_13807649549 Gage1 J_13807649549 0.5 67.0 50 0.5 0
S_13811792565 Gage1 J_13811792565 0.5 40.7 50 0.5 0
S_13830105943 Gage1 J_13830105943 0.5 22.8 50 0.5 0
S_13830106010 Gage1 J_13830106010 0.5 24.8 50 0.5 0
S_13830106176 Gage1 J_13830106176 0.5 19.0 50 0.5 0
S_13830106203 Gage1 J_13830106203 0.5 19.1 50 0.5 0
S_13830106204 Gage1 J_13830106204 0.5 21.4 50 0.5 0
S_13830106206 Gage1 J_13830106206 0.5 52.4 50 0.5 0
S_14072070988 Gage1 J_14072070988 0.5 30.5 50 0.5 0
S_14074138182 Gage1 J_14074138182 0.5 40.8 50 0.5 0

[SUBAREAS]
;;Subcatchment N-Imperv N-Perv S-Imperv S-Perv PctZero RouteTo
S_251104955 0.013 0.1 2.0 5.0 25 OUTLET
S_1382528609 0.013 0.1 2.0 5.0 25 OUTLET
S_11028310396 0.013 0.1 2.0 5.0 25 OUTLET
S_251105277 0.013 0.1 2.0 5.0 25 OUTLET
S_6132933105 0.013 0.1 2.0 5.0 25 OUTLET
S_253448544 0.013 0.1 2.0 5.0 25 OUTLET
S_251105285 0.013 0.1 2.0 5.0 25 OUTLET
S_10277091600 0.013 0.1 2.0 5.0 25 OUTLET
S_1016228526 0.013 0.1 2.0 5.0 25 OUTLET
S_251106545 0.013 0.1 2.0 5.0 25 OUTLET
S_6901363519 0.013 0.1 2.0 5.0 25 OUTLET
S_251106828 0.013 0.1 2.0 5.0 25 OUTLET
S_251106717 0.013 0.1 2.0 5.0 25 OUTLET
S_13123179217 0.013 0.1 2.0 5.0 25 OUTLET
S_13360780446 0.013 0.1 2.0 5.0 25 OUTLET
S_6632652235 0.013 0.1 2.0 5.0 25 OUTLET
S_253447895 0.013 0.1 2.0 5.0 25 OUTLET
S_9857850176 0.013 0.1 2.0 5.0 25 OUTLET
S_12999157122 0.013 0.1 2.0 5.0 25 OUTLET
S_10221065289 0.013 0.1 2.0 5.0 25 OUTLET
S_253447898 0.013 0.1 2.0 5.0 25 OUTLET
S_253447899 0.013 0.1 2.0 5.0 25 OUTLET
S_1605954226 0.013 0.1 2.0 5.0 25 OUTLET
S_9700106334 0.013 0.1 2.0 5.0 25 OUTLET
S_1262043911 0.013 0.1 2.0 5.0 25 OUTLET
S_5281691574 0.013 0.1 2.0 5.0 25 OUTLET
S_253447903 0.013 0.1 2.0 5.0 25 OUTLET
S_12171179550 0.013 0.1 2.0 5.0 25 OUTLET
S_9928560951 0.013 0.1 2.0 5.0 25 OUTLET
S_253448523 0.013 0.1 2.0 5.0 25 OUTLET
S_5281691579 0.013 0.1 2.0 5.0 25 OUTLET
S_5281842542 0.013 0.1 2.0 5.0 25 OUTLET
S_253448524 0.013 0.1 2.0 5.0 25 OUTLET
S_1470833614 0.013 0.1 2.0 5.0 25 OUTLET
S_5281842558 0.013 0.1 2.0 5.0 25 OUTLET
S_253448537 0.013 0.1 2.0 5.0 25 OUTLET
S_1492407638 0.013 0.1 2.0 5.0 25 OUTLET
S_253448549 0.013 0.1 2.0 5.0 25 OUTLET
S_253448562 0.013 0.1 2.0 5.0 25 OUTLET
S_253448573 0.013 0.1 2.0 5.0 25 OUTLET
S_1368117314 0.013 0.1 2.0 5.0 25 OUTLET
S_253448561 0.013 0.1 2.0 5.0 25 OUTLET
S_1367922236 0.013 0.1 2.0 5.0 25 OUTLET
S_253448582 0.013 0.1 2.0 5.0 25 OUTLET
S_1368117329 0.013 0.1 2.0 5.0 25 OUTLET
S_253448566 0.013 0.1 2.0 5.0 25 OUTLET
S_254442569 0.013 0.1 2.0 5.0 25 OUTLET
S_1694231929 0.013 0.1 2.0 5.0 25 OUTLET
S_1368117387 0.013 0.1 2.0 5.0 25 OUTLET
S_253449679 0.013 0.1 2.0 5.0 25 OUTLET
S_13811792564 0.013 0.1 2.0 5.0 25 OUTLET
S_2048245857 0.013 0.1 2.0 5.0 25 OUTLET
S_253449681 0.013 0.1 2.0 5.0 25 OUTLET
S_10731123199 0.013 0.1 2.0 5.0 25 OUTLET
S_7466386855 0.013 0.1 2.0 5.0 25 OUTLET
S_5281842562 0.013 0.1 2.0 5.0 25 OUTLET
S_253449683 0.013 0.1 2.0 5.0 25 OUTLET
S_1492407642 0.013 0.1 2.0 5.0 25 OUTLET
S_11002574624 0.013 0.1 2.0 5.0 25 OUTLET
S_253449686 0.013 0.1 2.0 5.0 25 OUTLET
S_7466386858 0.013 0.1 2.0 5.0 25 OUTLET
S_7466386856 0.013 0.1 2.0 5.0 25 OUTLET
S_9870086764 0.013 0.1 2.0 5.0 25 OUTLET
S_253449692 0.013 0.1 2.0 5.0 25 OUTLET
S_10044811668 0.013 0.1 2.0 5.0 25 OUTLET
S_253449698 0.013 0.1 2.0 5.0 25 OUTLET
S_10017481089 0.013 0.1 2.0 5.0 25 OUTLET
S_9992581195 0.013 0.1 2.0 5.0 25 OUTLET
S_5931305385 0.013 0.1 2.0 5.0 25 OUTLET
S_253452075 0.013 0.1 2.0 5.0 25 OUTLET
S_6901407760 0.013 0.1 2.0 5.0 25 OUTLET
S_1382528655 0.013 0.1 2.0 5.0 25 OUTLET
S_7137902395 0.013 0.1 2.0 5.0 25 OUTLET
S_253452077 0.013 0.1 2.0 5.0 25 OUTLET
S_3957948342 0.013 0.1 2.0 5.0 25 OUTLET
S_12155167311 0.013 0.1 2.0 5.0 25 OUTLET
S_7466386863 0.013 0.1 2.0 5.0 25 OUTLET
S_253532871 0.013 0.1 2.0 5.0 25 OUTLET
S_253532914 0.013 0.1 2.0 5.0 25 OUTLET
S_5281842567 0.013 0.1 2.0 5.0 25 OUTLET
S_253532874 0.013 0.1 2.0 5.0 25 OUTLET
S_3545987055 0.013 0.1 2.0 5.0 25 OUTLET
S_12206473568 0.013 0.1 2.0 5.0 25 OUTLET
S_7121386221 0.013 0.1 2.0 5.0 25 OUTLET
S_253532894 0.013 0.1 2.0 5.0 25 OUTLET
S_11399419950 0.013 0.1 2.0 5.0 25 OUTLET
S_7101760803 0.013 0.1 2.0 5.0 25 OUTLET
S_1634932079 0.013 0.1 2.0 5.0 25 OUTLET
S_253532896 0.013 0.1 2.0 5.0 25 OUTLET
S_11021627219 0.013 0.1 2.0 5.0 25 OUTLET
S_253532905 0.013 0.1 2.0 5.0 25 OUTLET
S_7298289272 0.013 0.1 2.0 5.0 25 OUTLET
S_253532978 0.013 0.1 2.0 5.0 25 OUTLET
S_253532910 0.013 0.1 2.0 5.0 25 OUTLET
S_11021478367 0.013 0.1 2.0 5.0 25 OUTLET
S_1103017558 0.013 0.1 2.0 5.0 25 OUTLET
S_11135547223 0.013 0.1 2.0 5.0 25 OUTLET
S_253532931 0.013 0.1 2.0 5.0 25 OUTLET
S_11434296179 0.013 0.1 2.0 5.0 25 OUTLET
S_253532934 0.013 0.1 2.0 5.0 25 OUTLET
S_1443044870 0.013 0.1 2.0 5.0 25 OUTLET
S_3530426108 0.013 0.1 2.0 5.0 25 OUTLET
S_11002801404 0.013 0.1 2.0 5.0 25 OUTLET
S_253532971 0.013 0.1 2.0 5.0 25 OUTLET
S_11121286748 0.013 0.1 2.0 5.0 25 OUTLET
S_11002878595 0.013 0.1 2.0 5.0 25 OUTLET
S_331146193 0.013 0.1 2.0 5.0 25 OUTLET
S_254442570 0.013 0.1 2.0 5.0 25 OUTLET
S_1590229386 0.013 0.1 2.0 5.0 25 OUTLET
S_1367922212 0.013 0.1 2.0 5.0 25 OUTLET
S_1472791625 0.013 0.1 2.0 5.0 25 OUTLET
S_307940137 0.013 0.1 2.0 5.0 25 OUTLET
S_9645445129 0.013 0.1 2.0 5.0 25 OUTLET
S_1434089177 0.013 0.1 2.0 5.0 25 OUTLET
S_320240652 0.013 0.1 2.0 5.0 25 OUTLET
S_1371807641 0.013 0.1 2.0 5.0 25 OUTLET
S_1371807634 0.013 0.1 2.0 5.0 25 OUTLET
S_9700074489 0.013 0.1 2.0 5.0 25 OUTLET
S_320240654 0.013 0.1 2.0 5.0 25 OUTLET
S_1371807648 0.013 0.1 2.0 5.0 25 OUTLET
S_320240656 0.013 0.1 2.0 5.0 25 OUTLET
S_6193957625 0.013 0.1 2.0 5.0 25 OUTLET
S_12141933091 0.013 0.1 2.0 5.0 25 OUTLET
S_11027638241 0.013 0.1 2.0 5.0 25 OUTLET
S_320241385 0.013 0.1 2.0 5.0 25 OUTLET
S_6182692049 0.013 0.1 2.0 5.0 25 OUTLET
S_11015226548 0.013 0.1 2.0 5.0 25 OUTLET
S_11021479825 0.013 0.1 2.0 5.0 25 OUTLET
S_320241388 0.013 0.1 2.0 5.0 25 OUTLET
S_1514989637 0.013 0.1 2.0 5.0 25 OUTLET
S_7452692543 0.013 0.1 2.0 5.0 25 OUTLET
S_2225133166 0.013 0.1 2.0 5.0 25 OUTLET
S_320241390 0.013 0.1 2.0 5.0 25 OUTLET
S_4458722678 0.013 0.1 2.0 5.0 25 OUTLET
S_6194091031 0.013 0.1 2.0 5.0 25 OUTLET
S_320242565 0.013 0.1 2.0 5.0 25 OUTLET
S_7453315390 0.013 0.1 2.0 5.0 25 OUTLET
S_4458722615 0.013 0.1 2.0 5.0 25 OUTLET
S_4458722596 0.013 0.1 2.0 5.0 25 OUTLET
S_1514989618 0.013 0.1 2.0 5.0 25 OUTLET
S_320242567 0.013 0.1 2.0 5.0 25 OUTLET
S_4458722572 0.013 0.1 2.0 5.0 25 OUTLET
S_6177428350 0.013 0.1 2.0 5.0 25 OUTLET
S_7453315312 0.013 0.1 2.0 5.0 25 OUTLET
S_320242571 0.013 0.1 2.0 5.0 25 OUTLET
S_7453315398 0.013 0.1 2.0 5.0 25 OUTLET
S_2225133290 0.013 0.1 2.0 5.0 25 OUTLET
S_6904168224 0.013 0.1 2.0 5.0 25 OUTLET
S_320242582 0.013 0.1 2.0 5.0 25 OUTLET
S_6182547032 0.013 0.1 2.0 5.0 25 OUTLET
S_6751829037 0.013 0.1 2.0 5.0 25 OUTLET
S_2225133544 0.013 0.1 2.0 5.0 25 OUTLET
S_320242587 0.013 0.1 2.0 5.0 25 OUTLET
S_1347565272 0.013 0.1 2.0 5.0 25 OUTLET
S_7465456804 0.013 0.1 2.0 5.0 25 OUTLET
S_7138383916 0.013 0.1 2.0 5.0 25 OUTLET
S_320242814 0.013 0.1 2.0 5.0 25 OUTLET
S_6901280942 0.013 0.1 2.0 5.0 25 OUTLET
S_1371816433 0.013 0.1 2.0 5.0 25 OUTLET
S_6758593405 0.013 0.1 2.0 5.0 25 OUTLET
S_320242815 0.013 0.1 2.0 5.0 25 OUTLET
S_1371816389 0.013 0.1 2.0 5.0 25 OUTLET
S_11885729668 0.013 0.1 2.0 5.0 25 OUTLET
S_1371816411 0.013 0.1 2.0 5.0 25 OUTLET
S_320242819 0.013 0.1 2.0 5.0 25 OUTLET
S_6748996048 0.013 0.1 2.0 5.0 25 OUTLET
S_11021428239 0.013 0.1 2.0 5.0 25 OUTLET
S_2225133701 0.013 0.1 2.0 5.0 25 OUTLET
S_7291167555 0.013 0.1 2.0 5.0 25 OUTLET
S_1368829030 0.013 0.1 2.0 5.0 25 OUTLET
S_331146194 0.013 0.1 2.0 5.0 25 OUTLET
S_14072070989 0.013 0.1 2.0 5.0 25 OUTLET
S_331146195 0.013 0.1 2.0 5.0 25 OUTLET
S_12998590069 0.013 0.1 2.0 5.0 25 OUTLET
S_10991651169 0.013 0.1 2.0 5.0 25 OUTLET
S_4315977113 0.013 0.1 2.0 5.0 25 OUTLET
S_331146196 0.013 0.1 2.0 5.0 25 OUTLET
S_1016228579 0.013 0.1 2.0 5.0 25 OUTLET
S_331146200 0.013 0.1 2.0 5.0 25 OUTLET
S_1470833642 0.013 0.1 2.0 5.0 25 OUTLET
S_1718789013 0.013 0.1 2.0 5.0 25 OUTLET
S_331146203 0.013 0.1 2.0 5.0 25 OUTLET
S_10056189410 0.013 0.1 2.0 5.0 25 OUTLET
S_331147616 0.013 0.1 2.0 5.0 25 OUTLET
S_7298289287 0.013 0.1 2.0 5.0 25 OUTLET
S_331147621 0.013 0.1 2.0 5.0 25 OUTLET
S_11381136612 0.013 0.1 2.0 5.0 25 OUTLET
S_331147627 0.013 0.1 2.0 5.0 25 OUTLET
S_1374396082 0.013 0.1 2.0 5.0 25 OUTLET
S_1368814490 0.013 0.1 2.0 5.0 25 OUTLET
S_7298289289 0.013 0.1 2.0 5.0 25 OUTLET
S_331147702 0.013 0.1 2.0 5.0 25 OUTLET
S_1104250513 0.013 0.1 2.0 5.0 25 OUTLET
S_331147771 0.013 0.1 2.0 5.0 25 OUTLET
S_1371814186 0.013 0.1 2.0 5.0 25 OUTLET
S_1371814178 0.013 0.1 2.0 5.0 25 OUTLET
S_1371807570 0.013 0.1 2.0 5.0 25 OUTLET
S_331147773 0.013 0.1 2.0 5.0 25 OUTLET
S_1371807583 0.013 0.1 2.0 5.0 25 OUTLET
S_2225133203 0.013 0.1 2.0 5.0 25 OUTLET
S_1371807553 0.013 0.1 2.0 5.0 25 OUTLET
S_331150815 0.013 0.1 2.0 5.0 25 OUTLET
S_1103017563 0.013 0.1 2.0 5.0 25 OUTLET
S_956958701 0.013 0.1 2.0 5.0 25 OUTLET
S_11074670551 0.013 0.1 2.0 5.0 25 OUTLET
S_331150822 0.013 0.1 2.0 5.0 25 OUTLET
S_7298268883 0.013 0.1 2.0 5.0 25 OUTLET
S_10637202311 0.013 0.1 2.0 5.0 25 OUTLET
S_10038766779 0.013 0.1 2.0 5.0 25 OUTLET
S_574872968 0.013 0.1 2.0 5.0 25 OUTLET
S_11885834679 0.013 0.1 2.0 5.0 25 OUTLET
S_12961466033 0.013 0.1 2.0 5.0 25 OUTLET
S_7465456821 0.013 0.1 2.0 5.0 25 OUTLET
S_594600161 0.013 0.1 2.0 5.0 25 OUTLET
S_2376774439 0.013 0.1 2.0 5.0 25 OUTLET
S_7452692549 0.013 0.1 2.0 5.0 25 OUTLET
S_2225133157 0.013 0.1 2.0 5.0 25 OUTLET
S_594600189 0.013 0.1 2.0 5.0 25 OUTLET
S_594600191 0.013 0.1 2.0 5.0 25 OUTLET
S_7453315573 0.013 0.1 2.0 5.0 25 OUTLET
S_7453315574 0.013 0.1 2.0 5.0 25 OUTLET
S_594600200 0.013 0.1 2.0 5.0 25 OUTLET
S_7452692544 0.013 0.1 2.0 5.0 25 OUTLET
S_809461728 0.013 0.1 2.0 5.0 25 OUTLET
S_5485647354 0.013 0.1 2.0 5.0 25 OUTLET
S_809461787 0.013 0.1 2.0 5.0 25 OUTLET
S_3713858821 0.013 0.1 2.0 5.0 25 OUTLET
S_1104250512 0.013 0.1 2.0 5.0 25 OUTLET
S_832572431 0.013 0.1 2.0 5.0 25 OUTLET
S_12604472593 0.013 0.1 2.0 5.0 25 OUTLET
S_1633904753 0.013 0.1 2.0 5.0 25 OUTLET
S_955696066 0.013 0.1 2.0 5.0 25 OUTLET
S_9937603726 0.013 0.1 2.0 5.0 25 OUTLET
S_12918665449 0.013 0.1 2.0 5.0 25 OUTLET
S_1078253085 0.013 0.1 2.0 5.0 25 OUTLET
S_956975072 0.013 0.1 2.0 5.0 25 OUTLET
S_1104250537 0.013 0.1 2.0 5.0 25 OUTLET
S_1078253094 0.013 0.1 2.0 5.0 25 OUTLET
S_1014648217 0.013 0.1 2.0 5.0 25 OUTLET
S_10760860021 0.013 0.1 2.0 5.0 25 OUTLET
S_2066388579 0.013 0.1 2.0 5.0 25 OUTLET
S_6043189067 0.013 0.1 2.0 5.0 25 OUTLET
S_1014707800 0.013 0.1 2.0 5.0 25 OUTLET
S_1371828536 0.013 0.1 2.0 5.0 25 OUTLET
S_1371828541 0.013 0.1 2.0 5.0 25 OUTLET
S_1014707856 0.013 0.1 2.0 5.0 25 OUTLET
S_1014707848 0.013 0.1 2.0 5.0 25 OUTLET
S_1371828527 0.013 0.1 2.0 5.0 25 OUTLET
S_13830086493 0.013 0.1 2.0 5.0 25 OUTLET
S_7298289213 0.013 0.1 2.0 5.0 25 OUTLET
S_7298289244 0.013 0.1 2.0 5.0 25 OUTLET
S_7298289236 0.013 0.1 2.0 5.0 25 OUTLET
S_1014707872 0.013 0.1 2.0 5.0 25 OUTLET
S_13830105941 0.013 0.1 2.0 5.0 25 OUTLET
S_7298289211 0.013 0.1 2.0 5.0 25 OUTLET
S_1371828542 0.013 0.1 2.0 5.0 25 OUTLET
S_1014707907 0.013 0.1 2.0 5.0 25 OUTLET
S_1371828544 0.013 0.1 2.0 5.0 25 OUTLET
S_1371828530 0.013 0.1 2.0 5.0 25 OUTLET
S_1066108522 0.013 0.1 2.0 5.0 25 OUTLET
S_1016228504 0.013 0.1 2.0 5.0 25 OUTLET
S_1104250503 0.013 0.1 2.0 5.0 25 OUTLET
S_1016228517 0.013 0.1 2.0 5.0 25 OUTLET
S_1368117344 0.013 0.1 2.0 5.0 25 OUTLET
S_1368828980 0.013 0.1 2.0 5.0 25 OUTLET
S_1368829000 0.013 0.1 2.0 5.0 25 OUTLET
S_12196582428 0.013 0.1 2.0 5.0 25 OUTLET
S_1016228534 0.013 0.1 2.0 5.0 25 OUTLET
S_1683088958 0.013 0.1 2.0 5.0 25 OUTLET
S_10991813477 0.013 0.1 2.0 5.0 25 OUTLET
S_1016228556 0.013 0.1 2.0 5.0 25 OUTLET
S_1016228610 0.013 0.1 2.0 5.0 25 OUTLET
S_1634931711 0.013 0.1 2.0 5.0 25 OUTLET
S_1368828996 0.013 0.1 2.0 5.0 25 OUTLET
S_2066388589 0.013 0.1 2.0 5.0 25 OUTLET
S_1368828999 0.013 0.1 2.0 5.0 25 OUTLET
S_1016228596 0.013 0.1 2.0 5.0 25 OUTLET
S_1066041419 0.013 0.1 2.0 5.0 25 OUTLET
S_1066041427 0.013 0.1 2.0 5.0 25 OUTLET
S_11021766298 0.013 0.1 2.0 5.0 25 OUTLET
S_11074670573 0.013 0.1 2.0 5.0 25 OUTLET
S_1368801653 0.013 0.1 2.0 5.0 25 OUTLET
S_1066108534 0.013 0.1 2.0 5.0 25 OUTLET
S_1368801668 0.013 0.1 2.0 5.0 25 OUTLET
S_1103012306 0.013 0.1 2.0 5.0 25 OUTLET
S_7261406108 0.013 0.1 2.0 5.0 25 OUTLET
S_14074138183 0.013 0.1 2.0 5.0 25 OUTLET
S_2623251185 0.013 0.1 2.0 5.0 25 OUTLET
S_1104250488 0.013 0.1 2.0 5.0 25 OUTLET
S_1078253103 0.013 0.1 2.0 5.0 25 OUTLET
S_11434298134 0.013 0.1 2.0 5.0 25 OUTLET
S_14074138200 0.013 0.1 2.0 5.0 25 OUTLET
S_1078253167 0.013 0.1 2.0 5.0 25 OUTLET
S_1080176720 0.013 0.1 2.0 5.0 25 OUTLET
S_5281842556 0.013 0.1 2.0 5.0 25 OUTLET
S_1437330565 0.013 0.1 2.0 5.0 25 OUTLET
S_1080176721 0.013 0.1 2.0 5.0 25 OUTLET
S_1605954184 0.013 0.1 2.0 5.0 25 OUTLET
S_1103012303 0.013 0.1 2.0 5.0 25 OUTLET
S_13535865211 0.013 0.1 2.0 5.0 25 OUTLET
S_1103012305 0.013 0.1 2.0 5.0 25 OUTLET
S_1368117382 0.013 0.1 2.0 5.0 25 OUTLET
S_1368117384 0.013 0.1 2.0 5.0 25 OUTLET
S_1502865751 0.013 0.1 2.0 5.0 25 OUTLET
S_11021437035 0.013 0.1 2.0 5.0 25 OUTLET
S_11021437031 0.013 0.1 2.0 5.0 25 OUTLET
S_9841504887 0.013 0.1 2.0 5.0 25 OUTLET
S_1104241031 0.013 0.1 2.0 5.0 25 OUTLET
S_1104241056 0.013 0.1 2.0 5.0 25 OUTLET
S_11197334454 0.013 0.1 2.0 5.0 25 OUTLET
S_1104250501 0.013 0.1 2.0 5.0 25 OUTLET
S_1104250495 0.013 0.1 2.0 5.0 25 OUTLET
S_6194047462 0.013 0.1 2.0 5.0 25 OUTLET
S_6759139268 0.013 0.1 2.0 5.0 25 OUTLET
S_1507064149 0.013 0.1 2.0 5.0 25 OUTLET
S_1507064152 0.013 0.1 2.0 5.0 25 OUTLET
S_3649025396 0.013 0.1 2.0 5.0 25 OUTLET
S_1558993952 0.013 0.1 2.0 5.0 25 OUTLET
S_9645445144 0.013 0.1 2.0 5.0 25 OUTLET
S_1590229362 0.013 0.1 2.0 5.0 25 OUTLET
S_10056189411 0.013 0.1 2.0 5.0 25 OUTLET
S_1104250524 0.013 0.1 2.0 5.0 25 OUTLET
S_12187447575 0.013 0.1 2.0 5.0 25 OUTLET
S_12098136116 0.013 0.1 2.0 5.0 25 OUTLET
S_5281842535 0.013 0.1 2.0 5.0 25 OUTLET
S_10284858598 0.013 0.1 2.0 5.0 25 OUTLET
S_1177705626 0.013 0.1 2.0 5.0 25 OUTLET
S_6901276163 0.013 0.1 2.0 5.0 25 OUTLET
S_12187502877 0.013 0.1 2.0 5.0 25 OUTLET
S_1177705914 0.013 0.1 2.0 5.0 25 OUTLET
S_11434710893 0.013 0.1 2.0 5.0 25 OUTLET
S_12961466034 0.013 0.1 2.0 5.0 25 OUTLET
S_1198163774 0.013 0.1 2.0 5.0 25 OUTLET
S_1374397406 0.013 0.1 2.0 5.0 25 OUTLET
S_12161557850 0.013 0.1 2.0 5.0 25 OUTLET
S_13802597960 0.013 0.1 2.0 5.0 25 OUTLET
S_1198169318 0.013 0.1 2.0 5.0 25 OUTLET
S_7465393503 0.013 0.1 2.0 5.0 25 OUTLET
S_7465393502 0.013 0.1 2.0 5.0 25 OUTLET
S_12362900668 0.013 0.1 2.0 5.0 25 OUTLET
S_1198169359 0.013 0.1 2.0 5.0 25 OUTLET
S_5281840014 0.013 0.1 2.0 5.0 25 OUTLET
S_7465393504 0.013 0.1 2.0 5.0 25 OUTLET
S_4458722757 0.013 0.1 2.0 5.0 25 OUTLET
S_11812221695 0.013 0.1 2.0 5.0 25 OUTLET
S_1262043907 0.013 0.1 2.0 5.0 25 OUTLET
S_1262043930 0.013 0.1 2.0 5.0 25 OUTLET
S_1770465756 0.013 0.1 2.0 5.0 25 OUTLET
S_1262043929 0.013 0.1 2.0 5.0 25 OUTLET
S_1262043916 0.013 0.1 2.0 5.0 25 OUTLET
S_1262043909 0.013 0.1 2.0 5.0 25 OUTLET
S_9928560958 0.013 0.1 2.0 5.0 25 OUTLET
S_13105830030 0.013 0.1 2.0 5.0 25 OUTLET
S_1262043934 0.013 0.1 2.0 5.0 25 OUTLET
S_1262043910 0.013 0.1 2.0 5.0 25 OUTLET
S_1262043922 0.013 0.1 2.0 5.0 25 OUTLET
S_7466386826 0.013 0.1 2.0 5.0 25 OUTLET
S_1262043932 0.013 0.1 2.0 5.0 25 OUTLET
S_1262043912 0.013 0.1 2.0 5.0 25 OUTLET
S_1262043947 0.013 0.1 2.0 5.0 25 OUTLET
S_1262043933 0.013 0.1 2.0 5.0 25 OUTLET
S_7466386827 0.013 0.1 2.0 5.0 25 OUTLET
S_1262043914 0.013 0.1 2.0 5.0 25 OUTLET
S_1262043936 0.013 0.1 2.0 5.0 25 OUTLET
S_1262043931 0.013 0.1 2.0 5.0 25 OUTLET
S_1262043919 0.013 0.1 2.0 5.0 25 OUTLET
S_6144436485 0.013 0.1 2.0 5.0 25 OUTLET
S_1966466667 0.013 0.1 2.0 5.0 25 OUTLET
S_1262043920 0.013 0.1 2.0 5.0 25 OUTLET
S_1262043938 0.013 0.1 2.0 5.0 25 OUTLET
S_7466386830 0.013 0.1 2.0 5.0 25 OUTLET
S_1262043923 0.013 0.1 2.0 5.0 25 OUTLET
S_13807649806 0.013 0.1 2.0 5.0 25 OUTLET
S_1770465746 0.013 0.1 2.0 5.0 25 OUTLET
S_9928560957 0.013 0.1 2.0 5.0 25 OUTLET
S_7466386825 0.013 0.1 2.0 5.0 25 OUTLET
S_1770465743 0.013 0.1 2.0 5.0 25 OUTLET
S_1327387669 0.013 0.1 2.0 5.0 25 OUTLET
S_1371814296 0.013 0.1 2.0 5.0 25 OUTLET
S_1371814145 0.013 0.1 2.0 5.0 25 OUTLET
S_4204925697 0.013 0.1 2.0 5.0 25 OUTLET
S_1327387674 0.013 0.1 2.0 5.0 25 OUTLET
S_1371814201 0.013 0.1 2.0 5.0 25 OUTLET
S_1371814219 0.013 0.1 2.0 5.0 25 OUTLET
S_1923819587 0.013 0.1 2.0 5.0 25 OUTLET
S_1327387675 0.013 0.1 2.0 5.0 25 OUTLET
S_1327387677 0.013 0.1 2.0 5.0 25 OUTLET
S_1327387676 0.013 0.1 2.0 5.0 25 OUTLET
S_1371814282 0.013 0.1 2.0 5.0 25 OUTLET
S_7465614235 0.013 0.1 2.0 5.0 25 OUTLET
S_1327387682 0.013 0.1 2.0 5.0 25 OUTLET
S_6194157441 0.013 0.1 2.0 5.0 25 OUTLET
S_1371814252 0.013 0.1 2.0 5.0 25 OUTLET
S_1327387679 0.013 0.1 2.0 5.0 25 OUTLET
S_1327387681 0.013 0.1 2.0 5.0 25 OUTLET
S_1371814205 0.013 0.1 2.0 5.0 25 OUTLET
S_1327387683 0.013 0.1 2.0 5.0 25 OUTLET
S_7465614240 0.013 0.1 2.0 5.0 25 OUTLET
S_1327387684 0.013 0.1 2.0 5.0 25 OUTLET
S_1327387685 0.013 0.1 2.0 5.0 25 OUTLET
S_1371814312 0.013 0.1 2.0 5.0 25 OUTLET
S_7465614246 0.013 0.1 2.0 5.0 25 OUTLET
S_11009508675 0.013 0.1 2.0 5.0 25 OUTLET
S_1327387687 0.013 0.1 2.0 5.0 25 OUTLET
S_1327387689 0.013 0.1 2.0 5.0 25 OUTLET
S_1371814209 0.013 0.1 2.0 5.0 25 OUTLET
S_1327387686 0.013 0.1 2.0 5.0 25 OUTLET
S_1371816431 0.013 0.1 2.0 5.0 25 OUTLET
S_1327387694 0.013 0.1 2.0 5.0 25 OUTLET
S_1327387695 0.013 0.1 2.0 5.0 25 OUTLET
S_1371814298 0.013 0.1 2.0 5.0 25 OUTLET
S_1327387690 0.013 0.1 2.0 5.0 25 OUTLET
S_6152762851 0.013 0.1 2.0 5.0 25 OUTLET
S_1327387692 0.013 0.1 2.0 5.0 25 OUTLET
S_4204925700 0.013 0.1 2.0 5.0 25 OUTLET
S_1371816413 0.013 0.1 2.0 5.0 25 OUTLET
S_1327387697 0.013 0.1 2.0 5.0 25 OUTLET
S_1327387698 0.013 0.1 2.0 5.0 25 OUTLET
S_11395452271 0.013 0.1 2.0 5.0 25 OUTLET
S_1327387696 0.013 0.1 2.0 5.0 25 OUTLET
S_1371816442 0.013 0.1 2.0 5.0 25 OUTLET
S_1371816427 0.013 0.1 2.0 5.0 25 OUTLET
S_1327387702 0.013 0.1 2.0 5.0 25 OUTLET
S_5281727082 0.013 0.1 2.0 5.0 25 OUTLET
S_1327387699 0.013 0.1 2.0 5.0 25 OUTLET
S_1327387701 0.013 0.1 2.0 5.0 25 OUTLET
S_1371816463 0.013 0.1 2.0 5.0 25 OUTLET
S_1371816459 0.013 0.1 2.0 5.0 25 OUTLET
S_7465614249 0.013 0.1 2.0 5.0 25 OUTLET
S_7465614251 0.013 0.1 2.0 5.0 25 OUTLET
S_1327387704 0.013 0.1 2.0 5.0 25 OUTLET
S_7465614253 0.013 0.1 2.0 5.0 25 OUTLET
S_7465614254 0.013 0.1 2.0 5.0 25 OUTLET
S_1347565267 0.013 0.1 2.0 5.0 25 OUTLET
S_7465646179 0.013 0.1 2.0 5.0 25 OUTLET
S_6620856876 0.013 0.1 2.0 5.0 25 OUTLET
S_2225133603 0.013 0.1 2.0 5.0 25 OUTLET
S_7465646180 0.013 0.1 2.0 5.0 25 OUTLET
S_1347565269 0.013 0.1 2.0 5.0 25 OUTLET
S_1347565270 0.013 0.1 2.0 5.0 25 OUTLET
S_11021533254 0.013 0.1 2.0 5.0 25 OUTLET
S_7465456816 0.013 0.1 2.0 5.0 25 OUTLET
S_7465672901 0.013 0.1 2.0 5.0 25 OUTLET
S_1634931753 0.013 0.1 2.0 5.0 25 OUTLET
S_1368117346 0.013 0.1 2.0 5.0 25 OUTLET
S_1368117304 0.013 0.1 2.0 5.0 25 OUTLET
S_1368117316 0.013 0.1 2.0 5.0 25 OUTLET
S_1371814142 0.013 0.1 2.0 5.0 25 OUTLET
S_9700074482 0.013 0.1 2.0 5.0 25 OUTLET
S_1368117325 0.013 0.1 2.0 5.0 25 OUTLET
S_9900960189 0.013 0.1 2.0 5.0 25 OUTLET
S_1368117350 0.013 0.1 2.0 5.0 25 OUTLET
S_1502865753 0.013 0.1 2.0 5.0 25 OUTLET
S_1368117363 0.013 0.1 2.0 5.0 25 OUTLET
S_5281842539 0.013 0.1 2.0 5.0 25 OUTLET
S_9645445154 0.013 0.1 2.0 5.0 25 OUTLET
S_11434400637 0.013 0.1 2.0 5.0 25 OUTLET
S_11926574593 0.013 0.1 2.0 5.0 25 OUTLET
S_1368672364 0.013 0.1 2.0 5.0 25 OUTLET
S_1701004552 0.013 0.1 2.0 5.0 25 OUTLET
S_1558993987 0.013 0.1 2.0 5.0 25 OUTLET
S_7298295670 0.013 0.1 2.0 5.0 25 OUTLET
S_1368801655 0.013 0.1 2.0 5.0 25 OUTLET
S_6182817159 0.013 0.1 2.0 5.0 25 OUTLET
S_7101732711 0.013 0.1 2.0 5.0 25 OUTLET
S_1368801659 0.013 0.1 2.0 5.0 25 OUTLET
S_1368801669 0.013 0.1 2.0 5.0 25 OUTLET
S_11027804585 0.013 0.1 2.0 5.0 25 OUTLET
S_11077269487 0.013 0.1 2.0 5.0 25 OUTLET
S_1558993902 0.013 0.1 2.0 5.0 25 OUTLET
S_1558994002 0.013 0.1 2.0 5.0 25 OUTLET
S_11397593720 0.013 0.1 2.0 5.0 25 OUTLET
S_1368801673 0.013 0.1 2.0 5.0 25 OUTLET
S_1371828535 0.013 0.1 2.0 5.0 25 OUTLET
S_10738521350 0.013 0.1 2.0 5.0 25 OUTLET
S_1368801692 0.013 0.1 2.0 5.0 25 OUTLET
S_9681688971 0.013 0.1 2.0 5.0 25 OUTLET
S_1376905664 0.013 0.1 2.0 5.0 25 OUTLET
S_1368828978 0.013 0.1 2.0 5.0 25 OUTLET
S_7298289285 0.013 0.1 2.0 5.0 25 OUTLET
S_7291167549 0.013 0.1 2.0 5.0 25 OUTLET
S_2066388564 0.013 0.1 2.0 5.0 25 OUTLET
S_1368933533 0.013 0.1 2.0 5.0 25 OUTLET
S_11640782969 0.013 0.1 2.0 5.0 25 OUTLET
S_1368933536 0.013 0.1 2.0 5.0 25 OUTLET
S_14066684544 0.013 0.1 2.0 5.0 25 OUTLET
S_7298268884 0.013 0.1 2.0 5.0 25 OUTLET
S_1371807527 0.013 0.1 2.0 5.0 25 OUTLET
S_1371807599 0.013 0.1 2.0 5.0 25 OUTLET
S_1371807607 0.013 0.1 2.0 5.0 25 OUTLET
S_5281839991 0.013 0.1 2.0 5.0 25 OUTLET
S_1371807528 0.013 0.1 2.0 5.0 25 OUTLET
S_1371807530 0.013 0.1 2.0 5.0 25 OUTLET
S_13654038141 0.013 0.1 2.0 5.0 25 OUTLET
S_1371807531 0.013 0.1 2.0 5.0 25 OUTLET
S_1371807645 0.013 0.1 2.0 5.0 25 OUTLET
S_1371807533 0.013 0.1 2.0 5.0 25 OUTLET
S_13654038123 0.013 0.1 2.0 5.0 25 OUTLET
S_1371807573 0.013 0.1 2.0 5.0 25 OUTLET
S_1371807534 0.013 0.1 2.0 5.0 25 OUTLET
S_1371807587 0.013 0.1 2.0 5.0 25 OUTLET
S_1371807535 0.013 0.1 2.0 5.0 25 OUTLET
S_1371807649 0.013 0.1 2.0 5.0 25 OUTLET
S_1371807537 0.013 0.1 2.0 5.0 25 OUTLET
S_2486617762 0.013 0.1 2.0 5.0 25 OUTLET
S_9884546155 0.013 0.1 2.0 5.0 25 OUTLET
S_7453315722 0.013 0.1 2.0 5.0 25 OUTLET
S_1371807538 0.013 0.1 2.0 5.0 25 OUTLET
S_13667500256 0.013 0.1 2.0 5.0 25 OUTLET
S_1371807540 0.013 0.1 2.0 5.0 25 OUTLET
S_1371807651 0.013 0.1 2.0 5.0 25 OUTLET
S_1371807595 0.013 0.1 2.0 5.0 25 OUTLET
S_13654030352 0.013 0.1 2.0 5.0 25 OUTLET
S_1371807542 0.013 0.1 2.0 5.0 25 OUTLET
S_11027638242 0.013 0.1 2.0 5.0 25 OUTLET
S_1371807544 0.013 0.1 2.0 5.0 25 OUTLET
S_1371807598 0.013 0.1 2.0 5.0 25 OUTLET
S_1371807657 0.013 0.1 2.0 5.0 25 OUTLET
S_3649025393 0.013 0.1 2.0 5.0 25 OUTLET
S_1371807546 0.013 0.1 2.0 5.0 25 OUTLET
S_1371807616 0.013 0.1 2.0 5.0 25 OUTLET
S_13130350871 0.013 0.1 2.0 5.0 25 OUTLET
S_13654038433 0.013 0.1 2.0 5.0 25 OUTLET
S_1371807549 0.013 0.1 2.0 5.0 25 OUTLET
S_1371807564 0.013 0.1 2.0 5.0 25 OUTLET
S_1371807666 0.013 0.1 2.0 5.0 25 OUTLET
S_1371807551 0.013 0.1 2.0 5.0 25 OUTLET
S_5281840020 0.013 0.1 2.0 5.0 25 OUTLET
S_13503417936 0.013 0.1 2.0 5.0 25 OUTLET
S_1371807558 0.013 0.1 2.0 5.0 25 OUTLET
S_1371807559 0.013 0.1 2.0 5.0 25 OUTLET
S_1371807561 0.013 0.1 2.0 5.0 25 OUTLET
S_1371807620 0.013 0.1 2.0 5.0 25 OUTLET
S_1371807563 0.013 0.1 2.0 5.0 25 OUTLET
S_13667500010 0.013 0.1 2.0 5.0 25 OUTLET
S_1371807631 0.013 0.1 2.0 5.0 25 OUTLET
S_1578236015 0.013 0.1 2.0 5.0 25 OUTLET
S_1371807612 0.013 0.1 2.0 5.0 25 OUTLET
S_7453315612 0.013 0.1 2.0 5.0 25 OUTLET
S_7453315740 0.013 0.1 2.0 5.0 25 OUTLET
S_1371807571 0.013 0.1 2.0 5.0 25 OUTLET
S_1371807652 0.013 0.1 2.0 5.0 25 OUTLET
S_7452673911 0.013 0.1 2.0 5.0 25 OUTLET
S_5283343749 0.013 0.1 2.0 5.0 25 OUTLET
S_11021488563 0.013 0.1 2.0 5.0 25 OUTLET
S_1371807572 0.013 0.1 2.0 5.0 25 OUTLET
S_1371807661 0.013 0.1 2.0 5.0 25 OUTLET
S_13667500433 0.013 0.1 2.0 5.0 25 OUTLET
S_9700074494 0.013 0.1 2.0 5.0 25 OUTLET
S_11021806270 0.013 0.1 2.0 5.0 25 OUTLET
S_9700074492 0.013 0.1 2.0 5.0 25 OUTLET
S_1371807575 0.013 0.1 2.0 5.0 25 OUTLET
S_1371807639 0.013 0.1 2.0 5.0 25 OUTLET
S_1371807578 0.013 0.1 2.0 5.0 25 OUTLET
S_1371807627 0.013 0.1 2.0 5.0 25 OUTLET
S_1371807637 0.013 0.1 2.0 5.0 25 OUTLET
S_1371807659 0.013 0.1 2.0 5.0 25 OUTLET
S_7147042929 0.013 0.1 2.0 5.0 25 OUTLET
S_1371807586 0.013 0.1 2.0 5.0 25 OUTLET
S_5281842526 0.013 0.1 2.0 5.0 25 OUTLET
S_5283547061 0.013 0.1 2.0 5.0 25 OUTLET
S_1371807592 0.013 0.1 2.0 5.0 25 OUTLET
S_5283547056 0.013 0.1 2.0 5.0 25 OUTLET
S_1371807642 0.013 0.1 2.0 5.0 25 OUTLET
S_1371807593 0.013 0.1 2.0 5.0 25 OUTLET
S_1371807654 0.013 0.1 2.0 5.0 25 OUTLET
S_2225133216 0.013 0.1 2.0 5.0 25 OUTLET
S_1371807596 0.013 0.1 2.0 5.0 25 OUTLET
S_1514989648 0.013 0.1 2.0 5.0 25 OUTLET
S_11015226552 0.013 0.1 2.0 5.0 25 OUTLET
S_7453315652 0.013 0.1 2.0 5.0 25 OUTLET
S_1371807602 0.013 0.1 2.0 5.0 25 OUTLET
S_1371807630 0.013 0.1 2.0 5.0 25 OUTLET
S_1371807606 0.013 0.1 2.0 5.0 25 OUTLET
S_1371807660 0.013 0.1 2.0 5.0 25 OUTLET
S_1371807608 0.013 0.1 2.0 5.0 25 OUTLET
S_1514989684 0.013 0.1 2.0 5.0 25 OUTLET
S_7453315436 0.013 0.1 2.0 5.0 25 OUTLET
S_1371807614 0.013 0.1 2.0 5.0 25 OUTLET
S_1590229489 0.013 0.1 2.0 5.0 25 OUTLET
S_1371814159 0.013 0.1 2.0 5.0 25 OUTLET
S_13654038308 0.013 0.1 2.0 5.0 25 OUTLET
S_11397275311 0.013 0.1 2.0 5.0 25 OUTLET
S_1371807625 0.013 0.1 2.0 5.0 25 OUTLET
S_1371814174 0.013 0.1 2.0 5.0 25 OUTLET
S_12186088999 0.013 0.1 2.0 5.0 25 OUTLET
S_1371807626 0.013 0.1 2.0 5.0 25 OUTLET
S_5281842527 0.013 0.1 2.0 5.0 25 OUTLET
S_11021417755 0.013 0.1 2.0 5.0 25 OUTLET
S_1371807646 0.013 0.1 2.0 5.0 25 OUTLET
S_11015643600 0.013 0.1 2.0 5.0 25 OUTLET
S_13654030332 0.013 0.1 2.0 5.0 25 OUTLET
S_1371814339 0.013 0.1 2.0 5.0 25 OUTLET
S_1371807633 0.013 0.1 2.0 5.0 25 OUTLET
S_1371807636 0.013 0.1 2.0 5.0 25 OUTLET
S_5283343745 0.013 0.1 2.0 5.0 25 OUTLET
S_7138383879 0.013 0.1 2.0 5.0 25 OUTLET
S_7453315624 0.013 0.1 2.0 5.0 25 OUTLET
S_3530277755 0.013 0.1 2.0 5.0 25 OUTLET
S_1371807655 0.013 0.1 2.0 5.0 25 OUTLET
S_1371807665 0.013 0.1 2.0 5.0 25 OUTLET
S_5283547059 0.013 0.1 2.0 5.0 25 OUTLET
S_1371807644 0.013 0.1 2.0 5.0 25 OUTLET
S_12598616677 0.013 0.1 2.0 5.0 25 OUTLET
S_13654030378 0.013 0.1 2.0 5.0 25 OUTLET
S_7452673919 0.013 0.1 2.0 5.0 25 OUTLET
S_11021648174 0.013 0.1 2.0 5.0 25 OUTLET
S_2225133206 0.013 0.1 2.0 5.0 25 OUTLET
S_1371807658 0.013 0.1 2.0 5.0 25 OUTLET
S_2486617761 0.013 0.1 2.0 5.0 25 OUTLET
S_1371814115 0.013 0.1 2.0 5.0 25 OUTLET
S_1371814269 0.013 0.1 2.0 5.0 25 OUTLET
S_1371814238 0.013 0.1 2.0 5.0 25 OUTLET
S_1371814161 0.013 0.1 2.0 5.0 25 OUTLET
S_1371814117 0.013 0.1 2.0 5.0 25 OUTLET
S_1371814138 0.013 0.1 2.0 5.0 25 OUTLET
S_3324726802 0.013 0.1 2.0 5.0 25 OUTLET
S_1371814248 0.013 0.1 2.0 5.0 25 OUTLET
S_1371814124 0.013 0.1 2.0 5.0 25 OUTLET
S_1371814175 0.013 0.1 2.0 5.0 25 OUTLET
S_1371814188 0.013 0.1 2.0 5.0 25 OUTLET
S_1371814251 0.013 0.1 2.0 5.0 25 OUTLET
S_1371814172 0.013 0.1 2.0 5.0 25 OUTLET
S_1371814128 0.013 0.1 2.0 5.0 25 OUTLET
S_1371814230 0.013 0.1 2.0 5.0 25 OUTLET
S_9700074467 0.013 0.1 2.0 5.0 25 OUTLET
S_1578238465 0.013 0.1 2.0 5.0 25 OUTLET
S_6617329692 0.013 0.1 2.0 5.0 25 OUTLET
S_1371814129 0.013 0.1 2.0 5.0 25 OUTLET
S_1371814193 0.013 0.1 2.0 5.0 25 OUTLET
S_1371814130 0.013 0.1 2.0 5.0 25 OUTLET
S_1371814132 0.013 0.1 2.0 5.0 25 OUTLET
S_1371814194 0.013 0.1 2.0 5.0 25 OUTLET
S_1371814294 0.013 0.1 2.0 5.0 25 OUTLET
S_1371814162 0.013 0.1 2.0 5.0 25 OUTLET
S_1598804290 0.013 0.1 2.0 5.0 25 OUTLET
S_1371814140 0.013 0.1 2.0 5.0 25 OUTLET
S_1578237528 0.013 0.1 2.0 5.0 25 OUTLET
S_1371814297 0.013 0.1 2.0 5.0 25 OUTLET
S_1371814255 0.013 0.1 2.0 5.0 25 OUTLET
S_1371814237 0.013 0.1 2.0 5.0 25 OUTLET
S_9897294963 0.013 0.1 2.0 5.0 25 OUTLET
S_1371814316 0.013 0.1 2.0 5.0 25 OUTLET
S_1371814146 0.013 0.1 2.0 5.0 25 OUTLET
S_1371814246 0.013 0.1 2.0 5.0 25 OUTLET
S_1371814148 0.013 0.1 2.0 5.0 25 OUTLET
S_1371814154 0.013 0.1 2.0 5.0 25 OUTLET
S_1371814281 0.013 0.1 2.0 5.0 25 OUTLET
S_1371814156 0.013 0.1 2.0 5.0 25 OUTLET
S_1371814265 0.013 0.1 2.0 5.0 25 OUTLET
S_1457451923 0.013 0.1 2.0 5.0 25 OUTLET
S_1371814158 0.013 0.1 2.0 5.0 25 OUTLET
S_1371814160 0.013 0.1 2.0 5.0 25 OUTLET
S_1371814267 0.013 0.1 2.0 5.0 25 OUTLET
S_7465393489 0.013 0.1 2.0 5.0 25 OUTLET
S_1371814332 0.013 0.1 2.0 5.0 25 OUTLET
S_1371814176 0.013 0.1 2.0 5.0 25 OUTLET
S_1371814300 0.013 0.1 2.0 5.0 25 OUTLET
S_1371814326 0.013 0.1 2.0 5.0 25 OUTLET
S_1371814331 0.013 0.1 2.0 5.0 25 OUTLET
S_10991440018 0.013 0.1 2.0 5.0 25 OUTLET
S_5281842533 0.013 0.1 2.0 5.0 25 OUTLET
S_1371814310 0.013 0.1 2.0 5.0 25 OUTLET
S_1371814191 0.013 0.1 2.0 5.0 25 OUTLET
S_1371814254 0.013 0.1 2.0 5.0 25 OUTLET
S_1371814222 0.013 0.1 2.0 5.0 25 OUTLET
S_7465393486 0.013 0.1 2.0 5.0 25 OUTLET
S_4204925699 0.013 0.1 2.0 5.0 25 OUTLET
S_1371814327 0.013 0.1 2.0 5.0 25 OUTLET
S_7465614239 0.013 0.1 2.0 5.0 25 OUTLET
S_1371814206 0.013 0.1 2.0 5.0 25 OUTLET
S_1371814223 0.013 0.1 2.0 5.0 25 OUTLET
S_5281842546 0.013 0.1 2.0 5.0 25 OUTLET
S_5281839988 0.013 0.1 2.0 5.0 25 OUTLET
S_1371814207 0.013 0.1 2.0 5.0 25 OUTLET
S_1371814280 0.013 0.1 2.0 5.0 25 OUTLET
S_11395452270 0.013 0.1 2.0 5.0 25 OUTLET
S_12765426026 0.013 0.1 2.0 5.0 25 OUTLET
S_6617328973 0.013 0.1 2.0 5.0 25 OUTLET
S_1371814232 0.013 0.1 2.0 5.0 25 OUTLET
S_1371814285 0.013 0.1 2.0 5.0 25 OUTLET
S_1371814239 0.013 0.1 2.0 5.0 25 OUTLET
S_5281840018 0.013 0.1 2.0 5.0 25 OUTLET
S_5281840016 0.013 0.1 2.0 5.0 25 OUTLET
S_5281842545 0.013 0.1 2.0 5.0 25 OUTLET
S_1371814308 0.013 0.1 2.0 5.0 25 OUTLET
S_10991475142 0.013 0.1 2.0 5.0 25 OUTLET
S_1371814284 0.013 0.1 2.0 5.0 25 OUTLET
S_1371814314 0.013 0.1 2.0 5.0 25 OUTLET
S_7097657282 0.013 0.1 2.0 5.0 25 OUTLET
S_9700074460 0.013 0.1 2.0 5.0 25 OUTLET
S_1371814324 0.013 0.1 2.0 5.0 25 OUTLET
S_7452673893 0.013 0.1 2.0 5.0 25 OUTLET
S_5281840019 0.013 0.1 2.0 5.0 25 OUTLET
S_5283343739 0.013 0.1 2.0 5.0 25 OUTLET
S_1371816450 0.013 0.1 2.0 5.0 25 OUTLET
S_1371816422 0.013 0.1 2.0 5.0 25 OUTLET
S_1371816419 0.013 0.1 2.0 5.0 25 OUTLET
S_1371816391 0.013 0.1 2.0 5.0 25 OUTLET
S_1371816400 0.013 0.1 2.0 5.0 25 OUTLET
S_1371816415 0.013 0.1 2.0 5.0 25 OUTLET
S_1371816443 0.013 0.1 2.0 5.0 25 OUTLET
S_1371816460 0.013 0.1 2.0 5.0 25 OUTLET
S_1371816401 0.013 0.1 2.0 5.0 25 OUTLET
S_1371816402 0.013 0.1 2.0 5.0 25 OUTLET
S_1371816464 0.013 0.1 2.0 5.0 25 OUTLET
S_1371816425 0.013 0.1 2.0 5.0 25 OUTLET
S_1371816407 0.013 0.1 2.0 5.0 25 OUTLET
S_1371816435 0.013 0.1 2.0 5.0 25 OUTLET
S_11438418704 0.013 0.1 2.0 5.0 25 OUTLET
S_1371816440 0.013 0.1 2.0 5.0 25 OUTLET
S_11885696210 0.013 0.1 2.0 5.0 25 OUTLET
S_1371816417 0.013 0.1 2.0 5.0 25 OUTLET
S_1371816446 0.013 0.1 2.0 5.0 25 OUTLET
S_5281842548 0.013 0.1 2.0 5.0 25 OUTLET
S_4730103812 0.013 0.1 2.0 5.0 25 OUTLET
S_1371816441 0.013 0.1 2.0 5.0 25 OUTLET
S_6901280956 0.013 0.1 2.0 5.0 25 OUTLET
S_7465456827 0.013 0.1 2.0 5.0 25 OUTLET
S_1371816462 0.013 0.1 2.0 5.0 25 OUTLET
S_1371828528 0.013 0.1 2.0 5.0 25 OUTLET
S_1371828545 0.013 0.1 2.0 5.0 25 OUTLET
S_7298289263 0.013 0.1 2.0 5.0 25 OUTLET
S_1371828540 0.013 0.1 2.0 5.0 25 OUTLET
S_7298289227 0.013 0.1 2.0 5.0 25 OUTLET
S_1371828539 0.013 0.1 2.0 5.0 25 OUTLET
S_1371828531 0.013 0.1 2.0 5.0 25 OUTLET
S_13830106177 0.013 0.1 2.0 5.0 25 OUTLET
S_9900960144 0.013 0.1 2.0 5.0 25 OUTLET
S_11397402715 0.013 0.1 2.0 5.0 25 OUTLET
S_1371828533 0.013 0.1 2.0 5.0 25 OUTLET
S_7298289303 0.013 0.1 2.0 5.0 25 OUTLET
S_10084814543 0.013 0.1 2.0 5.0 25 OUTLET
S_7140718125 0.013 0.1 2.0 5.0 25 OUTLET
S_7140718121 0.013 0.1 2.0 5.0 25 OUTLET
S_1371828543 0.013 0.1 2.0 5.0 25 OUTLET
S_7298289304 0.013 0.1 2.0 5.0 25 OUTLET
S_10266837398 0.013 0.1 2.0 5.0 25 OUTLET
S_7140718123 0.013 0.1 2.0 5.0 25 OUTLET
S_7298289290 0.013 0.1 2.0 5.0 25 OUTLET
S_1511238410 0.013 0.1 2.0 5.0 25 OUTLET
S_1376905673 0.013 0.1 2.0 5.0 25 OUTLET
S_1376905667 0.013 0.1 2.0 5.0 25 OUTLET
S_1376905672 0.013 0.1 2.0 5.0 25 OUTLET
S_1376905671 0.013 0.1 2.0 5.0 25 OUTLET
S_7452712421 0.013 0.1 2.0 5.0 25 OUTLET
S_13655653225 0.013 0.1 2.0 5.0 25 OUTLET
S_1382528610 0.013 0.1 2.0 5.0 25 OUTLET
S_1384732339 0.013 0.1 2.0 5.0 25 OUTLET
S_9982048425 0.013 0.1 2.0 5.0 25 OUTLET
S_7465456846 0.013 0.1 2.0 5.0 25 OUTLET
S_11885832888 0.013 0.1 2.0 5.0 25 OUTLET
S_1384732709 0.013 0.1 2.0 5.0 25 OUTLET
S_11885832889 0.013 0.1 2.0 5.0 25 OUTLET
S_7465456828 0.013 0.1 2.0 5.0 25 OUTLET
S_1384732910 0.013 0.1 2.0 5.0 25 OUTLET
S_7465456843 0.013 0.1 2.0 5.0 25 OUTLET
S_9982048419 0.013 0.1 2.0 5.0 25 OUTLET
S_11409245945 0.013 0.1 2.0 5.0 25 OUTLET
S_1384733202 0.013 0.1 2.0 5.0 25 OUTLET
S_11397260844 0.013 0.1 2.0 5.0 25 OUTLET
S_1585741084 0.013 0.1 2.0 5.0 25 OUTLET
S_11006982239 0.013 0.1 2.0 5.0 25 OUTLET
S_1605954141 0.013 0.1 2.0 5.0 25 OUTLET
S_1439027926 0.013 0.1 2.0 5.0 25 OUTLET
S_1505269146 0.013 0.1 2.0 5.0 25 OUTLET
S_1443044904 0.013 0.1 2.0 5.0 25 OUTLET
S_1631443363 0.013 0.1 2.0 5.0 25 OUTLET
S_1443044792 0.013 0.1 2.0 5.0 25 OUTLET
S_11002846646 0.013 0.1 2.0 5.0 25 OUTLET
S_13130886315 0.013 0.1 2.0 5.0 25 OUTLET
S_9867253967 0.013 0.1 2.0 5.0 25 OUTLET
S_11002846647 0.013 0.1 2.0 5.0 25 OUTLET
S_1443044865 0.013 0.1 2.0 5.0 25 OUTLET
S_1443044896 0.013 0.1 2.0 5.0 25 OUTLET
S_7298289268 0.013 0.1 2.0 5.0 25 OUTLET
S_1443044900 0.013 0.1 2.0 5.0 25 OUTLET
S_1631443235 0.013 0.1 2.0 5.0 25 OUTLET
S_1457451930 0.013 0.1 2.0 5.0 25 OUTLET
S_1457451925 0.013 0.1 2.0 5.0 25 OUTLET
S_1598804288 0.013 0.1 2.0 5.0 25 OUTLET
S_5281839987 0.013 0.1 2.0 5.0 25 OUTLET
S_1470833636 0.013 0.1 2.0 5.0 25 OUTLET
S_1470833628 0.013 0.1 2.0 5.0 25 OUTLET
S_1470833622 0.013 0.1 2.0 5.0 25 OUTLET
S_1470833646 0.013 0.1 2.0 5.0 25 OUTLET
S_1470833630 0.013 0.1 2.0 5.0 25 OUTLET
S_1470833645 0.013 0.1 2.0 5.0 25 OUTLET
S_1470833629 0.013 0.1 2.0 5.0 25 OUTLET
S_10716532018 0.013 0.1 2.0 5.0 25 OUTLET
S_1470833639 0.013 0.1 2.0 5.0 25 OUTLET
S_1470833634 0.013 0.1 2.0 5.0 25 OUTLET
S_1470833650 0.013 0.1 2.0 5.0 25 OUTLET
S_6632636571 0.013 0.1 2.0 5.0 25 OUTLET
S_1470833643 0.013 0.1 2.0 5.0 25 OUTLET
S_11017633319 0.013 0.1 2.0 5.0 25 OUTLET
S_1492407658 0.013 0.1 2.0 5.0 25 OUTLET
S_11414136196 0.013 0.1 2.0 5.0 25 OUTLET
S_11182447927 0.013 0.1 2.0 5.0 25 OUTLET
S_1485730731 0.013 0.1 2.0 5.0 25 OUTLET
S_6180767894 0.013 0.1 2.0 5.0 25 OUTLET
S_1485730738 0.013 0.1 2.0 5.0 25 OUTLET
S_6142680814 0.013 0.1 2.0 5.0 25 OUTLET
S_1485730754 0.013 0.1 2.0 5.0 25 OUTLET
S_1485730751 0.013 0.1 2.0 5.0 25 OUTLET
S_1485730776 0.013 0.1 2.0 5.0 25 OUTLET
S_6142680813 0.013 0.1 2.0 5.0 25 OUTLET
S_1485730755 0.013 0.1 2.0 5.0 25 OUTLET
S_1485730774 0.013 0.1 2.0 5.0 25 OUTLET
S_1485730775 0.013 0.1 2.0 5.0 25 OUTLET
S_6142628592 0.013 0.1 2.0 5.0 25 OUTLET
S_1492407651 0.013 0.1 2.0 5.0 25 OUTLET
S_1492407663 0.013 0.1 2.0 5.0 25 OUTLET
S_1492407639 0.013 0.1 2.0 5.0 25 OUTLET
S_9839093177 0.013 0.1 2.0 5.0 25 OUTLET
S_9839093175 0.013 0.1 2.0 5.0 25 OUTLET
S_1492407640 0.013 0.1 2.0 5.0 25 OUTLET
S_10017481091 0.013 0.1 2.0 5.0 25 OUTLET
S_1634931733 0.013 0.1 2.0 5.0 25 OUTLET
S_1492407645 0.013 0.1 2.0 5.0 25 OUTLET
S_13041011660 0.013 0.1 2.0 5.0 25 OUTLET
S_2048245856 0.013 0.1 2.0 5.0 25 OUTLET
S_11184922059 0.013 0.1 2.0 5.0 25 OUTLET
S_1492407646 0.013 0.1 2.0 5.0 25 OUTLET
S_7466375684 0.013 0.1 2.0 5.0 25 OUTLET
S_11017641140 0.013 0.1 2.0 5.0 25 OUTLET
S_1492407652 0.013 0.1 2.0 5.0 25 OUTLET
S_1497326586 0.013 0.1 2.0 5.0 25 OUTLET
S_5281840005 0.013 0.1 2.0 5.0 25 OUTLET
S_10841617807 0.013 0.1 2.0 5.0 25 OUTLET
S_7298289308 0.013 0.1 2.0 5.0 25 OUTLET
S_1502865760 0.013 0.1 2.0 5.0 25 OUTLET
S_7101732724 0.013 0.1 2.0 5.0 25 OUTLET
S_1558993985 0.013 0.1 2.0 5.0 25 OUTLET
S_1502865776 0.013 0.1 2.0 5.0 25 OUTLET
S_1502865762 0.013 0.1 2.0 5.0 25 OUTLET
S_10209103447 0.013 0.1 2.0 5.0 25 OUTLET
S_7140718119 0.013 0.1 2.0 5.0 25 OUTLET
S_1852671167 0.013 0.1 2.0 5.0 25 OUTLET
S_1502865774 0.013 0.1 2.0 5.0 25 OUTLET
S_1558993906 0.013 0.1 2.0 5.0 25 OUTLET
S_1558994048 0.013 0.1 2.0 5.0 25 OUTLET
S_1505269133 0.013 0.1 2.0 5.0 25 OUTLET
S_1505269186 0.013 0.1 2.0 5.0 25 OUTLET
S_7101760810 0.013 0.1 2.0 5.0 25 OUTLET
S_1505269171 0.013 0.1 2.0 5.0 25 OUTLET
S_7298289243 0.013 0.1 2.0 5.0 25 OUTLET
S_7298289210 0.013 0.1 2.0 5.0 25 OUTLET
S_11028823357 0.013 0.1 2.0 5.0 25 OUTLET
S_1507064166 0.013 0.1 2.0 5.0 25 OUTLET
S_13655652829 0.013 0.1 2.0 5.0 25 OUTLET
S_1511238406 0.013 0.1 2.0 5.0 25 OUTLET
S_12999157124 0.013 0.1 2.0 5.0 25 OUTLET
S_9928561082 0.013 0.1 2.0 5.0 25 OUTLET
S_6901363516 0.013 0.1 2.0 5.0 25 OUTLET
S_4458722643 0.013 0.1 2.0 5.0 25 OUTLET
S_4458722689 0.013 0.1 2.0 5.0 25 OUTLET
S_11015173157 0.013 0.1 2.0 5.0 25 OUTLET
S_1514989656 0.013 0.1 2.0 5.0 25 OUTLET
S_7453315306 0.013 0.1 2.0 5.0 25 OUTLET
S_7453315718 0.013 0.1 2.0 5.0 25 OUTLET
S_7452673917 0.013 0.1 2.0 5.0 25 OUTLET
S_1514989685 0.013 0.1 2.0 5.0 25 OUTLET
S_9901111715 0.013 0.1 2.0 5.0 25 OUTLET
S_1558993988 0.013 0.1 2.0 5.0 25 OUTLET
S_1558993939 0.013 0.1 2.0 5.0 25 OUTLET
S_7298289310 0.013 0.1 2.0 5.0 25 OUTLET
S_1558993929 0.013 0.1 2.0 5.0 25 OUTLET
S_1558994010 0.013 0.1 2.0 5.0 25 OUTLET
S_11397404812 0.013 0.1 2.0 5.0 25 OUTLET
S_1558993961 0.013 0.1 2.0 5.0 25 OUTLET
S_1558993933 0.013 0.1 2.0 5.0 25 OUTLET
S_7298289189 0.013 0.1 2.0 5.0 25 OUTLET
S_12244701790 0.013 0.1 2.0 5.0 25 OUTLET
S_11397404821 0.013 0.1 2.0 5.0 25 OUTLET
S_10209123011 0.013 0.1 2.0 5.0 25 OUTLET
S_6142293179 0.013 0.1 2.0 5.0 25 OUTLET
S_1558993942 0.013 0.1 2.0 5.0 25 OUTLET
S_12196464672 0.013 0.1 2.0 5.0 25 OUTLET
S_11397593732 0.013 0.1 2.0 5.0 25 OUTLET
S_7175603121 0.013 0.1 2.0 5.0 25 OUTLET
S_10991915618 0.013 0.1 2.0 5.0 25 OUTLET
S_1558993960 0.013 0.1 2.0 5.0 25 OUTLET
S_12151901678 0.013 0.1 2.0 5.0 25 OUTLET
S_7175594106 0.013 0.1 2.0 5.0 25 OUTLET
S_7175594101 0.013 0.1 2.0 5.0 25 OUTLET
S_11045649363 0.013 0.1 2.0 5.0 25 OUTLET
S_11045649364 0.013 0.1 2.0 5.0 25 OUTLET
S_7101732727 0.013 0.1 2.0 5.0 25 OUTLET
S_7101732710 0.013 0.1 2.0 5.0 25 OUTLET
S_1558993992 0.013 0.1 2.0 5.0 25 OUTLET
S_7101732723 0.013 0.1 2.0 5.0 25 OUTLET
S_1558994009 0.013 0.1 2.0 5.0 25 OUTLET
S_1558994055 0.013 0.1 2.0 5.0 25 OUTLET
S_11397404814 0.013 0.1 2.0 5.0 25 OUTLET
S_1558994024 0.013 0.1 2.0 5.0 25 OUTLET
S_10978638722 0.013 0.1 2.0 5.0 25 OUTLET
S_1558994025 0.013 0.1 2.0 5.0 25 OUTLET
S_1558994047 0.013 0.1 2.0 5.0 25 OUTLET
S_10978640856 0.013 0.1 2.0 5.0 25 OUTLET
S_7291167618 0.013 0.1 2.0 5.0 25 OUTLET
S_1589223971 0.013 0.1 2.0 5.0 25 OUTLET
S_1590229329 0.013 0.1 2.0 5.0 25 OUTLET
S_1590229523 0.013 0.1 2.0 5.0 25 OUTLET
S_1590229591 0.013 0.1 2.0 5.0 25 OUTLET
S_1605954172 0.013 0.1 2.0 5.0 25 OUTLET
S_1605954220 0.013 0.1 2.0 5.0 25 OUTLET
S_1605954168 0.013 0.1 2.0 5.0 25 OUTLET
S_1605954178 0.013 0.1 2.0 5.0 25 OUTLET
S_1605954206 0.013 0.1 2.0 5.0 25 OUTLET
S_11375356861 0.013 0.1 2.0 5.0 25 OUTLET
S_1605954179 0.013 0.1 2.0 5.0 25 OUTLET
S_7466456019 0.013 0.1 2.0 5.0 25 OUTLET
S_1605954215 0.013 0.1 2.0 5.0 25 OUTLET
S_11169596337 0.013 0.1 2.0 5.0 25 OUTLET
S_7291147477 0.013 0.1 2.0 5.0 25 OUTLET
S_1633904682 0.013 0.1 2.0 5.0 25 OUTLET
S_1633904785 0.013 0.1 2.0 5.0 25 OUTLET
S_7465449566 0.013 0.1 2.0 5.0 25 OUTLET
S_1633904727 0.013 0.1 2.0 5.0 25 OUTLET
S_13152307780 0.013 0.1 2.0 5.0 25 OUTLET
S_10232936572 0.013 0.1 2.0 5.0 25 OUTLET
S_1633904764 0.013 0.1 2.0 5.0 25 OUTLET
S_7465449561 0.013 0.1 2.0 5.0 25 OUTLET
S_7465449565 0.013 0.1 2.0 5.0 25 OUTLET
S_7465449562 0.013 0.1 2.0 5.0 25 OUTLET
S_7465449557 0.013 0.1 2.0 5.0 25 OUTLET
S_13152322515 0.013 0.1 2.0 5.0 25 OUTLET
S_1633904819 0.013 0.1 2.0 5.0 25 OUTLET
S_7465393573 0.013 0.1 2.0 5.0 25 OUTLET
S_7263113742 0.013 0.1 2.0 5.0 25 OUTLET
S_11002858225 0.013 0.1 2.0 5.0 25 OUTLET
S_1634931522 0.013 0.1 2.0 5.0 25 OUTLET
S_1634931847 0.013 0.1 2.0 5.0 25 OUTLET
S_1634931610 0.013 0.1 2.0 5.0 25 OUTLET
S_7298289286 0.013 0.1 2.0 5.0 25 OUTLET
S_10044811669 0.013 0.1 2.0 5.0 25 OUTLET
S_1634931831 0.013 0.1 2.0 5.0 25 OUTLET
S_11003036767 0.013 0.1 2.0 5.0 25 OUTLET
S_1634931868 0.013 0.1 2.0 5.0 25 OUTLET
S_12393621582 0.013 0.1 2.0 5.0 25 OUTLET
S_5281842568 0.013 0.1 2.0 5.0 25 OUTLET
S_5281842566 0.013 0.1 2.0 5.0 25 OUTLET
S_1634963569 0.013 0.1 2.0 5.0 25 OUTLET
S_1697942242 0.013 0.1 2.0 5.0 25 OUTLET
S_5281842584 0.013 0.1 2.0 5.0 25 OUTLET
S_5281842576 0.013 0.1 2.0 5.0 25 OUTLET
S_1701004555 0.013 0.1 2.0 5.0 25 OUTLET
S_13098366974 0.013 0.1 2.0 5.0 25 OUTLET
S_1718788929 0.013 0.1 2.0 5.0 25 OUTLET
S_10277100421 0.013 0.1 2.0 5.0 25 OUTLET
S_1718789067 0.013 0.1 2.0 5.0 25 OUTLET
S_1718788930 0.013 0.1 2.0 5.0 25 OUTLET
S_3649031394 0.013 0.1 2.0 5.0 25 OUTLET
S_1759857345 0.013 0.1 2.0 5.0 25 OUTLET
S_2987147432 0.013 0.1 2.0 5.0 25 OUTLET
S_1770465751 0.013 0.1 2.0 5.0 25 OUTLET
S_1770465753 0.013 0.1 2.0 5.0 25 OUTLET
S_7298295682 0.013 0.1 2.0 5.0 25 OUTLET
S_13041011663 0.013 0.1 2.0 5.0 25 OUTLET
S_2048245859 0.013 0.1 2.0 5.0 25 OUTLET
S_13041011665 0.013 0.1 2.0 5.0 25 OUTLET
S_11002607129 0.013 0.1 2.0 5.0 25 OUTLET
S_11056570933 0.013 0.1 2.0 5.0 25 OUTLET
S_2376774391 0.013 0.1 2.0 5.0 25 OUTLET
S_11434512223 0.013 0.1 2.0 5.0 25 OUTLET
S_2225133167 0.013 0.1 2.0 5.0 25 OUTLET
S_2225133173 0.013 0.1 2.0 5.0 25 OUTLET
S_2225133175 0.013 0.1 2.0 5.0 25 OUTLET
S_9700074499 0.013 0.1 2.0 5.0 25 OUTLET
S_2225133195 0.013 0.1 2.0 5.0 25 OUTLET
S_2225133212 0.013 0.1 2.0 5.0 25 OUTLET
S_7147088714 0.013 0.1 2.0 5.0 25 OUTLET
S_2225133199 0.013 0.1 2.0 5.0 25 OUTLET
S_12698276487 0.013 0.1 2.0 5.0 25 OUTLET
S_11021676037 0.013 0.1 2.0 5.0 25 OUTLET
S_13645830539 0.013 0.1 2.0 5.0 25 OUTLET
S_7453315614 0.013 0.1 2.0 5.0 25 OUTLET
S_2225133295 0.013 0.1 2.0 5.0 25 OUTLET
S_2225133273 0.013 0.1 2.0 5.0 25 OUTLET
S_11021755952 0.013 0.1 2.0 5.0 25 OUTLET
S_7453315392 0.013 0.1 2.0 5.0 25 OUTLET
S_2225133309 0.013 0.1 2.0 5.0 25 OUTLET
S_2225133523 0.013 0.1 2.0 5.0 25 OUTLET
S_6753110523 0.013 0.1 2.0 5.0 25 OUTLET
S_6753110522 0.013 0.1 2.0 5.0 25 OUTLET
S_2225133530 0.013 0.1 2.0 5.0 25 OUTLET
S_6753110521 0.013 0.1 2.0 5.0 25 OUTLET
S_7263139539 0.013 0.1 2.0 5.0 25 OUTLET
S_2225133551 0.013 0.1 2.0 5.0 25 OUTLET
S_11438298620 0.013 0.1 2.0 5.0 25 OUTLET
S_7465456797 0.013 0.1 2.0 5.0 25 OUTLET
S_9982048431 0.013 0.1 2.0 5.0 25 OUTLET
S_6748996026 0.013 0.1 2.0 5.0 25 OUTLET
S_11846741326 0.013 0.1 2.0 5.0 25 OUTLET
S_7453315632 0.013 0.1 2.0 5.0 25 OUTLET
S_2376774417 0.013 0.1 2.0 5.0 25 OUTLET
S_13720252591 0.013 0.1 2.0 5.0 25 OUTLET
S_12141933090 0.013 0.1 2.0 5.0 25 OUTLET
S_13656305932 0.013 0.1 2.0 5.0 25 OUTLET
S_2508149195 0.013 0.1 2.0 5.0 25 OUTLET
S_2578488068 0.013 0.1 2.0 5.0 25 OUTLET
S_13607317196 0.013 0.1 2.0 5.0 25 OUTLET
S_13607317191 0.013 0.1 2.0 5.0 25 OUTLET
S_2578488069 0.013 0.1 2.0 5.0 25 OUTLET
S_2623258606 0.013 0.1 2.0 5.0 25 OUTLET
S_2987147429 0.013 0.1 2.0 5.0 25 OUTLET
S_2987148124 0.013 0.1 2.0 5.0 25 OUTLET
S_7465614187 0.013 0.1 2.0 5.0 25 OUTLET
S_2987149133 0.013 0.1 2.0 5.0 25 OUTLET
S_2987148123 0.013 0.1 2.0 5.0 25 OUTLET
S_11885834678 0.013 0.1 2.0 5.0 25 OUTLET
S_7465614189 0.013 0.1 2.0 5.0 25 OUTLET
S_3300742565 0.013 0.1 2.0 5.0 25 OUTLET
S_3324730976 0.013 0.1 2.0 5.0 25 OUTLET
S_3528034343 0.013 0.1 2.0 5.0 25 OUTLET
S_6748996035 0.013 0.1 2.0 5.0 25 OUTLET
S_9700303070 0.013 0.1 2.0 5.0 25 OUTLET
S_3545987056 0.013 0.1 2.0 5.0 25 OUTLET
S_11003046329 0.013 0.1 2.0 5.0 25 OUTLET
S_11003034318 0.013 0.1 2.0 5.0 25 OUTLET
S_3649025375 0.013 0.1 2.0 5.0 25 OUTLET
S_3649025381 0.013 0.1 2.0 5.0 25 OUTLET
S_13655652480 0.013 0.1 2.0 5.0 25 OUTLET
S_3649031405 0.013 0.1 2.0 5.0 25 OUTLET
S_7147090917 0.013 0.1 2.0 5.0 25 OUTLET
S_13715446989 0.013 0.1 2.0 5.0 25 OUTLET
S_13064733100 0.013 0.1 2.0 5.0 25 OUTLET
S_4458722522 0.013 0.1 2.0 5.0 25 OUTLET
S_4458722721 0.013 0.1 2.0 5.0 25 OUTLET
S_4458722823 0.013 0.1 2.0 5.0 25 OUTLET
S_4458722559 0.013 0.1 2.0 5.0 25 OUTLET
S_4458722553 0.013 0.1 2.0 5.0 25 OUTLET
S_7452673912 0.013 0.1 2.0 5.0 25 OUTLET
S_7453315599 0.013 0.1 2.0 5.0 25 OUTLET
S_13041584929 0.013 0.1 2.0 5.0 25 OUTLET
S_7138383902 0.013 0.1 2.0 5.0 25 OUTLET
S_11419446866 0.013 0.1 2.0 5.0 25 OUTLET
S_11015153616 0.013 0.1 2.0 5.0 25 OUTLET
S_4458722622 0.013 0.1 2.0 5.0 25 OUTLET
S_4458722731 0.013 0.1 2.0 5.0 25 OUTLET
S_11007663483 0.013 0.1 2.0 5.0 25 OUTLET
S_4458722675 0.013 0.1 2.0 5.0 25 OUTLET
S_4458722626 0.013 0.1 2.0 5.0 25 OUTLET
S_7453315580 0.013 0.1 2.0 5.0 25 OUTLET
S_7453315717 0.013 0.1 2.0 5.0 25 OUTLET
S_7453315577 0.013 0.1 2.0 5.0 25 OUTLET
S_12690216001 0.013 0.1 2.0 5.0 25 OUTLET
S_4458722633 0.013 0.1 2.0 5.0 25 OUTLET
S_10593463232 0.013 0.1 2.0 5.0 25 OUTLET
S_7263140430 0.013 0.1 2.0 5.0 25 OUTLET
S_7138383899 0.013 0.1 2.0 5.0 25 OUTLET
S_11007663477 0.013 0.1 2.0 5.0 25 OUTLET
S_11812221683 0.013 0.1 2.0 5.0 25 OUTLET
S_4458722815 0.013 0.1 2.0 5.0 25 OUTLET
S_4458722824 0.013 0.1 2.0 5.0 25 OUTLET
S_6141750279 0.013 0.1 2.0 5.0 25 OUTLET
S_4730103806 0.013 0.1 2.0 5.0 25 OUTLET
S_4730103816 0.013 0.1 2.0 5.0 25 OUTLET
S_9866129294 0.013 0.1 2.0 5.0 25 OUTLET
S_5281691576 0.013 0.1 2.0 5.0 25 OUTLET
S_5281691577 0.013 0.1 2.0 5.0 25 OUTLET
S_5281842544 0.013 0.1 2.0 5.0 25 OUTLET
S_5281727083 0.013 0.1 2.0 5.0 25 OUTLET
S_7465614252 0.013 0.1 2.0 5.0 25 OUTLET
S_5281839990 0.013 0.1 2.0 5.0 25 OUTLET
S_5281840000 0.013 0.1 2.0 5.0 25 OUTLET
S_6902150001 0.013 0.1 2.0 5.0 25 OUTLET
S_11197334457 0.013 0.1 2.0 5.0 25 OUTLET
S_5281840017 0.013 0.1 2.0 5.0 25 OUTLET
S_5281842521 0.013 0.1 2.0 5.0 25 OUTLET
S_6168910216 0.013 0.1 2.0 5.0 25 OUTLET
S_5281842523 0.013 0.1 2.0 5.0 25 OUTLET
S_13656305937 0.013 0.1 2.0 5.0 25 OUTLET
S_5283547058 0.013 0.1 2.0 5.0 25 OUTLET
S_13667500182 0.013 0.1 2.0 5.0 25 OUTLET
S_5281842528 0.013 0.1 2.0 5.0 25 OUTLET
S_5281842531 0.013 0.1 2.0 5.0 25 OUTLET
S_5283343737 0.013 0.1 2.0 5.0 25 OUTLET
S_13652990523 0.013 0.1 2.0 5.0 25 OUTLET
S_5281842532 0.013 0.1 2.0 5.0 25 OUTLET
S_5281842534 0.013 0.1 2.0 5.0 25 OUTLET
S_5281842537 0.013 0.1 2.0 5.0 25 OUTLET
S_5281842536 0.013 0.1 2.0 5.0 25 OUTLET
S_5281842538 0.013 0.1 2.0 5.0 25 OUTLET
S_10991832380 0.013 0.1 2.0 5.0 25 OUTLET
S_5281842557 0.013 0.1 2.0 5.0 25 OUTLET
S_5281842559 0.013 0.1 2.0 5.0 25 OUTLET
S_5281842560 0.013 0.1 2.0 5.0 25 OUTLET
S_5281842561 0.013 0.1 2.0 5.0 25 OUTLET
S_5281842563 0.013 0.1 2.0 5.0 25 OUTLET
S_5281842564 0.013 0.1 2.0 5.0 25 OUTLET
S_5281842565 0.013 0.1 2.0 5.0 25 OUTLET
S_7101760800 0.013 0.1 2.0 5.0 25 OUTLET
S_5281842569 0.013 0.1 2.0 5.0 25 OUTLET
S_6911835051 0.013 0.1 2.0 5.0 25 OUTLET
S_5281842571 0.013 0.1 2.0 5.0 25 OUTLET
S_6911835052 0.013 0.1 2.0 5.0 25 OUTLET
S_5281842573 0.013 0.1 2.0 5.0 25 OUTLET
S_6911835053 0.013 0.1 2.0 5.0 25 OUTLET
S_5281842574 0.013 0.1 2.0 5.0 25 OUTLET
S_5281842575 0.013 0.1 2.0 5.0 25 OUTLET
S_6911835054 0.013 0.1 2.0 5.0 25 OUTLET
S_5283343736 0.013 0.1 2.0 5.0 25 OUTLET
S_11395872426 0.013 0.1 2.0 5.0 25 OUTLET
S_5283343744 0.013 0.1 2.0 5.0 25 OUTLET
S_11015173154 0.013 0.1 2.0 5.0 25 OUTLET
S_11436636897 0.013 0.1 2.0 5.0 25 OUTLET
S_5283343748 0.013 0.1 2.0 5.0 25 OUTLET
S_13127664189 0.013 0.1 2.0 5.0 25 OUTLET
S_5283343750 0.013 0.1 2.0 5.0 25 OUTLET
S_5283343751 0.013 0.1 2.0 5.0 25 OUTLET
S_5283343753 0.013 0.1 2.0 5.0 25 OUTLET
S_13667499252 0.013 0.1 2.0 5.0 25 OUTLET
S_10687414876 0.013 0.1 2.0 5.0 25 OUTLET
S_7147063884 0.013 0.1 2.0 5.0 25 OUTLET
S_7334211452 0.013 0.1 2.0 5.0 25 OUTLET
S_5928041457 0.013 0.1 2.0 5.0 25 OUTLET
S_10017481076 0.013 0.1 2.0 5.0 25 OUTLET
S_7466386861 0.013 0.1 2.0 5.0 25 OUTLET
S_12155167315 0.013 0.1 2.0 5.0 25 OUTLET
S_10038712736 0.013 0.1 2.0 5.0 25 OUTLET
S_5931305386 0.013 0.1 2.0 5.0 25 OUTLET
S_12180012795 0.013 0.1 2.0 5.0 25 OUTLET
S_6043189063 0.013 0.1 2.0 5.0 25 OUTLET
S_12196521966 0.013 0.1 2.0 5.0 25 OUTLET
S_6137413125 0.013 0.1 2.0 5.0 25 OUTLET
S_11363958154 0.013 0.1 2.0 5.0 25 OUTLET
S_11397801173 0.013 0.1 2.0 5.0 25 OUTLET
S_7291167515 0.013 0.1 2.0 5.0 25 OUTLET
S_6142628590 0.013 0.1 2.0 5.0 25 OUTLET
S_6168910212 0.013 0.1 2.0 5.0 25 OUTLET
S_7452673924 0.013 0.1 2.0 5.0 25 OUTLET
S_6168910213 0.013 0.1 2.0 5.0 25 OUTLET
S_12185851902 0.013 0.1 2.0 5.0 25 OUTLET
S_11021479822 0.013 0.1 2.0 5.0 25 OUTLET
S_6177428349 0.013 0.1 2.0 5.0 25 OUTLET
S_9899714417 0.013 0.1 2.0 5.0 25 OUTLET
S_11021465194 0.013 0.1 2.0 5.0 25 OUTLET
S_11419448879 0.013 0.1 2.0 5.0 25 OUTLET
S_10185513621 0.013 0.1 2.0 5.0 25 OUTLET
S_11015706619 0.013 0.1 2.0 5.0 25 OUTLET
S_13130422494 0.013 0.1 2.0 5.0 25 OUTLET
S_6194091030 0.013 0.1 2.0 5.0 25 OUTLET
S_7452692540 0.013 0.1 2.0 5.0 25 OUTLET
S_7452692538 0.013 0.1 2.0 5.0 25 OUTLET
S_6194238913 0.013 0.1 2.0 5.0 25 OUTLET
S_13130332397 0.013 0.1 2.0 5.0 25 OUTLET
S_6194238914 0.013 0.1 2.0 5.0 25 OUTLET
S_13127790412 0.013 0.1 2.0 5.0 25 OUTLET
S_7147090948 0.013 0.1 2.0 5.0 25 OUTLET
S_6617328935 0.013 0.1 2.0 5.0 25 OUTLET
S_12635196524 0.013 0.1 2.0 5.0 25 OUTLET
S_13076932658 0.013 0.1 2.0 5.0 25 OUTLET
S_6617328955 0.013 0.1 2.0 5.0 25 OUTLET
S_11812221673 0.013 0.1 2.0 5.0 25 OUTLET
S_11007664986 0.013 0.1 2.0 5.0 25 OUTLET
S_6617329698 0.013 0.1 2.0 5.0 25 OUTLET
S_11009607007 0.013 0.1 2.0 5.0 25 OUTLET
S_6617329699 0.013 0.1 2.0 5.0 25 OUTLET
S_6617329732 0.013 0.1 2.0 5.0 25 OUTLET
S_11812221689 0.013 0.1 2.0 5.0 25 OUTLET
S_11812221684 0.013 0.1 2.0 5.0 25 OUTLET
S_6620856859 0.013 0.1 2.0 5.0 25 OUTLET
S_11812221682 0.013 0.1 2.0 5.0 25 OUTLET
S_10221065294 0.013 0.1 2.0 5.0 25 OUTLET
S_6632652201 0.013 0.1 2.0 5.0 25 OUTLET
S_10076263537 0.013 0.1 2.0 5.0 25 OUTLET
S_6632652240 0.013 0.1 2.0 5.0 25 OUTLET
S_11041656612 0.013 0.1 2.0 5.0 25 OUTLET
S_6746682761 0.013 0.1 2.0 5.0 25 OUTLET
S_6894486324 0.013 0.1 2.0 5.0 25 OUTLET
S_6746708992 0.013 0.1 2.0 5.0 25 OUTLET
S_9700303071 0.013 0.1 2.0 5.0 25 OUTLET
S_6748996039 0.013 0.1 2.0 5.0 25 OUTLET
S_7465456856 0.013 0.1 2.0 5.0 25 OUTLET
S_6748996042 0.013 0.1 2.0 5.0 25 OUTLET
S_6748996040 0.013 0.1 2.0 5.0 25 OUTLET
S_7465456851 0.013 0.1 2.0 5.0 25 OUTLET
S_11409263307 0.013 0.1 2.0 5.0 25 OUTLET
S_6748996044 0.013 0.1 2.0 5.0 25 OUTLET
S_6748996043 0.013 0.1 2.0 5.0 25 OUTLET
S_6748996075 0.013 0.1 2.0 5.0 25 OUTLET
S_6748996045 0.013 0.1 2.0 5.0 25 OUTLET
S_6748996047 0.013 0.1 2.0 5.0 25 OUTLET
S_6748996049 0.013 0.1 2.0 5.0 25 OUTLET
S_11944239451 0.013 0.1 2.0 5.0 25 OUTLET
S_7465614139 0.013 0.1 2.0 5.0 25 OUTLET
S_6749434106 0.013 0.1 2.0 5.0 25 OUTLET
S_12185986689 0.013 0.1 2.0 5.0 25 OUTLET
S_7452692536 0.013 0.1 2.0 5.0 25 OUTLET
S_11438167760 0.013 0.1 2.0 5.0 25 OUTLET
S_6755551374 0.013 0.1 2.0 5.0 25 OUTLET
S_6755551377 0.013 0.1 2.0 5.0 25 OUTLET
S_11409293349 0.013 0.1 2.0 5.0 25 OUTLET
S_10687741979 0.013 0.1 2.0 5.0 25 OUTLET
S_6755551379 0.013 0.1 2.0 5.0 25 OUTLET
S_11409322630 0.013 0.1 2.0 5.0 25 OUTLET
S_11409346234 0.013 0.1 2.0 5.0 25 OUTLET
S_6758593404 0.013 0.1 2.0 5.0 25 OUTLET
S_6884970118 0.013 0.1 2.0 5.0 25 OUTLET
S_6884970119 0.013 0.1 2.0 5.0 25 OUTLET
S_11197334456 0.013 0.1 2.0 5.0 25 OUTLET
S_8935990994 0.013 0.1 2.0 5.0 25 OUTLET
S_6894243326 0.013 0.1 2.0 5.0 25 OUTLET
S_6894243328 0.013 0.1 2.0 5.0 25 OUTLET
S_6894486323 0.013 0.1 2.0 5.0 25 OUTLET
S_6901276162 0.013 0.1 2.0 5.0 25 OUTLET
S_11885820562 0.013 0.1 2.0 5.0 25 OUTLET
S_6901363518 0.013 0.1 2.0 5.0 25 OUTLET
S_6901363517 0.013 0.1 2.0 5.0 25 OUTLET
S_6904168220 0.013 0.1 2.0 5.0 25 OUTLET
S_6904168225 0.013 0.1 2.0 5.0 25 OUTLET
S_7453315400 0.013 0.1 2.0 5.0 25 OUTLET
S_7097657283 0.013 0.1 2.0 5.0 25 OUTLET
S_7465393495 0.013 0.1 2.0 5.0 25 OUTLET
S_11027804587 0.013 0.1 2.0 5.0 25 OUTLET
S_7101732726 0.013 0.1 2.0 5.0 25 OUTLET
S_7101732730 0.013 0.1 2.0 5.0 25 OUTLET
S_7101732731 0.013 0.1 2.0 5.0 25 OUTLET
S_7298289306 0.013 0.1 2.0 5.0 25 OUTLET
S_7101732735 0.013 0.1 2.0 5.0 25 OUTLET
S_7101760804 0.013 0.1 2.0 5.0 25 OUTLET
S_14066684771 0.013 0.1 2.0 5.0 25 OUTLET
S_14066684791 0.013 0.1 2.0 5.0 25 OUTLET
S_7101760812 0.013 0.1 2.0 5.0 25 OUTLET
S_7101760813 0.013 0.1 2.0 5.0 25 OUTLET
S_7101760816 0.013 0.1 2.0 5.0 25 OUTLET
S_10038722876 0.013 0.1 2.0 5.0 25 OUTLET
S_7121386231 0.013 0.1 2.0 5.0 25 OUTLET
S_10719511590 0.013 0.1 2.0 5.0 25 OUTLET
S_7138383883 0.013 0.1 2.0 5.0 25 OUTLET
S_7138383898 0.013 0.1 2.0 5.0 25 OUTLET
S_7453315631 0.013 0.1 2.0 5.0 25 OUTLET
S_7138383900 0.013 0.1 2.0 5.0 25 OUTLET
S_7138383903 0.013 0.1 2.0 5.0 25 OUTLET
S_7138383906 0.013 0.1 2.0 5.0 25 OUTLET
S_7465614223 0.013 0.1 2.0 5.0 25 OUTLET
S_7138383911 0.013 0.1 2.0 5.0 25 OUTLET
S_13149044768 0.013 0.1 2.0 5.0 25 OUTLET
S_7138383912 0.013 0.1 2.0 5.0 25 OUTLET
S_7140718117 0.013 0.1 2.0 5.0 25 OUTLET
S_7298289230 0.013 0.1 2.0 5.0 25 OUTLET
S_7140718126 0.013 0.1 2.0 5.0 25 OUTLET
S_7140718128 0.013 0.1 2.0 5.0 25 OUTLET
S_7140718132 0.013 0.1 2.0 5.0 25 OUTLET
S_11397421981 0.013 0.1 2.0 5.0 25 OUTLET
S_7147042927 0.013 0.1 2.0 5.0 25 OUTLET
S_7147088707 0.013 0.1 2.0 5.0 25 OUTLET
S_7147090938 0.013 0.1 2.0 5.0 25 OUTLET
S_7147090939 0.013 0.1 2.0 5.0 25 OUTLET
S_7453315650 0.013 0.1 2.0 5.0 25 OUTLET
S_7453315651 0.013 0.1 2.0 5.0 25 OUTLET
S_7175594108 0.013 0.1 2.0 5.0 25 OUTLET
S_7291147464 0.013 0.1 2.0 5.0 25 OUTLET
S_11397632762 0.013 0.1 2.0 5.0 25 OUTLET
S_7175614341 0.013 0.1 2.0 5.0 25 OUTLET
S_7175614342 0.013 0.1 2.0 5.0 25 OUTLET
S_11397591498 0.013 0.1 2.0 5.0 25 OUTLET
S_7187815406 0.013 0.1 2.0 5.0 25 OUTLET
S_7298289291 0.013 0.1 2.0 5.0 25 OUTLET
S_10222690300 0.013 0.1 2.0 5.0 25 OUTLET
S_7261406107 0.013 0.1 2.0 5.0 25 OUTLET
S_7263113741 0.013 0.1 2.0 5.0 25 OUTLET
S_7465393579 0.013 0.1 2.0 5.0 25 OUTLET
S_7263139538 0.013 0.1 2.0 5.0 25 OUTLET
S_7452673901 0.013 0.1 2.0 5.0 25 OUTLET
S_7452673906 0.013 0.1 2.0 5.0 25 OUTLET
S_7263140433 0.013 0.1 2.0 5.0 25 OUTLET
S_7452673908 0.013 0.1 2.0 5.0 25 OUTLET
S_7291147457 0.013 0.1 2.0 5.0 25 OUTLET
S_11045649359 0.013 0.1 2.0 5.0 25 OUTLET
S_7291147465 0.013 0.1 2.0 5.0 25 OUTLET
S_7291147483 0.013 0.1 2.0 5.0 25 OUTLET
S_11021454465 0.013 0.1 2.0 5.0 25 OUTLET
S_11306557823 0.013 0.1 2.0 5.0 25 OUTLET
S_7291167499 0.013 0.1 2.0 5.0 25 OUTLET
S_7291167500 0.013 0.1 2.0 5.0 25 OUTLET
S_7291167504 0.013 0.1 2.0 5.0 25 OUTLET
S_11397591500 0.013 0.1 2.0 5.0 25 OUTLET
S_7291167511 0.013 0.1 2.0 5.0 25 OUTLET
S_11176392352 0.013 0.1 2.0 5.0 25 OUTLET
S_7291167520 0.013 0.1 2.0 5.0 25 OUTLET
S_11045649360 0.013 0.1 2.0 5.0 25 OUTLET
S_10991796882 0.013 0.1 2.0 5.0 25 OUTLET
S_7291167617 0.013 0.1 2.0 5.0 25 OUTLET
S_7291167619 0.013 0.1 2.0 5.0 25 OUTLET
S_7298268882 0.013 0.1 2.0 5.0 25 OUTLET
S_7298289193 0.013 0.1 2.0 5.0 25 OUTLET
S_11397486839 0.013 0.1 2.0 5.0 25 OUTLET
S_7298289198 0.013 0.1 2.0 5.0 25 OUTLET
S_7298289212 0.013 0.1 2.0 5.0 25 OUTLET
S_7298289223 0.013 0.1 2.0 5.0 25 OUTLET
S_7298289226 0.013 0.1 2.0 5.0 25 OUTLET
S_13097684026 0.013 0.1 2.0 5.0 25 OUTLET
S_7298289241 0.013 0.1 2.0 5.0 25 OUTLET
S_7298289246 0.013 0.1 2.0 5.0 25 OUTLET
S_7298289248 0.013 0.1 2.0 5.0 25 OUTLET
S_7298289316 0.013 0.1 2.0 5.0 25 OUTLET
S_14066685083 0.013 0.1 2.0 5.0 25 OUTLET
S_7298289269 0.013 0.1 2.0 5.0 25 OUTLET
S_7298289295 0.013 0.1 2.0 5.0 25 OUTLET
S_7298289292 0.013 0.1 2.0 5.0 25 OUTLET
S_7298289293 0.013 0.1 2.0 5.0 25 OUTLET
S_7298289294 0.013 0.1 2.0 5.0 25 OUTLET
S_11802465263 0.013 0.1 2.0 5.0 25 OUTLET
S_7298289296 0.013 0.1 2.0 5.0 25 OUTLET
S_13830106205 0.013 0.1 2.0 5.0 25 OUTLET
S_7298289307 0.013 0.1 2.0 5.0 25 OUTLET
S_7298289309 0.013 0.1 2.0 5.0 25 OUTLET
S_7298289314 0.013 0.1 2.0 5.0 25 OUTLET
S_10284858574 0.013 0.1 2.0 5.0 25 OUTLET
S_7298295674 0.013 0.1 2.0 5.0 25 OUTLET
S_11025384531 0.013 0.1 2.0 5.0 25 OUTLET
S_13535853200 0.013 0.1 2.0 5.0 25 OUTLET
S_9866129292 0.013 0.1 2.0 5.0 25 OUTLET
S_7298295675 0.013 0.1 2.0 5.0 25 OUTLET
S_10168889545 0.013 0.1 2.0 5.0 25 OUTLET
S_7298295681 0.013 0.1 2.0 5.0 25 OUTLET
S_7452673897 0.013 0.1 2.0 5.0 25 OUTLET
S_10991375325 0.013 0.1 2.0 5.0 25 OUTLET
S_7452673898 0.013 0.1 2.0 5.0 25 OUTLET
S_7452673899 0.013 0.1 2.0 5.0 25 OUTLET
S_7452673900 0.013 0.1 2.0 5.0 25 OUTLET
S_7452673902 0.013 0.1 2.0 5.0 25 OUTLET
S_7452673907 0.013 0.1 2.0 5.0 25 OUTLET
S_11021488560 0.013 0.1 2.0 5.0 25 OUTLET
S_7452673914 0.013 0.1 2.0 5.0 25 OUTLET
S_7452673915 0.013 0.1 2.0 5.0 25 OUTLET
S_7453315600 0.013 0.1 2.0 5.0 25 OUTLET
S_11175924867 0.013 0.1 2.0 5.0 25 OUTLET
S_7452673916 0.013 0.1 2.0 5.0 25 OUTLET
S_11021648177 0.013 0.1 2.0 5.0 25 OUTLET
S_7452673920 0.013 0.1 2.0 5.0 25 OUTLET
S_7452673921 0.013 0.1 2.0 5.0 25 OUTLET
S_7453315301 0.013 0.1 2.0 5.0 25 OUTLET
S_11015778368 0.013 0.1 2.0 5.0 25 OUTLET
S_7452692537 0.013 0.1 2.0 5.0 25 OUTLET
S_7452692541 0.013 0.1 2.0 5.0 25 OUTLET
S_9700074501 0.013 0.1 2.0 5.0 25 OUTLET
S_11015166119 0.013 0.1 2.0 5.0 25 OUTLET
S_7453315636 0.013 0.1 2.0 5.0 25 OUTLET
S_12697947081 0.013 0.1 2.0 5.0 25 OUTLET
S_7452712420 0.013 0.1 2.0 5.0 25 OUTLET
S_9990058602 0.013 0.1 2.0 5.0 25 OUTLET
S_9700074486 0.013 0.1 2.0 5.0 25 OUTLET
S_7453315302 0.013 0.1 2.0 5.0 25 OUTLET
S_7453315305 0.013 0.1 2.0 5.0 25 OUTLET
S_7453315307 0.013 0.1 2.0 5.0 25 OUTLET
S_7453315313 0.013 0.1 2.0 5.0 25 OUTLET
S_7453315387 0.013 0.1 2.0 5.0 25 OUTLET
S_7453315388 0.013 0.1 2.0 5.0 25 OUTLET
S_7453315391 0.013 0.1 2.0 5.0 25 OUTLET
S_7453315393 0.013 0.1 2.0 5.0 25 OUTLET
S_7453315399 0.013 0.1 2.0 5.0 25 OUTLET
S_7453315401 0.013 0.1 2.0 5.0 25 OUTLET
S_7453315432 0.013 0.1 2.0 5.0 25 OUTLET
S_7453315581 0.013 0.1 2.0 5.0 25 OUTLET
S_7453315582 0.013 0.1 2.0 5.0 25 OUTLET
S_7453315583 0.013 0.1 2.0 5.0 25 OUTLET
S_7453315584 0.013 0.1 2.0 5.0 25 OUTLET
S_7453315735 0.013 0.1 2.0 5.0 25 OUTLET
S_7453315613 0.013 0.1 2.0 5.0 25 OUTLET
S_7453315618 0.013 0.1 2.0 5.0 25 OUTLET
S_7453315622 0.013 0.1 2.0 5.0 25 OUTLET
S_13127664187 0.013 0.1 2.0 5.0 25 OUTLET
S_7453315627 0.013 0.1 2.0 5.0 25 OUTLET
S_7453315654 0.013 0.1 2.0 5.0 25 OUTLET
S_7453315653 0.013 0.1 2.0 5.0 25 OUTLET
S_7453315655 0.013 0.1 2.0 5.0 25 OUTLET
S_7453315731 0.013 0.1 2.0 5.0 25 OUTLET
S_7465393488 0.013 0.1 2.0 5.0 25 OUTLET
S_7465393498 0.013 0.1 2.0 5.0 25 OUTLET
S_7465393505 0.013 0.1 2.0 5.0 25 OUTLET
S_10991357069 0.013 0.1 2.0 5.0 25 OUTLET
S_7465393516 0.013 0.1 2.0 5.0 25 OUTLET
S_13645830505 0.013 0.1 2.0 5.0 25 OUTLET
S_7465393525 0.013 0.1 2.0 5.0 25 OUTLET
S_10593463228 0.013 0.1 2.0 5.0 25 OUTLET
S_7465393527 0.013 0.1 2.0 5.0 25 OUTLET
S_13645830516 0.013 0.1 2.0 5.0 25 OUTLET
S_13645830527 0.013 0.1 2.0 5.0 25 OUTLET
S_7465393572 0.013 0.1 2.0 5.0 25 OUTLET
S_7465393578 0.013 0.1 2.0 5.0 25 OUTLET
S_12260767760 0.013 0.1 2.0 5.0 25 OUTLET
S_7465449546 0.013 0.1 2.0 5.0 25 OUTLET
S_7465449555 0.013 0.1 2.0 5.0 25 OUTLET
S_11438132731 0.013 0.1 2.0 5.0 25 OUTLET
S_7465449547 0.013 0.1 2.0 5.0 25 OUTLET
S_7465449558 0.013 0.1 2.0 5.0 25 OUTLET
S_7465449554 0.013 0.1 2.0 5.0 25 OUTLET
S_11438132728 0.013 0.1 2.0 5.0 25 OUTLET
S_7465449556 0.013 0.1 2.0 5.0 25 OUTLET
S_7465449559 0.013 0.1 2.0 5.0 25 OUTLET
S_7465449560 0.013 0.1 2.0 5.0 25 OUTLET
S_7465449564 0.013 0.1 2.0 5.0 25 OUTLET
S_7465449567 0.013 0.1 2.0 5.0 25 OUTLET
S_7465449568 0.013 0.1 2.0 5.0 25 OUTLET
S_13152307781 0.013 0.1 2.0 5.0 25 OUTLET
S_7465449582 0.013 0.1 2.0 5.0 25 OUTLET
S_7465449583 0.013 0.1 2.0 5.0 25 OUTLET
S_7465456785 0.013 0.1 2.0 5.0 25 OUTLET
S_11438144606 0.013 0.1 2.0 5.0 25 OUTLET
S_7465449584 0.013 0.1 2.0 5.0 25 OUTLET
S_13152302110 0.013 0.1 2.0 5.0 25 OUTLET
S_7465456788 0.013 0.1 2.0 5.0 25 OUTLET
S_7465456798 0.013 0.1 2.0 5.0 25 OUTLET
S_7465456803 0.013 0.1 2.0 5.0 25 OUTLET
S_11021578456 0.013 0.1 2.0 5.0 25 OUTLET
S_7465456806 0.013 0.1 2.0 5.0 25 OUTLET
S_7465456810 0.013 0.1 2.0 5.0 25 OUTLET
S_11409454649 0.013 0.1 2.0 5.0 25 OUTLET
S_9700303072 0.013 0.1 2.0 5.0 25 OUTLET
S_7465456817 0.013 0.1 2.0 5.0 25 OUTLET
S_11021569037 0.013 0.1 2.0 5.0 25 OUTLET
S_10687741966 0.013 0.1 2.0 5.0 25 OUTLET
S_7465456830 0.013 0.1 2.0 5.0 25 OUTLET
S_7465456831 0.013 0.1 2.0 5.0 25 OUTLET
S_7465456839 0.013 0.1 2.0 5.0 25 OUTLET
S_7465456850 0.013 0.1 2.0 5.0 25 OUTLET
S_7465577040 0.013 0.1 2.0 5.0 25 OUTLET
S_7465577041 0.013 0.1 2.0 5.0 25 OUTLET
S_11409159131 0.013 0.1 2.0 5.0 25 OUTLET
S_7465577043 0.013 0.1 2.0 5.0 25 OUTLET
S_7465577042 0.013 0.1 2.0 5.0 25 OUTLET
S_11409263303 0.013 0.1 2.0 5.0 25 OUTLET
S_11409172855 0.013 0.1 2.0 5.0 25 OUTLET
S_7465577044 0.013 0.1 2.0 5.0 25 OUTLET
S_7465577051 0.013 0.1 2.0 5.0 25 OUTLET
S_7465614134 0.013 0.1 2.0 5.0 25 OUTLET
S_7465614144 0.013 0.1 2.0 5.0 25 OUTLET
S_11409171825 0.013 0.1 2.0 5.0 25 OUTLET
S_7465614140 0.013 0.1 2.0 5.0 25 OUTLET
S_7465614146 0.013 0.1 2.0 5.0 25 OUTLET
S_7465614145 0.013 0.1 2.0 5.0 25 OUTLET
S_7465614228 0.013 0.1 2.0 5.0 25 OUTLET
S_11002963424 0.013 0.1 2.0 5.0 25 OUTLET
S_7465614227 0.013 0.1 2.0 5.0 25 OUTLET
S_9700074465 0.013 0.1 2.0 5.0 25 OUTLET
S_7465614241 0.013 0.1 2.0 5.0 25 OUTLET
S_7465614245 0.013 0.1 2.0 5.0 25 OUTLET
S_7465614250 0.013 0.1 2.0 5.0 25 OUTLET
S_7465646171 0.013 0.1 2.0 5.0 25 OUTLET
S_7465646172 0.013 0.1 2.0 5.0 25 OUTLET
S_7465646173 0.013 0.1 2.0 5.0 25 OUTLET
S_9880569589 0.013 0.1 2.0 5.0 25 OUTLET
S_7465672893 0.013 0.1 2.0 5.0 25 OUTLET
S_7466375661 0.013 0.1 2.0 5.0 25 OUTLET
S_7466375683 0.013 0.1 2.0 5.0 25 OUTLET
S_13807649550 0.013 0.1 2.0 5.0 25 OUTLET
S_9928560993 0.013 0.1 2.0 5.0 25 OUTLET
S_13807649466 0.013 0.1 2.0 5.0 25 OUTLET
S_10017481078 0.013 0.1 2.0 5.0 25 OUTLET
S_10017481082 0.013 0.1 2.0 5.0 25 OUTLET
S_7466386859 0.013 0.1 2.0 5.0 25 OUTLET
S_7466386860 0.013 0.1 2.0 5.0 25 OUTLET
S_8935990991 0.013 0.1 2.0 5.0 25 OUTLET
S_13802597961 0.013 0.1 2.0 5.0 25 OUTLET
S_8935990993 0.013 0.1 2.0 5.0 25 OUTLET
S_11197323405 0.013 0.1 2.0 5.0 25 OUTLET
S_12161557849 0.013 0.1 2.0 5.0 25 OUTLET
S_9645445153 0.013 0.1 2.0 5.0 25 OUTLET
S_9645445136 0.013 0.1 2.0 5.0 25 OUTLET
S_9645445142 0.013 0.1 2.0 5.0 25 OUTLET
S_9645445151 0.013 0.1 2.0 5.0 25 OUTLET
S_10991478286 0.013 0.1 2.0 5.0 25 OUTLET
S_11015641079 0.013 0.1 2.0 5.0 25 OUTLET
S_9839093178 0.013 0.1 2.0 5.0 25 OUTLET
S_10695024184 0.013 0.1 2.0 5.0 25 OUTLET
S_9841504888 0.013 0.1 2.0 5.0 25 OUTLET
S_9841504889 0.013 0.1 2.0 5.0 25 OUTLET
S_10695024186 0.013 0.1 2.0 5.0 25 OUTLET
S_9841504890 0.013 0.1 2.0 5.0 25 OUTLET
S_12918642886 0.013 0.1 2.0 5.0 25 OUTLET
S_9866129293 0.013 0.1 2.0 5.0 25 OUTLET
S_11002921849 0.013 0.1 2.0 5.0 25 OUTLET
S_12180012794 0.013 0.1 2.0 5.0 25 OUTLET
S_9870086766 0.013 0.1 2.0 5.0 25 OUTLET
S_9870086765 0.013 0.1 2.0 5.0 25 OUTLET
S_9873963410 0.013 0.1 2.0 5.0 25 OUTLET
S_9870086773 0.013 0.1 2.0 5.0 25 OUTLET
S_11002595848 0.013 0.1 2.0 5.0 25 OUTLET
S_9880569588 0.013 0.1 2.0 5.0 25 OUTLET
S_11409454669 0.013 0.1 2.0 5.0 25 OUTLET
S_11409413544 0.013 0.1 2.0 5.0 25 OUTLET
S_9897294964 0.013 0.1 2.0 5.0 25 OUTLET
S_9899714418 0.013 0.1 2.0 5.0 25 OUTLET
S_9900960143 0.013 0.1 2.0 5.0 25 OUTLET
S_9900960190 0.013 0.1 2.0 5.0 25 OUTLET
S_9900960192 0.013 0.1 2.0 5.0 25 OUTLET
S_9900960191 0.013 0.1 2.0 5.0 25 OUTLET
S_9900969018 0.013 0.1 2.0 5.0 25 OUTLET
S_9900960193 0.013 0.1 2.0 5.0 25 OUTLET
S_9900969019 0.013 0.1 2.0 5.0 25 OUTLET
S_9901111716 0.013 0.1 2.0 5.0 25 OUTLET
S_9910918458 0.013 0.1 2.0 5.0 25 OUTLET
S_9910918465 0.013 0.1 2.0 5.0 25 OUTLET
S_11197334455 0.013 0.1 2.0 5.0 25 OUTLET
S_11197323412 0.013 0.1 2.0 5.0 25 OUTLET
S_9928560952 0.013 0.1 2.0 5.0 25 OUTLET
S_9928561083 0.013 0.1 2.0 5.0 25 OUTLET
S_11885820563 0.013 0.1 2.0 5.0 25 OUTLET
S_11397285061 0.013 0.1 2.0 5.0 25 OUTLET
S_9990058603 0.013 0.1 2.0 5.0 25 OUTLET
S_10017481116 0.013 0.1 2.0 5.0 25 OUTLET
S_9992581197 0.013 0.1 2.0 5.0 25 OUTLET
S_10017481077 0.013 0.1 2.0 5.0 25 OUTLET
S_10017481079 0.013 0.1 2.0 5.0 25 OUTLET
S_10017481090 0.013 0.1 2.0 5.0 25 OUTLET
S_10017481092 0.013 0.1 2.0 5.0 25 OUTLET
S_13041011657 0.013 0.1 2.0 5.0 25 OUTLET
S_12155114398 0.013 0.1 2.0 5.0 25 OUTLET
S_12155114399 0.013 0.1 2.0 5.0 25 OUTLET
S_10578097581 0.013 0.1 2.0 5.0 25 OUTLET
S_11003016445 0.013 0.1 2.0 5.0 25 OUTLET
S_14066685118 0.013 0.1 2.0 5.0 25 OUTLET
S_10038782704 0.013 0.1 2.0 5.0 25 OUTLET
S_10038799161 0.013 0.1 2.0 5.0 25 OUTLET
S_10168889544 0.013 0.1 2.0 5.0 25 OUTLET
S_10038799162 0.013 0.1 2.0 5.0 25 OUTLET
S_10038800926 0.013 0.1 2.0 5.0 25 OUTLET
S_10038800927 0.013 0.1 2.0 5.0 25 OUTLET
S_10044811670 0.013 0.1 2.0 5.0 25 OUTLET
S_11002587524 0.013 0.1 2.0 5.0 25 OUTLET
S_10209103448 0.013 0.1 2.0 5.0 25 OUTLET
S_10209123012 0.013 0.1 2.0 5.0 25 OUTLET
S_12696050651 0.013 0.1 2.0 5.0 25 OUTLET
S_10222738375 0.013 0.1 2.0 5.0 25 OUTLET
S_10222738376 0.013 0.1 2.0 5.0 25 OUTLET
S_12210693584 0.013 0.1 2.0 5.0 25 OUTLET
S_10266837400 0.013 0.1 2.0 5.0 25 OUTLET
S_12210693586 0.013 0.1 2.0 5.0 25 OUTLET
S_10266837403 0.013 0.1 2.0 5.0 25 OUTLET
S_13830106009 0.013 0.1 2.0 5.0 25 OUTLET
S_10266837401 0.013 0.1 2.0 5.0 25 OUTLET
S_10266837402 0.013 0.1 2.0 5.0 25 OUTLET
S_12157689023 0.013 0.1 2.0 5.0 25 OUTLET
S_12157689021 0.013 0.1 2.0 5.0 25 OUTLET
S_10277100419 0.013 0.1 2.0 5.0 25 OUTLET
S_10277100420 0.013 0.1 2.0 5.0 25 OUTLET
S_10277100422 0.013 0.1 2.0 5.0 25 OUTLET
S_10277100423 0.013 0.1 2.0 5.0 25 OUTLET
S_10284858578 0.013 0.1 2.0 5.0 25 OUTLET
S_10312430299 0.013 0.1 2.0 5.0 25 OUTLET
S_11028255656 0.013 0.1 2.0 5.0 25 OUTLET
S_12078798115 0.013 0.1 2.0 5.0 25 OUTLET
S_10574674451 0.013 0.1 2.0 5.0 25 OUTLET
S_10593463229 0.013 0.1 2.0 5.0 25 OUTLET
S_10593463230 0.013 0.1 2.0 5.0 25 OUTLET
S_10593463233 0.013 0.1 2.0 5.0 25 OUTLET
S_10593463231 0.013 0.1 2.0 5.0 25 OUTLET
S_10731125515 0.013 0.1 2.0 5.0 25 OUTLET
S_10687741969 0.013 0.1 2.0 5.0 25 OUTLET
S_10687741968 0.013 0.1 2.0 5.0 25 OUTLET
S_10687741973 0.013 0.1 2.0 5.0 25 OUTLET
S_10687741972 0.013 0.1 2.0 5.0 25 OUTLET
S_10687741975 0.013 0.1 2.0 5.0 25 OUTLET
S_10687741974 0.013 0.1 2.0 5.0 25 OUTLET
S_10687741977 0.013 0.1 2.0 5.0 25 OUTLET
S_10687741976 0.013 0.1 2.0 5.0 25 OUTLET
S_10687741978 0.013 0.1 2.0 5.0 25 OUTLET
S_12918665451 0.013 0.1 2.0 5.0 25 OUTLET
S_10695024185 0.013 0.1 2.0 5.0 25 OUTLET
S_10695024187 0.013 0.1 2.0 5.0 25 OUTLET
S_10716532019 0.013 0.1 2.0 5.0 25 OUTLET
S_10731123200 0.013 0.1 2.0 5.0 25 OUTLET
S_12185458377 0.013 0.1 2.0 5.0 25 OUTLET
S_10760860023 0.013 0.1 2.0 5.0 25 OUTLET
S_10760860022 0.013 0.1 2.0 5.0 25 OUTLET
S_10760860025 0.013 0.1 2.0 5.0 25 OUTLET
S_10760860024 0.013 0.1 2.0 5.0 25 OUTLET
S_10760860026 0.013 0.1 2.0 5.0 25 OUTLET
S_10820231133 0.013 0.1 2.0 5.0 25 OUTLET
S_11021555208 0.013 0.1 2.0 5.0 25 OUTLET
S_10820231134 0.013 0.1 2.0 5.0 25 OUTLET
S_11021548225 0.013 0.1 2.0 5.0 25 OUTLET
S_12187507077 0.013 0.1 2.0 5.0 25 OUTLET
S_10978638724 0.013 0.1 2.0 5.0 25 OUTLET
S_10978640858 0.013 0.1 2.0 5.0 25 OUTLET
S_10991357070 0.013 0.1 2.0 5.0 25 OUTLET
S_10991375326 0.013 0.1 2.0 5.0 25 OUTLET
S_10991440020 0.013 0.1 2.0 5.0 25 OUTLET
S_10991475147 0.013 0.1 2.0 5.0 25 OUTLET
S_10991651170 0.013 0.1 2.0 5.0 25 OUTLET
S_13717751723 0.013 0.1 2.0 5.0 25 OUTLET
S_10991915619 0.013 0.1 2.0 5.0 25 OUTLET
S_11001362539 0.013 0.1 2.0 5.0 25 OUTLET
S_11002607127 0.013 0.1 2.0 5.0 25 OUTLET
S_11002607128 0.013 0.1 2.0 5.0 25 OUTLET
S_11002607131 0.013 0.1 2.0 5.0 25 OUTLET
S_11002607133 0.013 0.1 2.0 5.0 25 OUTLET
S_11002607130 0.013 0.1 2.0 5.0 25 OUTLET
S_11002607132 0.013 0.1 2.0 5.0 25 OUTLET
S_11002890405 0.013 0.1 2.0 5.0 25 OUTLET
S_12180012791 0.013 0.1 2.0 5.0 25 OUTLET
S_13130886313 0.013 0.1 2.0 5.0 25 OUTLET
S_11002958966 0.013 0.1 2.0 5.0 25 OUTLET
S_11003016446 0.013 0.1 2.0 5.0 25 OUTLET
S_11003037132 0.013 0.1 2.0 5.0 25 OUTLET
S_11003036768 0.013 0.1 2.0 5.0 25 OUTLET
S_11006982240 0.013 0.1 2.0 5.0 25 OUTLET
S_11007664987 0.013 0.1 2.0 5.0 25 OUTLET
S_11015153617 0.013 0.1 2.0 5.0 25 OUTLET
S_11015166118 0.013 0.1 2.0 5.0 25 OUTLET
S_11015226553 0.013 0.1 2.0 5.0 25 OUTLET
S_11015226554 0.013 0.1 2.0 5.0 25 OUTLET
S_11017633320 0.013 0.1 2.0 5.0 25 OUTLET
S_11021428252 0.013 0.1 2.0 5.0 25 OUTLET
S_11399465859 0.013 0.1 2.0 5.0 25 OUTLET
S_11021437034 0.013 0.1 2.0 5.0 25 OUTLET
S_11021437033 0.013 0.1 2.0 5.0 25 OUTLET
S_11399469960 0.013 0.1 2.0 5.0 25 OUTLET
S_11021454466 0.013 0.1 2.0 5.0 25 OUTLET
S_11021478368 0.013 0.1 2.0 5.0 25 OUTLET
S_11021488561 0.013 0.1 2.0 5.0 25 OUTLET
S_11021514732 0.013 0.1 2.0 5.0 25 OUTLET
S_11021555207 0.013 0.1 2.0 5.0 25 OUTLET
S_11021555209 0.013 0.1 2.0 5.0 25 OUTLET
S_11021569038 0.013 0.1 2.0 5.0 25 OUTLET
S_11409461237 0.013 0.1 2.0 5.0 25 OUTLET
S_11021603481 0.013 0.1 2.0 5.0 25 OUTLET
S_11021603484 0.013 0.1 2.0 5.0 25 OUTLET
S_11826963020 0.013 0.1 2.0 5.0 25 OUTLET
S_11021676040 0.013 0.1 2.0 5.0 25 OUTLET
S_11021755953 0.013 0.1 2.0 5.0 25 OUTLET
S_11074670549 0.013 0.1 2.0 5.0 25 OUTLET
S_11021766299 0.013 0.1 2.0 5.0 25 OUTLET
S_11074670574 0.013 0.1 2.0 5.0 25 OUTLET
S_11025384532 0.013 0.1 2.0 5.0 25 OUTLET
S_11027804586 0.013 0.1 2.0 5.0 25 OUTLET
S_11027804588 0.013 0.1 2.0 5.0 25 OUTLET
S_11329623304 0.013 0.1 2.0 5.0 25 OUTLET
S_11028823358 0.013 0.1 2.0 5.0 25 OUTLET
S_11028858435 0.013 0.1 2.0 5.0 25 OUTLET
S_11033916343 0.013 0.1 2.0 5.0 25 OUTLET
S_11124633999 0.013 0.1 2.0 5.0 25 OUTLET
S_11033916345 0.013 0.1 2.0 5.0 25 OUTLET
S_11121867056 0.013 0.1 2.0 5.0 25 OUTLET
S_11397404813 0.013 0.1 2.0 5.0 25 OUTLET
S_12151901679 0.013 0.1 2.0 5.0 25 OUTLET
S_11397404822 0.013 0.1 2.0 5.0 25 OUTLET
S_12918642840 0.013 0.1 2.0 5.0 25 OUTLET
S_11077269488 0.013 0.1 2.0 5.0 25 OUTLET
S_11121286749 0.013 0.1 2.0 5.0 25 OUTLET
S_12997704936 0.013 0.1 2.0 5.0 25 OUTLET
S_11182447928 0.013 0.1 2.0 5.0 25 OUTLET
S_11397285063 0.013 0.1 2.0 5.0 25 OUTLET
S_11397388905 0.013 0.1 2.0 5.0 25 OUTLET
S_12151901633 0.013 0.1 2.0 5.0 25 OUTLET
S_11397404823 0.013 0.1 2.0 5.0 25 OUTLET
S_11397591499 0.013 0.1 2.0 5.0 25 OUTLET
S_11397593723 0.013 0.1 2.0 5.0 25 OUTLET
S_11397593733 0.013 0.1 2.0 5.0 25 OUTLET
S_11397632765 0.013 0.1 2.0 5.0 25 OUTLET
S_11397632764 0.013 0.1 2.0 5.0 25 OUTLET
S_11397632766 0.013 0.1 2.0 5.0 25 OUTLET
S_11409159132 0.013 0.1 2.0 5.0 25 OUTLET
S_11409171826 0.013 0.1 2.0 5.0 25 OUTLET
S_11409172856 0.013 0.1 2.0 5.0 25 OUTLET
S_11409245946 0.013 0.1 2.0 5.0 25 OUTLET
S_11409293348 0.013 0.1 2.0 5.0 25 OUTLET
S_11409341814 0.013 0.1 2.0 5.0 25 OUTLET
S_11409322629 0.013 0.1 2.0 5.0 25 OUTLET
S_11409327905 0.013 0.1 2.0 5.0 25 OUTLET
S_11409327904 0.013 0.1 2.0 5.0 25 OUTLET
S_11409341813 0.013 0.1 2.0 5.0 25 OUTLET
S_11409461238 0.013 0.1 2.0 5.0 25 OUTLET
S_11414136197 0.013 0.1 2.0 5.0 25 OUTLET
S_11419446867 0.013 0.1 2.0 5.0 25 OUTLET
S_11419448880 0.013 0.1 2.0 5.0 25 OUTLET
S_11434298150 0.013 0.1 2.0 5.0 25 OUTLET
S_11434298136 0.013 0.1 2.0 5.0 25 OUTLET
S_11434298145 0.013 0.1 2.0 5.0 25 OUTLET
S_11434298148 0.013 0.1 2.0 5.0 25 OUTLET
S_11434298147 0.013 0.1 2.0 5.0 25 OUTLET
S_11434298137 0.013 0.1 2.0 5.0 25 OUTLET
S_11434298138 0.013 0.1 2.0 5.0 25 OUTLET
S_11434298144 0.013 0.1 2.0 5.0 25 OUTLET
S_11434298143 0.013 0.1 2.0 5.0 25 OUTLET
S_11434298142 0.013 0.1 2.0 5.0 25 OUTLET
S_11434298146 0.013 0.1 2.0 5.0 25 OUTLET
S_11434298149 0.013 0.1 2.0 5.0 25 OUTLET
S_11434298151 0.013 0.1 2.0 5.0 25 OUTLET
S_11434512224 0.013 0.1 2.0 5.0 25 OUTLET
S_11434710894 0.013 0.1 2.0 5.0 25 OUTLET
S_11436636898 0.013 0.1 2.0 5.0 25 OUTLET
S_11438132729 0.013 0.1 2.0 5.0 25 OUTLET
S_11438132732 0.013 0.1 2.0 5.0 25 OUTLET
S_11438144607 0.013 0.1 2.0 5.0 25 OUTLET
S_11438167761 0.013 0.1 2.0 5.0 25 OUTLET
S_11438298623 0.013 0.1 2.0 5.0 25 OUTLET
S_11438418705 0.013 0.1 2.0 5.0 25 OUTLET
S_12196909080 0.013 0.1 2.0 5.0 25 OUTLET
S_13076932659 0.013 0.1 2.0 5.0 25 OUTLET
S_13076932657 0.013 0.1 2.0 5.0 25 OUTLET
S_12765390074 0.013 0.1 2.0 5.0 25 OUTLET
S_11826963022 0.013 0.1 2.0 5.0 25 OUTLET
S_12961466032 0.013 0.1 2.0 5.0 25 OUTLET
S_11934696261 0.013 0.1 2.0 5.0 25 OUTLET
S_11934696262 0.013 0.1 2.0 5.0 25 OUTLET
S_13715446990 0.013 0.1 2.0 5.0 25 OUTLET
S_11934696264 0.013 0.1 2.0 5.0 25 OUTLET
S_11934696263 0.013 0.1 2.0 5.0 25 OUTLET
S_11944239436 0.013 0.1 2.0 5.0 25 OUTLET
S_11944239448 0.013 0.1 2.0 5.0 25 OUTLET
S_11944239449 0.013 0.1 2.0 5.0 25 OUTLET
S_11944239437 0.013 0.1 2.0 5.0 25 OUTLET
S_11944239442 0.013 0.1 2.0 5.0 25 OUTLET
S_11944239447 0.013 0.1 2.0 5.0 25 OUTLET
S_11944239441 0.013 0.1 2.0 5.0 25 OUTLET
S_11944239438 0.013 0.1 2.0 5.0 25 OUTLET
S_11944239450 0.013 0.1 2.0 5.0 25 OUTLET
S_11944239439 0.013 0.1 2.0 5.0 25 OUTLET
S_11944239444 0.013 0.1 2.0 5.0 25 OUTLET
S_11944239440 0.013 0.1 2.0 5.0 25 OUTLET
S_11944239445 0.013 0.1 2.0 5.0 25 OUTLET
S_11944239446 0.013 0.1 2.0 5.0 25 OUTLET
S_11944239443 0.013 0.1 2.0 5.0 25 OUTLET
S_11951620623 0.013 0.1 2.0 5.0 25 OUTLET
S_12078798117 0.013 0.1 2.0 5.0 25 OUTLET
S_12151901680 0.013 0.1 2.0 5.0 25 OUTLET
S_12155167317 0.013 0.1 2.0 5.0 25 OUTLET
S_12155167316 0.013 0.1 2.0 5.0 25 OUTLET
S_12157689025 0.013 0.1 2.0 5.0 25 OUTLET
S_13086731148 0.013 0.1 2.0 5.0 25 OUTLET
S_12180012792 0.013 0.1 2.0 5.0 25 OUTLET
S_12180012793 0.013 0.1 2.0 5.0 25 OUTLET
S_12185458378 0.013 0.1 2.0 5.0 25 OUTLET
S_12186088998 0.013 0.1 2.0 5.0 25 OUTLET
S_12187447576 0.013 0.1 2.0 5.0 25 OUTLET
S_12196464673 0.013 0.1 2.0 5.0 25 OUTLET
S_12196521967 0.013 0.1 2.0 5.0 25 OUTLET
S_12206473572 0.013 0.1 2.0 5.0 25 OUTLET
S_12210693585 0.013 0.1 2.0 5.0 25 OUTLET
S_12393621581 0.013 0.1 2.0 5.0 25 OUTLET
S_12604472596 0.013 0.1 2.0 5.0 25 OUTLET
S_12696050650 0.013 0.1 2.0 5.0 25 OUTLET
S_12697947084 0.013 0.1 2.0 5.0 25 OUTLET
S_12698276488 0.013 0.1 2.0 5.0 25 OUTLET
S_13645830500 0.013 0.1 2.0 5.0 25 OUTLET
S_12732525820 0.013 0.1 2.0 5.0 25 OUTLET
S_13787035709 0.013 0.1 2.0 5.0 25 OUTLET
S_13787010485 0.013 0.1 2.0 5.0 25 OUTLET
S_12918642841 0.013 0.1 2.0 5.0 25 OUTLET
S_12961466031 0.013 0.1 2.0 5.0 25 OUTLET
S_12997704925 0.013 0.1 2.0 5.0 25 OUTLET
S_12997704926 0.013 0.1 2.0 5.0 25 OUTLET
S_12997704944 0.013 0.1 2.0 5.0 25 OUTLET
S_13787010459 0.013 0.1 2.0 5.0 25 OUTLET
S_12999157123 0.013 0.1 2.0 5.0 25 OUTLET
S_12999157125 0.013 0.1 2.0 5.0 25 OUTLET
S_13041011653 0.013 0.1 2.0 5.0 25 OUTLET
S_13041011654 0.013 0.1 2.0 5.0 25 OUTLET
S_13041011658 0.013 0.1 2.0 5.0 25 OUTLET
S_13041011659 0.013 0.1 2.0 5.0 25 OUTLET
S_13041011662 0.013 0.1 2.0 5.0 25 OUTLET
S_13041011664 0.013 0.1 2.0 5.0 25 OUTLET
S_13041584928 0.013 0.1 2.0 5.0 25 OUTLET
S_13064736701 0.013 0.1 2.0 5.0 25 OUTLET
S_13098366975 0.013 0.1 2.0 5.0 25 OUTLET
S_13127664188 0.013 0.1 2.0 5.0 25 OUTLET
S_13127664193 0.013 0.1 2.0 5.0 25 OUTLET
S_13127790409 0.013 0.1 2.0 5.0 25 OUTLET
S_13127790410 0.013 0.1 2.0 5.0 25 OUTLET
S_13127790411 0.013 0.1 2.0 5.0 25 OUTLET
S_13130332396 0.013 0.1 2.0 5.0 25 OUTLET
S_13149044766 0.013 0.1 2.0 5.0 25 OUTLET
S_13149044767 0.013 0.1 2.0 5.0 25 OUTLET
S_13152302109 0.013 0.1 2.0 5.0 25 OUTLET
S_13360780445 0.013 0.1 2.0 5.0 25 OUTLET
S_13607317195 0.013 0.1 2.0 5.0 25 OUTLET
S_13645830523 0.013 0.1 2.0 5.0 25 OUTLET
S_13645830524 0.013 0.1 2.0 5.0 25 OUTLET
S_13645830525 0.013 0.1 2.0 5.0 25 OUTLET
S_13645830526 0.013 0.1 2.0 5.0 25 OUTLET
S_13654038306 0.013 0.1 2.0 5.0 25 OUTLET
S_13654038432 0.013 0.1 2.0 5.0 25 OUTLET
S_13655652478 0.013 0.1 2.0 5.0 25 OUTLET
S_13655653224 0.013 0.1 2.0 5.0 25 OUTLET
S_13667500009 0.013 0.1 2.0 5.0 25 OUTLET
S_13787010454 0.013 0.1 2.0 5.0 25 OUTLET
S_13787010455 0.013 0.1 2.0 5.0 25 OUTLET
S_13787010456 0.013 0.1 2.0 5.0 25 OUTLET
S_13787010457 0.013 0.1 2.0 5.0 25 OUTLET
S_13787010458 0.013 0.1 2.0 5.0 25 OUTLET
S_13787010460 0.013 0.1 2.0 5.0 25 OUTLET
S_13807649465 0.013 0.1 2.0 5.0 25 OUTLET
S_13807649549 0.013 0.1 2.0 5.0 25 OUTLET
S_13811792565 0.013 0.1 2.0 5.0 25 OUTLET
S_13830105943 0.013 0.1 2.0 5.0 25 OUTLET
S_13830106010 0.013 0.1 2.0 5.0 25 OUTLET
S_13830106176 0.013 0.1 2.0 5.0 25 OUTLET
S_13830106203 0.013 0.1 2.0 5.0 25 OUTLET
S_13830106204 0.013 0.1 2.0 5.0 25 OUTLET
S_13830106206 0.013 0.1 2.0 5.0 25 OUTLET
S_14072070988 0.013 0.1 2.0 5.0 25 OUTLET
S_14074138182 0.013 0.1 2.0 5.0 25 OUTLET

[INFILTRATION]
;;Subcatchment MaxRate MinRate Decay DryTime MaxInfil
S_251104955 75.0 3.0 4.0 7.0 0
S_1382528609 75.0 3.0 4.0 7.0 0
S_11028310396 75.0 3.0 4.0 7.0 0
S_251105277 75.0 3.0 4.0 7.0 0
S_6132933105 75.0 3.0 4.0 7.0 0
S_253448544 75.0 3.0 4.0 7.0 0
S_251105285 75.0 3.0 4.0 7.0 0
S_10277091600 75.0 3.0 4.0 7.0 0
S_1016228526 75.0 3.0 4.0 7.0 0
S_251106545 75.0 3.0 4.0 7.0 0
S_6901363519 75.0 3.0 4.0 7.0 0
S_251106828 75.0 3.0 4.0 7.0 0
S_251106717 75.0 3.0 4.0 7.0 0
S_13123179217 75.0 3.0 4.0 7.0 0
S_13360780446 75.0 3.0 4.0 7.0 0
S_6632652235 75.0 3.0 4.0 7.0 0
S_253447895 75.0 3.0 4.0 7.0 0
S_9857850176 75.0 3.0 4.0 7.0 0
S_12999157122 75.0 3.0 4.0 7.0 0
S_10221065289 75.0 3.0 4.0 7.0 0
S_253447898 75.0 3.0 4.0 7.0 0
S_253447899 75.0 3.0 4.0 7.0 0
S_1605954226 75.0 3.0 4.0 7.0 0
S_9700106334 75.0 3.0 4.0 7.0 0
S_1262043911 75.0 3.0 4.0 7.0 0
S_5281691574 75.0 3.0 4.0 7.0 0
S_253447903 75.0 3.0 4.0 7.0 0
S_12171179550 75.0 3.0 4.0 7.0 0
S_9928560951 75.0 3.0 4.0 7.0 0
S_253448523 75.0 3.0 4.0 7.0 0
S_5281691579 75.0 3.0 4.0 7.0 0
S_5281842542 75.0 3.0 4.0 7.0 0
S_253448524 75.0 3.0 4.0 7.0 0
S_1470833614 75.0 3.0 4.0 7.0 0
S_5281842558 75.0 3.0 4.0 7.0 0
S_253448537 75.0 3.0 4.0 7.0 0
S_1492407638 75.0 3.0 4.0 7.0 0
S_253448549 75.0 3.0 4.0 7.0 0
S_253448562 75.0 3.0 4.0 7.0 0
S_253448573 75.0 3.0 4.0 7.0 0
S_1368117314 75.0 3.0 4.0 7.0 0
S_253448561 75.0 3.0 4.0 7.0 0
S_1367922236 75.0 3.0 4.0 7.0 0
S_253448582 75.0 3.0 4.0 7.0 0
S_1368117329 75.0 3.0 4.0 7.0 0
S_253448566 75.0 3.0 4.0 7.0 0
S_254442569 75.0 3.0 4.0 7.0 0
S_1694231929 75.0 3.0 4.0 7.0 0
S_1368117387 75.0 3.0 4.0 7.0 0
S_253449679 75.0 3.0 4.0 7.0 0
S_13811792564 75.0 3.0 4.0 7.0 0
S_2048245857 75.0 3.0 4.0 7.0 0
S_253449681 75.0 3.0 4.0 7.0 0
S_10731123199 75.0 3.0 4.0 7.0 0
S_7466386855 75.0 3.0 4.0 7.0 0
S_5281842562 75.0 3.0 4.0 7.0 0
S_253449683 75.0 3.0 4.0 7.0 0
S_1492407642 75.0 3.0 4.0 7.0 0
S_11002574624 75.0 3.0 4.0 7.0 0
S_253449686 75.0 3.0 4.0 7.0 0
S_7466386858 75.0 3.0 4.0 7.0 0
S_7466386856 75.0 3.0 4.0 7.0 0
S_9870086764 75.0 3.0 4.0 7.0 0
S_253449692 75.0 3.0 4.0 7.0 0
S_10044811668 75.0 3.0 4.0 7.0 0
S_253449698 75.0 3.0 4.0 7.0 0
S_10017481089 75.0 3.0 4.0 7.0 0
S_9992581195 75.0 3.0 4.0 7.0 0
S_5931305385 75.0 3.0 4.0 7.0 0
S_253452075 75.0 3.0 4.0 7.0 0
S_6901407760 75.0 3.0 4.0 7.0 0
S_1382528655 75.0 3.0 4.0 7.0 0
S_7137902395 75.0 3.0 4.0 7.0 0
S_253452077 75.0 3.0 4.0 7.0 0
S_3957948342 75.0 3.0 4.0 7.0 0
S_12155167311 75.0 3.0 4.0 7.0 0
S_7466386863 75.0 3.0 4.0 7.0 0
S_253532871 75.0 3.0 4.0 7.0 0
S_253532914 75.0 3.0 4.0 7.0 0
S_5281842567 75.0 3.0 4.0 7.0 0
S_253532874 75.0 3.0 4.0 7.0 0
S_3545987055 75.0 3.0 4.0 7.0 0
S_12206473568 75.0 3.0 4.0 7.0 0
S_7121386221 75.0 3.0 4.0 7.0 0
S_253532894 75.0 3.0 4.0 7.0 0
S_11399419950 75.0 3.0 4.0 7.0 0
S_7101760803 75.0 3.0 4.0 7.0 0
S_1634932079 75.0 3.0 4.0 7.0 0
S_253532896 75.0 3.0 4.0 7.0 0
S_11021627219 75.0 3.0 4.0 7.0 0
S_253532905 75.0 3.0 4.0 7.0 0
S_7298289272 75.0 3.0 4.0 7.0 0
S_253532978 75.0 3.0 4.0 7.0 0
S_253532910 75.0 3.0 4.0 7.0 0
S_11021478367 75.0 3.0 4.0 7.0 0
S_1103017558 75.0 3.0 4.0 7.0 0
S_11135547223 75.0 3.0 4.0 7.0 0
S_253532931 75.0 3.0 4.0 7.0 0
S_11434296179 75.0 3.0 4.0 7.0 0
S_253532934 75.0 3.0 4.0 7.0 0
S_1443044870 75.0 3.0 4.0 7.0 0
S_3530426108 75.0 3.0 4.0 7.0 0
S_11002801404 75.0 3.0 4.0 7.0 0
S_253532971 75.0 3.0 4.0 7.0 0
S_11121286748 75.0 3.0 4.0 7.0 0
S_11002878595 75.0 3.0 4.0 7.0 0
S_331146193 75.0 3.0 4.0 7.0 0
S_254442570 75.0 3.0 4.0 7.0 0
S_1590229386 75.0 3.0 4.0 7.0 0
S_1367922212 75.0 3.0 4.0 7.0 0
S_1472791625 75.0 3.0 4.0 7.0 0
S_307940137 75.0 3.0 4.0 7.0 0
S_9645445129 75.0 3.0 4.0 7.0 0
S_1434089177 75.0 3.0 4.0 7.0 0
S_320240652 75.0 3.0 4.0 7.0 0
S_1371807641 75.0 3.0 4.0 7.0 0
S_1371807634 75.0 3.0 4.0 7.0 0
S_9700074489 75.0 3.0 4.0 7.0 0
S_320240654 75.0 3.0 4.0 7.0 0
S_1371807648 75.0 3.0 4.0 7.0 0
S_320240656 75.0 3.0 4.0 7.0 0
S_6193957625 75.0 3.0 4.0 7.0 0
S_12141933091 75.0 3.0 4.0 7.0 0
S_11027638241 75.0 3.0 4.0 7.0 0
S_320241385 75.0 3.0 4.0 7.0 0
S_6182692049 75.0 3.0 4.0 7.0 0
S_11015226548 75.0 3.0 4.0 7.0 0
S_11021479825 75.0 3.0 4.0 7.0 0
S_320241388 75.0 3.0 4.0 7.0 0
S_1514989637 75.0 3.0 4.0 7.0 0
S_7452692543 75.0 3.0 4.0 7.0 0
S_2225133166 75.0 3.0 4.0 7.0 0
S_320241390 75.0 3.0 4.0 7.0 0
S_4458722678 75.0 3.0 4.0 7.0 0
S_6194091031 75.0 3.0 4.0 7.0 0
S_320242565 75.0 3.0 4.0 7.0 0
S_7453315390 75.0 3.0 4.0 7.0 0
S_4458722615 75.0 3.0 4.0 7.0 0
S_4458722596 75.0 3.0 4.0 7.0 0
S_1514989618 75.0 3.0 4.0 7.0 0
S_320242567 75.0 3.0 4.0 7.0 0
S_4458722572 75.0 3.0 4.0 7.0 0
S_6177428350 75.0 3.0 4.0 7.0 0
S_7453315312 75.0 3.0 4.0 7.0 0
S_320242571 75.0 3.0 4.0 7.0 0
S_7453315398 75.0 3.0 4.0 7.0 0
S_2225133290 75.0 3.0 4.0 7.0 0
S_6904168224 75.0 3.0 4.0 7.0 0
S_320242582 75.0 3.0 4.0 7.0 0
S_6182547032 75.0 3.0 4.0 7.0 0
S_6751829037 75.0 3.0 4.0 7.0 0
S_2225133544 75.0 3.0 4.0 7.0 0
S_320242587 75.0 3.0 4.0 7.0 0
S_1347565272 75.0 3.0 4.0 7.0 0
S_7465456804 75.0 3.0 4.0 7.0 0
S_7138383916 75.0 3.0 4.0 7.0 0
S_320242814 75.0 3.0 4.0 7.0 0
S_6901280942 75.0 3.0 4.0 7.0 0
S_1371816433 75.0 3.0 4.0 7.0 0
S_6758593405 75.0 3.0 4.0 7.0 0
S_320242815 75.0 3.0 4.0 7.0 0
S_1371816389 75.0 3.0 4.0 7.0 0
S_11885729668 75.0 3.0 4.0 7.0 0
S_1371816411 75.0 3.0 4.0 7.0 0
S_320242819 75.0 3.0 4.0 7.0 0
S_6748996048 75.0 3.0 4.0 7.0 0
S_11021428239 75.0 3.0 4.0 7.0 0
S_2225133701 75.0 3.0 4.0 7.0 0
S_7291167555 75.0 3.0 4.0 7.0 0
S_1368829030 75.0 3.0 4.0 7.0 0
S_331146194 75.0 3.0 4.0 7.0 0
S_14072070989 75.0 3.0 4.0 7.0 0
S_331146195 75.0 3.0 4.0 7.0 0
S_12998590069 75.0 3.0 4.0 7.0 0
S_10991651169 75.0 3.0 4.0 7.0 0
S_4315977113 75.0 3.0 4.0 7.0 0
S_331146196 75.0 3.0 4.0 7.0 0
S_1016228579 75.0 3.0 4.0 7.0 0
S_331146200 75.0 3.0 4.0 7.0 0
S_1470833642 75.0 3.0 4.0 7.0 0
S_1718789013 75.0 3.0 4.0 7.0 0
S_331146203 75.0 3.0 4.0 7.0 0
S_10056189410 75.0 3.0 4.0 7.0 0
S_331147616 75.0 3.0 4.0 7.0 0
S_7298289287 75.0 3.0 4.0 7.0 0
S_331147621 75.0 3.0 4.0 7.0 0
S_11381136612 75.0 3.0 4.0 7.0 0
S_331147627 75.0 3.0 4.0 7.0 0
S_1374396082 75.0 3.0 4.0 7.0 0
S_1368814490 75.0 3.0 4.0 7.0 0
S_7298289289 75.0 3.0 4.0 7.0 0
S_331147702 75.0 3.0 4.0 7.0 0
S_1104250513 75.0 3.0 4.0 7.0 0
S_331147771 75.0 3.0 4.0 7.0 0
S_1371814186 75.0 3.0 4.0 7.0 0
S_1371814178 75.0 3.0 4.0 7.0 0
S_1371807570 75.0 3.0 4.0 7.0 0
S_331147773 75.0 3.0 4.0 7.0 0
S_1371807583 75.0 3.0 4.0 7.0 0
S_2225133203 75.0 3.0 4.0 7.0 0
S_1371807553 75.0 3.0 4.0 7.0 0
S_331150815 75.0 3.0 4.0 7.0 0
S_1103017563 75.0 3.0 4.0 7.0 0
S_956958701 75.0 3.0 4.0 7.0 0
S_11074670551 75.0 3.0 4.0 7.0 0
S_331150822 75.0 3.0 4.0 7.0 0
S_7298268883 75.0 3.0 4.0 7.0 0
S_10637202311 75.0 3.0 4.0 7.0 0
S_10038766779 75.0 3.0 4.0 7.0 0
S_574872968 75.0 3.0 4.0 7.0 0
S_11885834679 75.0 3.0 4.0 7.0 0
S_12961466033 75.0 3.0 4.0 7.0 0
S_7465456821 75.0 3.0 4.0 7.0 0
S_594600161 75.0 3.0 4.0 7.0 0
S_2376774439 75.0 3.0 4.0 7.0 0
S_7452692549 75.0 3.0 4.0 7.0 0
S_2225133157 75.0 3.0 4.0 7.0 0
S_594600189 75.0 3.0 4.0 7.0 0
S_594600191 75.0 3.0 4.0 7.0 0
S_7453315573 75.0 3.0 4.0 7.0 0
S_7453315574 75.0 3.0 4.0 7.0 0
S_594600200 75.0 3.0 4.0 7.0 0
S_7452692544 75.0 3.0 4.0 7.0 0
S_809461728 75.0 3.0 4.0 7.0 0
S_5485647354 75.0 3.0 4.0 7.0 0
S_809461787 75.0 3.0 4.0 7.0 0
S_3713858821 75.0 3.0 4.0 7.0 0
S_1104250512 75.0 3.0 4.0 7.0 0
S_832572431 75.0 3.0 4.0 7.0 0
S_12604472593 75.0 3.0 4.0 7.0 0
S_1633904753 75.0 3.0 4.0 7.0 0
S_955696066 75.0 3.0 4.0 7.0 0
S_9937603726 75.0 3.0 4.0 7.0 0
S_12918665449 75.0 3.0 4.0 7.0 0
S_1078253085 75.0 3.0 4.0 7.0 0
S_956975072 75.0 3.0 4.0 7.0 0
S_1104250537 75.0 3.0 4.0 7.0 0
S_1078253094 75.0 3.0 4.0 7.0 0
S_1014648217 75.0 3.0 4.0 7.0 0
S_10760860021 75.0 3.0 4.0 7.0 0
S_2066388579 75.0 3.0 4.0 7.0 0
S_6043189067 75.0 3.0 4.0 7.0 0
S_1014707800 75.0 3.0 4.0 7.0 0
S_1371828536 75.0 3.0 4.0 7.0 0
S_1371828541 75.0 3.0 4.0 7.0 0
S_1014707856 75.0 3.0 4.0 7.0 0
S_1014707848 75.0 3.0 4.0 7.0 0
S_1371828527 75.0 3.0 4.0 7.0 0
S_13830086493 75.0 3.0 4.0 7.0 0
S_7298289213 75.0 3.0 4.0 7.0 0
S_7298289244 75.0 3.0 4.0 7.0 0
S_7298289236 75.0 3.0 4.0 7.0 0
S_1014707872 75.0 3.0 4.0 7.0 0
S_13830105941 75.0 3.0 4.0 7.0 0
S_7298289211 75.0 3.0 4.0 7.0 0
S_1371828542 75.0 3.0 4.0 7.0 0
S_1014707907 75.0 3.0 4.0 7.0 0
S_1371828544 75.0 3.0 4.0 7.0 0
S_1371828530 75.0 3.0 4.0 7.0 0
S_1066108522 75.0 3.0 4.0 7.0 0
S_1016228504 75.0 3.0 4.0 7.0 0
S_1104250503 75.0 3.0 4.0 7.0 0
S_1016228517 75.0 3.0 4.0 7.0 0
S_1368117344 75.0 3.0 4.0 7.0 0
S_1368828980 75.0 3.0 4.0 7.0 0
S_1368829000 75.0 3.0 4.0 7.0 0
S_12196582428 75.0 3.0 4.0 7.0 0
S_1016228534 75.0 3.0 4.0 7.0 0
S_1683088958 75.0 3.0 4.0 7.0 0
S_10991813477 75.0 3.0 4.0 7.0 0
S_1016228556 75.0 3.0 4.0 7.0 0
S_1016228610 75.0 3.0 4.0 7.0 0
S_1634931711 75.0 3.0 4.0 7.0 0
S_1368828996 75.0 3.0 4.0 7.0 0
S_2066388589 75.0 3.0 4.0 7.0 0
S_1368828999 75.0 3.0 4.0 7.0 0
S_1016228596 75.0 3.0 4.0 7.0 0
S_1066041419 75.0 3.0 4.0 7.0 0
S_1066041427 75.0 3.0 4.0 7.0 0
S_11021766298 75.0 3.0 4.0 7.0 0
S_11074670573 75.0 3.0 4.0 7.0 0
S_1368801653 75.0 3.0 4.0 7.0 0
S_1066108534 75.0 3.0 4.0 7.0 0
S_1368801668 75.0 3.0 4.0 7.0 0
S_1103012306 75.0 3.0 4.0 7.0 0
S_7261406108 75.0 3.0 4.0 7.0 0
S_14074138183 75.0 3.0 4.0 7.0 0
S_2623251185 75.0 3.0 4.0 7.0 0
S_1104250488 75.0 3.0 4.0 7.0 0
S_1078253103 75.0 3.0 4.0 7.0 0
S_11434298134 75.0 3.0 4.0 7.0 0
S_14074138200 75.0 3.0 4.0 7.0 0
S_1078253167 75.0 3.0 4.0 7.0 0
S_1080176720 75.0 3.0 4.0 7.0 0
S_5281842556 75.0 3.0 4.0 7.0 0
S_1437330565 75.0 3.0 4.0 7.0 0
S_1080176721 75.0 3.0 4.0 7.0 0
S_1605954184 75.0 3.0 4.0 7.0 0
S_1103012303 75.0 3.0 4.0 7.0 0
S_13535865211 75.0 3.0 4.0 7.0 0
S_1103012305 75.0 3.0 4.0 7.0 0
S_1368117382 75.0 3.0 4.0 7.0 0
S_1368117384 75.0 3.0 4.0 7.0 0
S_1502865751 75.0 3.0 4.0 7.0 0
S_11021437035 75.0 3.0 4.0 7.0 0
S_11021437031 75.0 3.0 4.0 7.0 0
S_9841504887 75.0 3.0 4.0 7.0 0
S_1104241031 75.0 3.0 4.0 7.0 0
S_1104241056 75.0 3.0 4.0 7.0 0
S_11197334454 75.0 3.0 4.0 7.0 0
S_1104250501 75.0 3.0 4.0 7.0 0
S_1104250495 75.0 3.0 4.0 7.0 0
S_6194047462 75.0 3.0 4.0 7.0 0
S_6759139268 75.0 3.0 4.0 7.0 0
S_1507064149 75.0 3.0 4.0 7.0 0
S_1507064152 75.0 3.0 4.0 7.0 0
S_3649025396 75.0 3.0 4.0 7.0 0
S_1558993952 75.0 3.0 4.0 7.0 0
S_9645445144 75.0 3.0 4.0 7.0 0
S_1590229362 75.0 3.0 4.0 7.0 0
S_10056189411 75.0 3.0 4.0 7.0 0
S_1104250524 75.0 3.0 4.0 7.0 0
S_12187447575 75.0 3.0 4.0 7.0 0
S_12098136116 75.0 3.0 4.0 7.0 0
S_5281842535 75.0 3.0 4.0 7.0 0
S_10284858598 75.0 3.0 4.0 7.0 0
S_1177705626 75.0 3.0 4.0 7.0 0
S_6901276163 75.0 3.0 4.0 7.0 0
S_12187502877 75.0 3.0 4.0 7.0 0
S_1177705914 75.0 3.0 4.0 7.0 0
S_11434710893 75.0 3.0 4.0 7.0 0
S_12961466034 75.0 3.0 4.0 7.0 0
S_1198163774 75.0 3.0 4.0 7.0 0
S_1374397406 75.0 3.0 4.0 7.0 0
S_12161557850 75.0 3.0 4.0 7.0 0
S_13802597960 75.0 3.0 4.0 7.0 0
S_1198169318 75.0 3.0 4.0 7.0 0
S_7465393503 75.0 3.0 4.0 7.0 0
S_7465393502 75.0 3.0 4.0 7.0 0
S_12362900668 75.0 3.0 4.0 7.0 0
S_1198169359 75.0 3.0 4.0 7.0 0
S_5281840014 75.0 3.0 4.0 7.0 0
S_7465393504 75.0 3.0 4.0 7.0 0
S_4458722757 75.0 3.0 4.0 7.0 0
S_11812221695 75.0 3.0 4.0 7.0 0
S_1262043907 75.0 3.0 4.0 7.0 0
S_1262043930 75.0 3.0 4.0 7.0 0
S_1770465756 75.0 3.0 4.0 7.0 0
S_1262043929 75.0 3.0 4.0 7.0 0
S_1262043916 75.0 3.0 4.0 7.0 0
S_1262043909 75.0 3.0 4.0 7.0 0
S_9928560958 75.0 3.0 4.0 7.0 0
S_13105830030 75.0 3.0 4.0 7.0 0
S_1262043934 75.0 3.0 4.0 7.0 0
S_1262043910 75.0 3.0 4.0 7.0 0
S_1262043922 75.0 3.0 4.0 7.0 0
S_7466386826 75.0 3.0 4.0 7.0 0
S_1262043932 75.0 3.0 4.0 7.0 0
S_1262043912 75.0 3.0 4.0 7.0 0
S_1262043947 75.0 3.0 4.0 7.0 0
S_1262043933 75.0 3.0 4.0 7.0 0
S_7466386827 75.0 3.0 4.0 7.0 0
S_1262043914 75.0 3.0 4.0 7.0 0
S_1262043936 75.0 3.0 4.0 7.0 0
S_1262043931 75.0 3.0 4.0 7.0 0
S_1262043919 75.0 3.0 4.0 7.0 0
S_6144436485 75.0 3.0 4.0 7.0 0
S_1966466667 75.0 3.0 4.0 7.0 0
S_1262043920 75.0 3.0 4.0 7.0 0
S_1262043938 75.0 3.0 4.0 7.0 0
S_7466386830 75.0 3.0 4.0 7.0 0
S_1262043923 75.0 3.0 4.0 7.0 0
S_13807649806 75.0 3.0 4.0 7.0 0
S_1770465746 75.0 3.0 4.0 7.0 0
S_9928560957 75.0 3.0 4.0 7.0 0
S_7466386825 75.0 3.0 4.0 7.0 0
S_1770465743 75.0 3.0 4.0 7.0 0
S_1327387669 75.0 3.0 4.0 7.0 0
S_1371814296 75.0 3.0 4.0 7.0 0
S_1371814145 75.0 3.0 4.0 7.0 0
S_4204925697 75.0 3.0 4.0 7.0 0
S_1327387674 75.0 3.0 4.0 7.0 0
S_1371814201 75.0 3.0 4.0 7.0 0
S_1371814219 75.0 3.0 4.0 7.0 0
S_1923819587 75.0 3.0 4.0 7.0 0
S_1327387675 75.0 3.0 4.0 7.0 0
S_1327387677 75.0 3.0 4.0 7.0 0
S_1327387676 75.0 3.0 4.0 7.0 0
S_1371814282 75.0 3.0 4.0 7.0 0
S_7465614235 75.0 3.0 4.0 7.0 0
S_1327387682 75.0 3.0 4.0 7.0 0
S_6194157441 75.0 3.0 4.0 7.0 0
S_1371814252 75.0 3.0 4.0 7.0 0
S_1327387679 75.0 3.0 4.0 7.0 0
S_1327387681 75.0 3.0 4.0 7.0 0
S_1371814205 75.0 3.0 4.0 7.0 0
S_1327387683 75.0 3.0 4.0 7.0 0
S_7465614240 75.0 3.0 4.0 7.0 0
S_1327387684 75.0 3.0 4.0 7.0 0
S_1327387685 75.0 3.0 4.0 7.0 0
S_1371814312 75.0 3.0 4.0 7.0 0
S_7465614246 75.0 3.0 4.0 7.0 0
S_11009508675 75.0 3.0 4.0 7.0 0
S_1327387687 75.0 3.0 4.0 7.0 0
S_1327387689 75.0 3.0 4.0 7.0 0
S_1371814209 75.0 3.0 4.0 7.0 0
S_1327387686 75.0 3.0 4.0 7.0 0
S_1371816431 75.0 3.0 4.0 7.0 0
S_1327387694 75.0 3.0 4.0 7.0 0
S_1327387695 75.0 3.0 4.0 7.0 0
S_1371814298 75.0 3.0 4.0 7.0 0
S_1327387690 75.0 3.0 4.0 7.0 0
S_6152762851 75.0 3.0 4.0 7.0 0
S_1327387692 75.0 3.0 4.0 7.0 0
S_4204925700 75.0 3.0 4.0 7.0 0
S_1371816413 75.0 3.0 4.0 7.0 0
S_1327387697 75.0 3.0 4.0 7.0 0
S_1327387698 75.0 3.0 4.0 7.0 0
S_11395452271 75.0 3.0 4.0 7.0 0
S_1327387696 75.0 3.0 4.0 7.0 0
S_1371816442 75.0 3.0 4.0 7.0 0
S_1371816427 75.0 3.0 4.0 7.0 0
S_1327387702 75.0 3.0 4.0 7.0 0
S_5281727082 75.0 3.0 4.0 7.0 0
S_1327387699 75.0 3.0 4.0 7.0 0
S_1327387701 75.0 3.0 4.0 7.0 0
S_1371816463 75.0 3.0 4.0 7.0 0
S_1371816459 75.0 3.0 4.0 7.0 0
S_7465614249 75.0 3.0 4.0 7.0 0
S_7465614251 75.0 3.0 4.0 7.0 0
S_1327387704 75.0 3.0 4.0 7.0 0
S_7465614253 75.0 3.0 4.0 7.0 0
S_7465614254 75.0 3.0 4.0 7.0 0
S_1347565267 75.0 3.0 4.0 7.0 0
S_7465646179 75.0 3.0 4.0 7.0 0
S_6620856876 75.0 3.0 4.0 7.0 0
S_2225133603 75.0 3.0 4.0 7.0 0
S_7465646180 75.0 3.0 4.0 7.0 0
S_1347565269 75.0 3.0 4.0 7.0 0
S_1347565270 75.0 3.0 4.0 7.0 0
S_11021533254 75.0 3.0 4.0 7.0 0
S_7465456816 75.0 3.0 4.0 7.0 0
S_7465672901 75.0 3.0 4.0 7.0 0
S_1634931753 75.0 3.0 4.0 7.0 0
S_1368117346 75.0 3.0 4.0 7.0 0
S_1368117304 75.0 3.0 4.0 7.0 0
S_1368117316 75.0 3.0 4.0 7.0 0
S_1371814142 75.0 3.0 4.0 7.0 0
S_9700074482 75.0 3.0 4.0 7.0 0
S_1368117325 75.0 3.0 4.0 7.0 0
S_9900960189 75.0 3.0 4.0 7.0 0
S_1368117350 75.0 3.0 4.0 7.0 0
S_1502865753 75.0 3.0 4.0 7.0 0
S_1368117363 75.0 3.0 4.0 7.0 0
S_5281842539 75.0 3.0 4.0 7.0 0
S_9645445154 75.0 3.0 4.0 7.0 0
S_11434400637 75.0 3.0 4.0 7.0 0
S_11926574593 75.0 3.0 4.0 7.0 0
S_1368672364 75.0 3.0 4.0 7.0 0
S_1701004552 75.0 3.0 4.0 7.0 0
S_1558993987 75.0 3.0 4.0 7.0 0
S_7298295670 75.0 3.0 4.0 7.0 0
S_1368801655 75.0 3.0 4.0 7.0 0
S_6182817159 75.0 3.0 4.0 7.0 0
S_7101732711 75.0 3.0 4.0 7.0 0
S_1368801659 75.0 3.0 4.0 7.0 0
S_1368801669 75.0 3.0 4.0 7.0 0
S_11027804585 75.0 3.0 4.0 7.0 0
S_11077269487 75.0 3.0 4.0 7.0 0
S_1558993902 75.0 3.0 4.0 7.0 0
S_1558994002 75.0 3.0 4.0 7.0 0
S_11397593720 75.0 3.0 4.0 7.0 0
S_1368801673 75.0 3.0 4.0 7.0 0
S_1371828535 75.0 3.0 4.0 7.0 0
S_10738521350 75.0 3.0 4.0 7.0 0
S_1368801692 75.0 3.0 4.0 7.0 0
S_9681688971 75.0 3.0 4.0 7.0 0
S_1376905664 75.0 3.0 4.0 7.0 0
S_1368828978 75.0 3.0 4.0 7.0 0
S_7298289285 75.0 3.0 4.0 7.0 0
S_7291167549 75.0 3.0 4.0 7.0 0
S_2066388564 75.0 3.0 4.0 7.0 0
S_1368933533 75.0 3.0 4.0 7.0 0
S_11640782969 75.0 3.0 4.0 7.0 0
S_1368933536 75.0 3.0 4.0 7.0 0
S_14066684544 75.0 3.0 4.0 7.0 0
S_7298268884 75.0 3.0 4.0 7.0 0
S_1371807527 75.0 3.0 4.0 7.0 0
S_1371807599 75.0 3.0 4.0 7.0 0
S_1371807607 75.0 3.0 4.0 7.0 0
S_5281839991 75.0 3.0 4.0 7.0 0
S_1371807528 75.0 3.0 4.0 7.0 0
S_1371807530 75.0 3.0 4.0 7.0 0
S_13654038141 75.0 3.0 4.0 7.0 0
S_1371807531 75.0 3.0 4.0 7.0 0
S_1371807645 75.0 3.0 4.0 7.0 0
S_1371807533 75.0 3.0 4.0 7.0 0
S_13654038123 75.0 3.0 4.0 7.0 0
S_1371807573 75.0 3.0 4.0 7.0 0
S_1371807534 75.0 3.0 4.0 7.0 0
S_1371807587 75.0 3.0 4.0 7.0 0
S_1371807535 75.0 3.0 4.0 7.0 0
S_1371807649 75.0 3.0 4.0 7.0 0
S_1371807537 75.0 3.0 4.0 7.0 0
S_2486617762 75.0 3.0 4.0 7.0 0
S_9884546155 75.0 3.0 4.0 7.0 0
S_7453315722 75.0 3.0 4.0 7.0 0
S_1371807538 75.0 3.0 4.0 7.0 0
S_13667500256 75.0 3.0 4.0 7.0 0
S_1371807540 75.0 3.0 4.0 7.0 0
S_1371807651 75.0 3.0 4.0 7.0 0
S_1371807595 75.0 3.0 4.0 7.0 0
S_13654030352 75.0 3.0 4.0 7.0 0
S_1371807542 75.0 3.0 4.0 7.0 0
S_11027638242 75.0 3.0 4.0 7.0 0
S_1371807544 75.0 3.0 4.0 7.0 0
S_1371807598 75.0 3.0 4.0 7.0 0
S_1371807657 75.0 3.0 4.0 7.0 0
S_3649025393 75.0 3.0 4.0 7.0 0
S_1371807546 75.0 3.0 4.0 7.0 0
S_1371807616 75.0 3.0 4.0 7.0 0
S_13130350871 75.0 3.0 4.0 7.0 0
S_13654038433 75.0 3.0 4.0 7.0 0
S_1371807549 75.0 3.0 4.0 7.0 0
S_1371807564 75.0 3.0 4.0 7.0 0
S_1371807666 75.0 3.0 4.0 7.0 0
S_1371807551 75.0 3.0 4.0 7.0 0
S_5281840020 75.0 3.0 4.0 7.0 0
S_13503417936 75.0 3.0 4.0 7.0 0
S_1371807558 75.0 3.0 4.0 7.0 0
S_1371807559 75.0 3.0 4.0 7.0 0
S_1371807561 75.0 3.0 4.0 7.0 0
S_1371807620 75.0 3.0 4.0 7.0 0
S_1371807563 75.0 3.0 4.0 7.0 0
S_13667500010 75.0 3.0 4.0 7.0 0
S_1371807631 75.0 3.0 4.0 7.0 0
S_1578236015 75.0 3.0 4.0 7.0 0
S_1371807612 75.0 3.0 4.0 7.0 0
S_7453315612 75.0 3.0 4.0 7.0 0
S_7453315740 75.0 3.0 4.0 7.0 0
S_1371807571 75.0 3.0 4.0 7.0 0
S_1371807652 75.0 3.0 4.0 7.0 0
S_7452673911 75.0 3.0 4.0 7.0 0
S_5283343749 75.0 3.0 4.0 7.0 0
S_11021488563 75.0 3.0 4.0 7.0 0
S_1371807572 75.0 3.0 4.0 7.0 0
S_1371807661 75.0 3.0 4.0 7.0 0
S_13667500433 75.0 3.0 4.0 7.0 0
S_9700074494 75.0 3.0 4.0 7.0 0
S_11021806270 75.0 3.0 4.0 7.0 0
S_9700074492 75.0 3.0 4.0 7.0 0
S_1371807575 75.0 3.0 4.0 7.0 0
S_1371807639 75.0 3.0 4.0 7.0 0
S_1371807578 75.0 3.0 4.0 7.0 0
S_1371807627 75.0 3.0 4.0 7.0 0
S_1371807637 75.0 3.0 4.0 7.0 0
S_1371807659 75.0 3.0 4.0 7.0 0
S_7147042929 75.0 3.0 4.0 7.0 0
S_1371807586 75.0 3.0 4.0 7.0 0
S_5281842526 75.0 3.0 4.0 7.0 0
S_5283547061 75.0 3.0 4.0 7.0 0
S_1371807592 75.0 3.0 4.0 7.0 0
S_5283547056 75.0 3.0 4.0 7.0 0
S_1371807642 75.0 3.0 4.0 7.0 0
S_1371807593 75.0 3.0 4.0 7.0 0
S_1371807654 75.0 3.0 4.0 7.0 0
S_2225133216 75.0 3.0 4.0 7.0 0
S_1371807596 75.0 3.0 4.0 7.0 0
S_1514989648 75.0 3.0 4.0 7.0 0
S_11015226552 75.0 3.0 4.0 7.0 0
S_7453315652 75.0 3.0 4.0 7.0 0
S_1371807602 75.0 3.0 4.0 7.0 0
S_1371807630 75.0 3.0 4.0 7.0 0
S_1371807606 75.0 3.0 4.0 7.0 0
S_1371807660 75.0 3.0 4.0 7.0 0
S_1371807608 75.0 3.0 4.0 7.0 0
S_1514989684 75.0 3.0 4.0 7.0 0
S_7453315436 75.0 3.0 4.0 7.0 0
S_1371807614 75.0 3.0 4.0 7.0 0
S_1590229489 75.0 3.0 4.0 7.0 0
S_1371814159 75.0 3.0 4.0 7.0 0
S_13654038308 75.0 3.0 4.0 7.0 0
S_11397275311 75.0 3.0 4.0 7.0 0
S_1371807625 75.0 3.0 4.0 7.0 0
S_1371814174 75.0 3.0 4.0 7.0 0
S_12186088999 75.0 3.0 4.0 7.0 0
S_1371807626 75.0 3.0 4.0 7.0 0
S_5281842527 75.0 3.0 4.0 7.0 0
S_11021417755 75.0 3.0 4.0 7.0 0
S_1371807646 75.0 3.0 4.0 7.0 0
S_11015643600 75.0 3.0 4.0 7.0 0
S_13654030332 75.0 3.0 4.0 7.0 0
S_1371814339 75.0 3.0 4.0 7.0 0
S_1371807633 75.0 3.0 4.0 7.0 0
S_1371807636 75.0 3.0 4.0 7.0 0
S_5283343745 75.0 3.0 4.0 7.0 0
S_7138383879 75.0 3.0 4.0 7.0 0
S_7453315624 75.0 3.0 4.0 7.0 0
S_3530277755 75.0 3.0 4.0 7.0 0
S_1371807655 75.0 3.0 4.0 7.0 0
S_1371807665 75.0 3.0 4.0 7.0 0
S_5283547059 75.0 3.0 4.0 7.0 0
S_1371807644 75.0 3.0 4.0 7.0 0
S_12598616677 75.0 3.0 4.0 7.0 0
S_13654030378 75.0 3.0 4.0 7.0 0
S_7452673919 75.0 3.0 4.0 7.0 0
S_11021648174 75.0 3.0 4.0 7.0 0
S_2225133206 75.0 3.0 4.0 7.0 0
S_1371807658 75.0 3.0 4.0 7.0 0
S_2486617761 75.0 3.0 4.0 7.0 0
S_1371814115 75.0 3.0 4.0 7.0 0
S_1371814269 75.0 3.0 4.0 7.0 0
S_1371814238 75.0 3.0 4.0 7.0 0
S_1371814161 75.0 3.0 4.0 7.0 0
S_1371814117 75.0 3.0 4.0 7.0 0
S_1371814138 75.0 3.0 4.0 7.0 0
S_3324726802 75.0 3.0 4.0 7.0 0
S_1371814248 75.0 3.0 4.0 7.0 0
S_1371814124 75.0 3.0 4.0 7.0 0
S_1371814175 75.0 3.0 4.0 7.0 0
S_1371814188 75.0 3.0 4.0 7.0 0
S_1371814251 75.0 3.0 4.0 7.0 0
S_1371814172 75.0 3.0 4.0 7.0 0
S_1371814128 75.0 3.0 4.0 7.0 0
S_1371814230 75.0 3.0 4.0 7.0 0
S_9700074467 75.0 3.0 4.0 7.0 0
S_1578238465 75.0 3.0 4.0 7.0 0
S_6617329692 75.0 3.0 4.0 7.0 0
S_1371814129 75.0 3.0 4.0 7.0 0
S_1371814193 75.0 3.0 4.0 7.0 0
S_1371814130 75.0 3.0 4.0 7.0 0
S_1371814132 75.0 3.0 4.0 7.0 0
S_1371814194 75.0 3.0 4.0 7.0 0
S_1371814294 75.0 3.0 4.0 7.0 0
S_1371814162 75.0 3.0 4.0 7.0 0
S_1598804290 75.0 3.0 4.0 7.0 0
S_1371814140 75.0 3.0 4.0 7.0 0
S_1578237528 75.0 3.0 4.0 7.0 0
S_1371814297 75.0 3.0 4.0 7.0 0
S_1371814255 75.0 3.0 4.0 7.0 0
S_1371814237 75.0 3.0 4.0 7.0 0
S_9897294963 75.0 3.0 4.0 7.0 0
S_1371814316 75.0 3.0 4.0 7.0 0
S_1371814146 75.0 3.0 4.0 7.0 0
S_1371814246 75.0 3.0 4.0 7.0 0
S_1371814148 75.0 3.0 4.0 7.0 0
S_1371814154 75.0 3.0 4.0 7.0 0
S_1371814281 75.0 3.0 4.0 7.0 0
S_1371814156 75.0 3.0 4.0 7.0 0
S_1371814265 75.0 3.0 4.0 7.0 0
S_1457451923 75.0 3.0 4.0 7.0 0
S_1371814158 75.0 3.0 4.0 7.0 0
S_1371814160 75.0 3.0 4.0 7.0 0
S_1371814267 75.0 3.0 4.0 7.0 0
S_7465393489 75.0 3.0 4.0 7.0 0
S_1371814332 75.0 3.0 4.0 7.0 0
S_1371814176 75.0 3.0 4.0 7.0 0
S_1371814300 75.0 3.0 4.0 7.0 0
S_1371814326 75.0 3.0 4.0 7.0 0
S_1371814331 75.0 3.0 4.0 7.0 0
S_10991440018 75.0 3.0 4.0 7.0 0
S_5281842533 75.0 3.0 4.0 7.0 0
S_1371814310 75.0 3.0 4.0 7.0 0
S_1371814191 75.0 3.0 4.0 7.0 0
S_1371814254 75.0 3.0 4.0 7.0 0
S_1371814222 75.0 3.0 4.0 7.0 0
S_7465393486 75.0 3.0 4.0 7.0 0
S_4204925699 75.0 3.0 4.0 7.0 0
S_1371814327 75.0 3.0 4.0 7.0 0
S_7465614239 75.0 3.0 4.0 7.0 0
S_1371814206 75.0 3.0 4.0 7.0 0
S_1371814223 75.0 3.0 4.0 7.0 0
S_5281842546 75.0 3.0 4.0 7.0 0
S_5281839988 75.0 3.0 4.0 7.0 0
S_1371814207 75.0 3.0 4.0 7.0 0
S_1371814280 75.0 3.0 4.0 7.0 0
S_11395452270 75.0 3.0 4.0 7.0 0
S_12765426026 75.0 3.0 4.0 7.0 0
S_6617328973 75.0 3.0 4.0 7.0 0
S_1371814232 75.0 3.0 4.0 7.0 0
S_1371814285 75.0 3.0 4.0 7.0 0
S_1371814239 75.0 3.0 4.0 7.0 0
S_5281840018 75.0 3.0 4.0 7.0 0
S_5281840016 75.0 3.0 4.0 7.0 0
S_5281842545 75.0 3.0 4.0 7.0 0
S_1371814308 75.0 3.0 4.0 7.0 0
S_10991475142 75.0 3.0 4.0 7.0 0
S_1371814284 75.0 3.0 4.0 7.0 0
S_1371814314 75.0 3.0 4.0 7.0 0
S_7097657282 75.0 3.0 4.0 7.0 0
S_9700074460 75.0 3.0 4.0 7.0 0
S_1371814324 75.0 3.0 4.0 7.0 0
S_7452673893 75.0 3.0 4.0 7.0 0
S_5281840019 75.0 3.0 4.0 7.0 0
S_5283343739 75.0 3.0 4.0 7.0 0
S_1371816450 75.0 3.0 4.0 7.0 0
S_1371816422 75.0 3.0 4.0 7.0 0
S_1371816419 75.0 3.0 4.0 7.0 0
S_1371816391 75.0 3.0 4.0 7.0 0
S_1371816400 75.0 3.0 4.0 7.0 0
S_1371816415 75.0 3.0 4.0 7.0 0
S_1371816443 75.0 3.0 4.0 7.0 0
S_1371816460 75.0 3.0 4.0 7.0 0
S_1371816401 75.0 3.0 4.0 7.0 0
S_1371816402 75.0 3.0 4.0 7.0 0
S_1371816464 75.0 3.0 4.0 7.0 0
S_1371816425 75.0 3.0 4.0 7.0 0
S_1371816407 75.0 3.0 4.0 7.0 0
S_1371816435 75.0 3.0 4.0 7.0 0
S_11438418704 75.0 3.0 4.0 7.0 0
S_1371816440 75.0 3.0 4.0 7.0 0
S_11885696210 75.0 3.0 4.0 7.0 0
S_1371816417 75.0 3.0 4.0 7.0 0
S_1371816446 75.0 3.0 4.0 7.0 0
S_5281842548 75.0 3.0 4.0 7.0 0
S_4730103812 75.0 3.0 4.0 7.0 0
S_1371816441 75.0 3.0 4.0 7.0 0
S_6901280956 75.0 3.0 4.0 7.0 0
S_7465456827 75.0 3.0 4.0 7.0 0
S_1371816462 75.0 3.0 4.0 7.0 0
S_1371828528 75.0 3.0 4.0 7.0 0
S_1371828545 75.0 3.0 4.0 7.0 0
S_7298289263 75.0 3.0 4.0 7.0 0
S_1371828540 75.0 3.0 4.0 7.0 0
S_7298289227 75.0 3.0 4.0 7.0 0
S_1371828539 75.0 3.0 4.0 7.0 0
S_1371828531 75.0 3.0 4.0 7.0 0
S_13830106177 75.0 3.0 4.0 7.0 0
S_9900960144 75.0 3.0 4.0 7.0 0
S_11397402715 75.0 3.0 4.0 7.0 0
S_1371828533 75.0 3.0 4.0 7.0 0
S_7298289303 75.0 3.0 4.0 7.0 0
S_10084814543 75.0 3.0 4.0 7.0 0
S_7140718125 75.0 3.0 4.0 7.0 0
S_7140718121 75.0 3.0 4.0 7.0 0
S_1371828543 75.0 3.0 4.0 7.0 0
S_7298289304 75.0 3.0 4.0 7.0 0
S_10266837398 75.0 3.0 4.0 7.0 0
S_7140718123 75.0 3.0 4.0 7.0 0
S_7298289290 75.0 3.0 4.0 7.0 0
S_1511238410 75.0 3.0 4.0 7.0 0
S_1376905673 75.0 3.0 4.0 7.0 0
S_1376905667 75.0 3.0 4.0 7.0 0
S_1376905672 75.0 3.0 4.0 7.0 0
S_1376905671 75.0 3.0 4.0 7.0 0
S_7452712421 75.0 3.0 4.0 7.0 0
S_13655653225 75.0 3.0 4.0 7.0 0
S_1382528610 75.0 3.0 4.0 7.0 0
S_1384732339 75.0 3.0 4.0 7.0 0
S_9982048425 75.0 3.0 4.0 7.0 0
S_7465456846 75.0 3.0 4.0 7.0 0
S_11885832888 75.0 3.0 4.0 7.0 0
S_1384732709 75.0 3.0 4.0 7.0 0
S_11885832889 75.0 3.0 4.0 7.0 0
S_7465456828 75.0 3.0 4.0 7.0 0
S_1384732910 75.0 3.0 4.0 7.0 0
S_7465456843 75.0 3.0 4.0 7.0 0
S_9982048419 75.0 3.0 4.0 7.0 0
S_11409245945 75.0 3.0 4.0 7.0 0
S_1384733202 75.0 3.0 4.0 7.0 0
S_11397260844 75.0 3.0 4.0 7.0 0
S_1585741084 75.0 3.0 4.0 7.0 0
S_11006982239 75.0 3.0 4.0 7.0 0
S_1605954141 75.0 3.0 4.0 7.0 0
S_1439027926 75.0 3.0 4.0 7.0 0
S_1505269146 75.0 3.0 4.0 7.0 0
S_1443044904 75.0 3.0 4.0 7.0 0
S_1631443363 75.0 3.0 4.0 7.0 0
S_1443044792 75.0 3.0 4.0 7.0 0
S_11002846646 75.0 3.0 4.0 7.0 0
S_13130886315 75.0 3.0 4.0 7.0 0
S_9867253967 75.0 3.0 4.0 7.0 0
S_11002846647 75.0 3.0 4.0 7.0 0
S_1443044865 75.0 3.0 4.0 7.0 0
S_1443044896 75.0 3.0 4.0 7.0 0
S_7298289268 75.0 3.0 4.0 7.0 0
S_1443044900 75.0 3.0 4.0 7.0 0
S_1631443235 75.0 3.0 4.0 7.0 0
S_1457451930 75.0 3.0 4.0 7.0 0
S_1457451925 75.0 3.0 4.0 7.0 0
S_1598804288 75.0 3.0 4.0 7.0 0
S_5281839987 75.0 3.0 4.0 7.0 0
S_1470833636 75.0 3.0 4.0 7.0 0
S_1470833628 75.0 3.0 4.0 7.0 0
S_1470833622 75.0 3.0 4.0 7.0 0
S_1470833646 75.0 3.0 4.0 7.0 0
S_1470833630 75.0 3.0 4.0 7.0 0
S_1470833645 75.0 3.0 4.0 7.0 0
S_1470833629 75.0 3.0 4.0 7.0 0
S_10716532018 75.0 3.0 4.0 7.0 0
S_1470833639 75.0 3.0 4.0 7.0 0
S_1470833634 75.0 3.0 4.0 7.0 0
S_1470833650 75.0 3.0 4.0 7.0 0
S_6632636571 75.0 3.0 4.0 7.0 0
S_1470833643 75.0 3.0 4.0 7.0 0
S_11017633319 75.0 3.0 4.0 7.0 0
S_1492407658 75.0 3.0 4.0 7.0 0
S_11414136196 75.0 3.0 4.0 7.0 0
S_11182447927 75.0 3.0 4.0 7.0 0
S_1485730731 75.0 3.0 4.0 7.0 0
S_6180767894 75.0 3.0 4.0 7.0 0
S_1485730738 75.0 3.0 4.0 7.0 0
S_6142680814 75.0 3.0 4.0 7.0 0
S_1485730754 75.0 3.0 4.0 7.0 0
S_1485730751 75.0 3.0 4.0 7.0 0
S_1485730776 75.0 3.0 4.0 7.0 0
S_6142680813 75.0 3.0 4.0 7.0 0
S_1485730755 75.0 3.0 4.0 7.0 0
S_1485730774 75.0 3.0 4.0 7.0 0
S_1485730775 75.0 3.0 4.0 7.0 0
S_6142628592 75.0 3.0 4.0 7.0 0
S_1492407651 75.0 3.0 4.0 7.0 0
S_1492407663 75.0 3.0 4.0 7.0 0
S_1492407639 75.0 3.0 4.0 7.0 0
S_9839093177 75.0 3.0 4.0 7.0 0
S_9839093175 75.0 3.0 4.0 7.0 0
S_1492407640 75.0 3.0 4.0 7.0 0
S_10017481091 75.0 3.0 4.0 7.0 0
S_1634931733 75.0 3.0 4.0 7.0 0
S_1492407645 75.0 3.0 4.0 7.0 0
S_13041011660 75.0 3.0 4.0 7.0 0
S_2048245856 75.0 3.0 4.0 7.0 0
S_11184922059 75.0 3.0 4.0 7.0 0
S_1492407646 75.0 3.0 4.0 7.0 0
S_7466375684 75.0 3.0 4.0 7.0 0
S_11017641140 75.0 3.0 4.0 7.0 0
S_1492407652 75.0 3.0 4.0 7.0 0
S_1497326586 75.0 3.0 4.0 7.0 0
S_5281840005 75.0 3.0 4.0 7.0 0
S_10841617807 75.0 3.0 4.0 7.0 0
S_7298289308 75.0 3.0 4.0 7.0 0
S_1502865760 75.0 3.0 4.0 7.0 0
S_7101732724 75.0 3.0 4.0 7.0 0
S_1558993985 75.0 3.0 4.0 7.0 0
S_1502865776 75.0 3.0 4.0 7.0 0
S_1502865762 75.0 3.0 4.0 7.0 0
S_10209103447 75.0 3.0 4.0 7.0 0
S_7140718119 75.0 3.0 4.0 7.0 0
S_1852671167 75.0 3.0 4.0 7.0 0
S_1502865774 75.0 3.0 4.0 7.0 0
S_1558993906 75.0 3.0 4.0 7.0 0
S_1558994048 75.0 3.0 4.0 7.0 0
S_1505269133 75.0 3.0 4.0 7.0 0
S_1505269186 75.0 3.0 4.0 7.0 0
S_7101760810 75.0 3.0 4.0 7.0 0
S_1505269171 75.0 3.0 4.0 7.0 0
S_7298289243 75.0 3.0 4.0 7.0 0
S_7298289210 75.0 3.0 4.0 7.0 0
S_11028823357 75.0 3.0 4.0 7.0 0
S_1507064166 75.0 3.0 4.0 7.0 0
S_13655652829 75.0 3.0 4.0 7.0 0
S_1511238406 75.0 3.0 4.0 7.0 0
S_12999157124 75.0 3.0 4.0 7.0 0
S_9928561082 75.0 3.0 4.0 7.0 0
S_6901363516 75.0 3.0 4.0 7.0 0
S_4458722643 75.0 3.0 4.0 7.0 0
S_4458722689 75.0 3.0 4.0 7.0 0
S_11015173157 75.0 3.0 4.0 7.0 0
S_1514989656 75.0 3.0 4.0 7.0 0
S_7453315306 75.0 3.0 4.0 7.0 0
S_7453315718 75.0 3.0 4.0 7.0 0
S_7452673917 75.0 3.0 4.0 7.0 0
S_1514989685 75.0 3.0 4.0 7.0 0
S_9901111715 75.0 3.0 4.0 7.0 0
S_1558993988 75.0 3.0 4.0 7.0 0
S_1558993939 75.0 3.0 4.0 7.0 0
S_7298289310 75.0 3.0 4.0 7.0 0
S_1558993929 75.0 3.0 4.0 7.0 0
S_1558994010 75.0 3.0 4.0 7.0 0
S_11397404812 75.0 3.0 4.0 7.0 0
S_1558993961 75.0 3.0 4.0 7.0 0
S_1558993933 75.0 3.0 4.0 7.0 0
S_7298289189 75.0 3.0 4.0 7.0 0
S_12244701790 75.0 3.0 4.0 7.0 0
S_11397404821 75.0 3.0 4.0 7.0 0
S_10209123011 75.0 3.0 4.0 7.0 0
S_6142293179 75.0 3.0 4.0 7.0 0
S_1558993942 75.0 3.0 4.0 7.0 0
S_12196464672 75.0 3.0 4.0 7.0 0
S_11397593732 75.0 3.0 4.0 7.0 0
S_7175603121 75.0 3.0 4.0 7.0 0
S_10991915618 75.0 3.0 4.0 7.0 0
S_1558993960 75.0 3.0 4.0 7.0 0
S_12151901678 75.0 3.0 4.0 7.0 0
S_7175594106 75.0 3.0 4.0 7.0 0
S_7175594101 75.0 3.0 4.0 7.0 0
S_11045649363 75.0 3.0 4.0 7.0 0
S_11045649364 75.0 3.0 4.0 7.0 0
S_7101732727 75.0 3.0 4.0 7.0 0
S_7101732710 75.0 3.0 4.0 7.0 0
S_1558993992 75.0 3.0 4.0 7.0 0
S_7101732723 75.0 3.0 4.0 7.0 0
S_1558994009 75.0 3.0 4.0 7.0 0
S_1558994055 75.0 3.0 4.0 7.0 0
S_11397404814 75.0 3.0 4.0 7.0 0
S_1558994024 75.0 3.0 4.0 7.0 0
S_10978638722 75.0 3.0 4.0 7.0 0
S_1558994025 75.0 3.0 4.0 7.0 0
S_1558994047 75.0 3.0 4.0 7.0 0
S_10978640856 75.0 3.0 4.0 7.0 0
S_7291167618 75.0 3.0 4.0 7.0 0
S_1589223971 75.0 3.0 4.0 7.0 0
S_1590229329 75.0 3.0 4.0 7.0 0
S_1590229523 75.0 3.0 4.0 7.0 0
S_1590229591 75.0 3.0 4.0 7.0 0
S_1605954172 75.0 3.0 4.0 7.0 0
S_1605954220 75.0 3.0 4.0 7.0 0
S_1605954168 75.0 3.0 4.0 7.0 0
S_1605954178 75.0 3.0 4.0 7.0 0
S_1605954206 75.0 3.0 4.0 7.0 0
S_11375356861 75.0 3.0 4.0 7.0 0
S_1605954179 75.0 3.0 4.0 7.0 0
S_7466456019 75.0 3.0 4.0 7.0 0
S_1605954215 75.0 3.0 4.0 7.0 0
S_11169596337 75.0 3.0 4.0 7.0 0
S_7291147477 75.0 3.0 4.0 7.0 0
S_1633904682 75.0 3.0 4.0 7.0 0
S_1633904785 75.0 3.0 4.0 7.0 0
S_7465449566 75.0 3.0 4.0 7.0 0
S_1633904727 75.0 3.0 4.0 7.0 0
S_13152307780 75.0 3.0 4.0 7.0 0
S_10232936572 75.0 3.0 4.0 7.0 0
S_1633904764 75.0 3.0 4.0 7.0 0
S_7465449561 75.0 3.0 4.0 7.0 0
S_7465449565 75.0 3.0 4.0 7.0 0
S_7465449562 75.0 3.0 4.0 7.0 0
S_7465449557 75.0 3.0 4.0 7.0 0
S_13152322515 75.0 3.0 4.0 7.0 0
S_1633904819 75.0 3.0 4.0 7.0 0
S_7465393573 75.0 3.0 4.0 7.0 0
S_7263113742 75.0 3.0 4.0 7.0 0
S_11002858225 75.0 3.0 4.0 7.0 0
S_1634931522 75.0 3.0 4.0 7.0 0
S_1634931847 75.0 3.0 4.0 7.0 0
S_1634931610 75.0 3.0 4.0 7.0 0
S_7298289286 75.0 3.0 4.0 7.0 0
S_10044811669 75.0 3.0 4.0 7.0 0
S_1634931831 75.0 3.0 4.0 7.0 0
S_11003036767 75.0 3.0 4.0 7.0 0
S_1634931868 75.0 3.0 4.0 7.0 0
S_12393621582 75.0 3.0 4.0 7.0 0
S_5281842568 75.0 3.0 4.0 7.0 0
S_5281842566 75.0 3.0 4.0 7.0 0
S_1634963569 75.0 3.0 4.0 7.0 0
S_1697942242 75.0 3.0 4.0 7.0 0
S_5281842584 75.0 3.0 4.0 7.0 0
S_5281842576 75.0 3.0 4.0 7.0 0
S_1701004555 75.0 3.0 4.0 7.0 0
S_13098366974 75.0 3.0 4.0 7.0 0
S_1718788929 75.0 3.0 4.0 7.0 0
S_10277100421 75.0 3.0 4.0 7.0 0
S_1718789067 75.0 3.0 4.0 7.0 0
S_1718788930 75.0 3.0 4.0 7.0 0
S_3649031394 75.0 3.0 4.0 7.0 0
S_1759857345 75.0 3.0 4.0 7.0 0
S_2987147432 75.0 3.0 4.0 7.0 0
S_1770465751 75.0 3.0 4.0 7.0 0
S_1770465753 75.0 3.0 4.0 7.0 0
S_7298295682 75.0 3.0 4.0 7.0 0
S_13041011663 75.0 3.0 4.0 7.0 0
S_2048245859 75.0 3.0 4.0 7.0 0
S_13041011665 75.0 3.0 4.0 7.0 0
S_11002607129 75.0 3.0 4.0 7.0 0
S_11056570933 75.0 3.0 4.0 7.0 0
S_2376774391 75.0 3.0 4.0 7.0 0
S_11434512223 75.0 3.0 4.0 7.0 0
S_2225133167 75.0 3.0 4.0 7.0 0
S_2225133173 75.0 3.0 4.0 7.0 0
S_2225133175 75.0 3.0 4.0 7.0 0
S_9700074499 75.0 3.0 4.0 7.0 0
S_2225133195 75.0 3.0 4.0 7.0 0
S_2225133212 75.0 3.0 4.0 7.0 0
S_7147088714 75.0 3.0 4.0 7.0 0
S_2225133199 75.0 3.0 4.0 7.0 0
S_12698276487 75.0 3.0 4.0 7.0 0
S_11021676037 75.0 3.0 4.0 7.0 0
S_13645830539 75.0 3.0 4.0 7.0 0
S_7453315614 75.0 3.0 4.0 7.0 0
S_2225133295 75.0 3.0 4.0 7.0 0
S_2225133273 75.0 3.0 4.0 7.0 0
S_11021755952 75.0 3.0 4.0 7.0 0
S_7453315392 75.0 3.0 4.0 7.0 0
S_2225133309 75.0 3.0 4.0 7.0 0
S_2225133523 75.0 3.0 4.0 7.0 0
S_6753110523 75.0 3.0 4.0 7.0 0
S_6753110522 75.0 3.0 4.0 7.0 0
S_2225133530 75.0 3.0 4.0 7.0 0
S_6753110521 75.0 3.0 4.0 7.0 0
S_7263139539 75.0 3.0 4.0 7.0 0
S_2225133551 75.0 3.0 4.0 7.0 0
S_11438298620 75.0 3.0 4.0 7.0 0
S_7465456797 75.0 3.0 4.0 7.0 0
S_9982048431 75.0 3.0 4.0 7.0 0
S_6748996026 75.0 3.0 4.0 7.0 0
S_11846741326 75.0 3.0 4.0 7.0 0
S_7453315632 75.0 3.0 4.0 7.0 0
S_2376774417 75.0 3.0 4.0 7.0 0
S_13720252591 75.0 3.0 4.0 7.0 0
S_12141933090 75.0 3.0 4.0 7.0 0
S_13656305932 75.0 3.0 4.0 7.0 0
S_2508149195 75.0 3.0 4.0 7.0 0
S_2578488068 75.0 3.0 4.0 7.0 0
S_13607317196 75.0 3.0 4.0 7.0 0
S_13607317191 75.0 3.0 4.0 7.0 0
S_2578488069 75.0 3.0 4.0 7.0 0
S_2623258606 75.0 3.0 4.0 7.0 0
S_2987147429 75.0 3.0 4.0 7.0 0
S_2987148124 75.0 3.0 4.0 7.0 0
S_7465614187 75.0 3.0 4.0 7.0 0
S_2987149133 75.0 3.0 4.0 7.0 0
S_2987148123 75.0 3.0 4.0 7.0 0
S_11885834678 75.0 3.0 4.0 7.0 0
S_7465614189 75.0 3.0 4.0 7.0 0
S_3300742565 75.0 3.0 4.0 7.0 0
S_3324730976 75.0 3.0 4.0 7.0 0
S_3528034343 75.0 3.0 4.0 7.0 0
S_6748996035 75.0 3.0 4.0 7.0 0
S_9700303070 75.0 3.0 4.0 7.0 0
S_3545987056 75.0 3.0 4.0 7.0 0
S_11003046329 75.0 3.0 4.0 7.0 0
S_11003034318 75.0 3.0 4.0 7.0 0
S_3649025375 75.0 3.0 4.0 7.0 0
S_3649025381 75.0 3.0 4.0 7.0 0
S_13655652480 75.0 3.0 4.0 7.0 0
S_3649031405 75.0 3.0 4.0 7.0 0
S_7147090917 75.0 3.0 4.0 7.0 0
S_13715446989 75.0 3.0 4.0 7.0 0
S_13064733100 75.0 3.0 4.0 7.0 0
S_4458722522 75.0 3.0 4.0 7.0 0
S_4458722721 75.0 3.0 4.0 7.0 0
S_4458722823 75.0 3.0 4.0 7.0 0
S_4458722559 75.0 3.0 4.0 7.0 0
S_4458722553 75.0 3.0 4.0 7.0 0
S_7452673912 75.0 3.0 4.0 7.0 0
S_7453315599 75.0 3.0 4.0 7.0 0
S_13041584929 75.0 3.0 4.0 7.0 0
S_7138383902 75.0 3.0 4.0 7.0 0
S_11419446866 75.0 3.0 4.0 7.0 0
S_11015153616 75.0 3.0 4.0 7.0 0
S_4458722622 75.0 3.0 4.0 7.0 0
S_4458722731 75.0 3.0 4.0 7.0 0
S_11007663483 75.0 3.0 4.0 7.0 0
S_4458722675 75.0 3.0 4.0 7.0 0
S_4458722626 75.0 3.0 4.0 7.0 0
S_7453315580 75.0 3.0 4.0 7.0 0
S_7453315717 75.0 3.0 4.0 7.0 0
S_7453315577 75.0 3.0 4.0 7.0 0
S_12690216001 75.0 3.0 4.0 7.0 0
S_4458722633 75.0 3.0 4.0 7.0 0
S_10593463232 75.0 3.0 4.0 7.0 0
S_7263140430 75.0 3.0 4.0 7.0 0
S_7138383899 75.0 3.0 4.0 7.0 0
S_11007663477 75.0 3.0 4.0 7.0 0
S_11812221683 75.0 3.0 4.0 7.0 0
S_4458722815 75.0 3.0 4.0 7.0 0
S_4458722824 75.0 3.0 4.0 7.0 0
S_6141750279 75.0 3.0 4.0 7.0 0
S_4730103806 75.0 3.0 4.0 7.0 0
S_4730103816 75.0 3.0 4.0 7.0 0
S_9866129294 75.0 3.0 4.0 7.0 0
S_5281691576 75.0 3.0 4.0 7.0 0
S_5281691577 75.0 3.0 4.0 7.0 0
S_5281842544 75.0 3.0 4.0 7.0 0
S_5281727083 75.0 3.0 4.0 7.0 0
S_7465614252 75.0 3.0 4.0 7.0 0
S_5281839990 75.0 3.0 4.0 7.0 0
S_5281840000 75.0 3.0 4.0 7.0 0
S_6902150001 75.0 3.0 4.0 7.0 0
S_11197334457 75.0 3.0 4.0 7.0 0
S_5281840017 75.0 3.0 4.0 7.0 0
S_5281842521 75.0 3.0 4.0 7.0 0
S_6168910216 75.0 3.0 4.0 7.0 0
S_5281842523 75.0 3.0 4.0 7.0 0
S_13656305937 75.0 3.0 4.0 7.0 0
S_5283547058 75.0 3.0 4.0 7.0 0
S_13667500182 75.0 3.0 4.0 7.0 0
S_5281842528 75.0 3.0 4.0 7.0 0
S_5281842531 75.0 3.0 4.0 7.0 0
S_5283343737 75.0 3.0 4.0 7.0 0
S_13652990523 75.0 3.0 4.0 7.0 0
S_5281842532 75.0 3.0 4.0 7.0 0
S_5281842534 75.0 3.0 4.0 7.0 0
S_5281842537 75.0 3.0 4.0 7.0 0
S_5281842536 75.0 3.0 4.0 7.0 0
S_5281842538 75.0 3.0 4.0 7.0 0
S_10991832380 75.0 3.0 4.0 7.0 0
S_5281842557 75.0 3.0 4.0 7.0 0
S_5281842559 75.0 3.0 4.0 7.0 0
S_5281842560 75.0 3.0 4.0 7.0 0
S_5281842561 75.0 3.0 4.0 7.0 0
S_5281842563 75.0 3.0 4.0 7.0 0
S_5281842564 75.0 3.0 4.0 7.0 0
S_5281842565 75.0 3.0 4.0 7.0 0
S_7101760800 75.0 3.0 4.0 7.0 0
S_5281842569 75.0 3.0 4.0 7.0 0
S_6911835051 75.0 3.0 4.0 7.0 0
S_5281842571 75.0 3.0 4.0 7.0 0
S_6911835052 75.0 3.0 4.0 7.0 0
S_5281842573 75.0 3.0 4.0 7.0 0
S_6911835053 75.0 3.0 4.0 7.0 0
S_5281842574 75.0 3.0 4.0 7.0 0
S_5281842575 75.0 3.0 4.0 7.0 0
S_6911835054 75.0 3.0 4.0 7.0 0
S_5283343736 75.0 3.0 4.0 7.0 0
S_11395872426 75.0 3.0 4.0 7.0 0
S_5283343744 75.0 3.0 4.0 7.0 0
S_11015173154 75.0 3.0 4.0 7.0 0
S_11436636897 75.0 3.0 4.0 7.0 0
S_5283343748 75.0 3.0 4.0 7.0 0
S_13127664189 75.0 3.0 4.0 7.0 0
S_5283343750 75.0 3.0 4.0 7.0 0
S_5283343751 75.0 3.0 4.0 7.0 0
S_5283343753 75.0 3.0 4.0 7.0 0
S_13667499252 75.0 3.0 4.0 7.0 0
S_10687414876 75.0 3.0 4.0 7.0 0
S_7147063884 75.0 3.0 4.0 7.0 0
S_7334211452 75.0 3.0 4.0 7.0 0
S_5928041457 75.0 3.0 4.0 7.0 0
S_10017481076 75.0 3.0 4.0 7.0 0
S_7466386861 75.0 3.0 4.0 7.0 0
S_12155167315 75.0 3.0 4.0 7.0 0
S_10038712736 75.0 3.0 4.0 7.0 0
S_5931305386 75.0 3.0 4.0 7.0 0
S_12180012795 75.0 3.0 4.0 7.0 0
S_6043189063 75.0 3.0 4.0 7.0 0
S_12196521966 75.0 3.0 4.0 7.0 0
S_6137413125 75.0 3.0 4.0 7.0 0
S_11363958154 75.0 3.0 4.0 7.0 0
S_11397801173 75.0 3.0 4.0 7.0 0
S_7291167515 75.0 3.0 4.0 7.0 0
S_6142628590 75.0 3.0 4.0 7.0 0
S_6168910212 75.0 3.0 4.0 7.0 0
S_7452673924 75.0 3.0 4.0 7.0 0
S_6168910213 75.0 3.0 4.0 7.0 0
S_12185851902 75.0 3.0 4.0 7.0 0
S_11021479822 75.0 3.0 4.0 7.0 0
S_6177428349 75.0 3.0 4.0 7.0 0
S_9899714417 75.0 3.0 4.0 7.0 0
S_11021465194 75.0 3.0 4.0 7.0 0
S_11419448879 75.0 3.0 4.0 7.0 0
S_10185513621 75.0 3.0 4.0 7.0 0
S_11015706619 75.0 3.0 4.0 7.0 0
S_13130422494 75.0 3.0 4.0 7.0 0
S_6194091030 75.0 3.0 4.0 7.0 0
S_7452692540 75.0 3.0 4.0 7.0 0
S_7452692538 75.0 3.0 4.0 7.0 0
S_6194238913 75.0 3.0 4.0 7.0 0
S_13130332397 75.0 3.0 4.0 7.0 0
S_6194238914 75.0 3.0 4.0 7.0 0
S_13127790412 75.0 3.0 4.0 7.0 0
S_7147090948 75.0 3.0 4.0 7.0 0
S_6617328935 75.0 3.0 4.0 7.0 0
S_12635196524 75.0 3.0 4.0 7.0 0
S_13076932658 75.0 3.0 4.0 7.0 0
S_6617328955 75.0 3.0 4.0 7.0 0
S_11812221673 75.0 3.0 4.0 7.0 0
S_11007664986 75.0 3.0 4.0 7.0 0
S_6617329698 75.0 3.0 4.0 7.0 0
S_11009607007 75.0 3.0 4.0 7.0 0
S_6617329699 75.0 3.0 4.0 7.0 0
S_6617329732 75.0 3.0 4.0 7.0 0
S_11812221689 75.0 3.0 4.0 7.0 0
S_11812221684 75.0 3.0 4.0 7.0 0
S_6620856859 75.0 3.0 4.0 7.0 0
S_11812221682 75.0 3.0 4.0 7.0 0
S_10221065294 75.0 3.0 4.0 7.0 0
S_6632652201 75.0 3.0 4.0 7.0 0
S_10076263537 75.0 3.0 4.0 7.0 0
S_6632652240 75.0 3.0 4.0 7.0 0
S_11041656612 75.0 3.0 4.0 7.0 0
S_6746682761 75.0 3.0 4.0 7.0 0
S_6894486324 75.0 3.0 4.0 7.0 0
S_6746708992 75.0 3.0 4.0 7.0 0
S_9700303071 75.0 3.0 4.0 7.0 0
S_6748996039 75.0 3.0 4.0 7.0 0
S_7465456856 75.0 3.0 4.0 7.0 0
S_6748996042 75.0 3.0 4.0 7.0 0
S_6748996040 75.0 3.0 4.0 7.0 0
S_7465456851 75.0 3.0 4.0 7.0 0
S_11409263307 75.0 3.0 4.0 7.0 0
S_6748996044 75.0 3.0 4.0 7.0 0
S_6748996043 75.0 3.0 4.0 7.0 0
S_6748996075 75.0 3.0 4.0 7.0 0
S_6748996045 75.0 3.0 4.0 7.0 0
S_6748996047 75.0 3.0 4.0 7.0 0
S_6748996049 75.0 3.0 4.0 7.0 0
S_11944239451 75.0 3.0 4.0 7.0 0
S_7465614139 75.0 3.0 4.0 7.0 0
S_6749434106 75.0 3.0 4.0 7.0 0
S_12185986689 75.0 3.0 4.0 7.0 0
S_7452692536 75.0 3.0 4.0 7.0 0
S_11438167760 75.0 3.0 4.0 7.0 0
S_6755551374 75.0 3.0 4.0 7.0 0
S_6755551377 75.0 3.0 4.0 7.0 0
S_11409293349 75.0 3.0 4.0 7.0 0
S_10687741979 75.0 3.0 4.0 7.0 0
S_6755551379 75.0 3.0 4.0 7.0 0
S_11409322630 75.0 3.0 4.0 7.0 0
S_11409346234 75.0 3.0 4.0 7.0 0
S_6758593404 75.0 3.0 4.0 7.0 0
S_6884970118 75.0 3.0 4.0 7.0 0
S_6884970119 75.0 3.0 4.0 7.0 0
S_11197334456 75.0 3.0 4.0 7.0 0
S_8935990994 75.0 3.0 4.0 7.0 0
S_6894243326 75.0 3.0 4.0 7.0 0
S_6894243328 75.0 3.0 4.0 7.0 0
S_6894486323 75.0 3.0 4.0 7.0 0
S_6901276162 75.0 3.0 4.0 7.0 0
S_11885820562 75.0 3.0 4.0 7.0 0
S_6901363518 75.0 3.0 4.0 7.0 0
S_6901363517 75.0 3.0 4.0 7.0 0
S_6904168220 75.0 3.0 4.0 7.0 0
S_6904168225 75.0 3.0 4.0 7.0 0
S_7453315400 75.0 3.0 4.0 7.0 0
S_7097657283 75.0 3.0 4.0 7.0 0
S_7465393495 75.0 3.0 4.0 7.0 0
S_11027804587 75.0 3.0 4.0 7.0 0
S_7101732726 75.0 3.0 4.0 7.0 0
S_7101732730 75.0 3.0 4.0 7.0 0
S_7101732731 75.0 3.0 4.0 7.0 0
S_7298289306 75.0 3.0 4.0 7.0 0
S_7101732735 75.0 3.0 4.0 7.0 0
S_7101760804 75.0 3.0 4.0 7.0 0
S_14066684771 75.0 3.0 4.0 7.0 0
S_14066684791 75.0 3.0 4.0 7.0 0
S_7101760812 75.0 3.0 4.0 7.0 0
S_7101760813 75.0 3.0 4.0 7.0 0
S_7101760816 75.0 3.0 4.0 7.0 0
S_10038722876 75.0 3.0 4.0 7.0 0
S_7121386231 75.0 3.0 4.0 7.0 0
S_10719511590 75.0 3.0 4.0 7.0 0
S_7138383883 75.0 3.0 4.0 7.0 0
S_7138383898 75.0 3.0 4.0 7.0 0
S_7453315631 75.0 3.0 4.0 7.0 0
S_7138383900 75.0 3.0 4.0 7.0 0
S_7138383903 75.0 3.0 4.0 7.0 0
S_7138383906 75.0 3.0 4.0 7.0 0
S_7465614223 75.0 3.0 4.0 7.0 0
S_7138383911 75.0 3.0 4.0 7.0 0
S_13149044768 75.0 3.0 4.0 7.0 0
S_7138383912 75.0 3.0 4.0 7.0 0
S_7140718117 75.0 3.0 4.0 7.0 0
S_7298289230 75.0 3.0 4.0 7.0 0
S_7140718126 75.0 3.0 4.0 7.0 0
S_7140718128 75.0 3.0 4.0 7.0 0
S_7140718132 75.0 3.0 4.0 7.0 0
S_11397421981 75.0 3.0 4.0 7.0 0
S_7147042927 75.0 3.0 4.0 7.0 0
S_7147088707 75.0 3.0 4.0 7.0 0
S_7147090938 75.0 3.0 4.0 7.0 0
S_7147090939 75.0 3.0 4.0 7.0 0
S_7453315650 75.0 3.0 4.0 7.0 0
S_7453315651 75.0 3.0 4.0 7.0 0
S_7175594108 75.0 3.0 4.0 7.0 0
S_7291147464 75.0 3.0 4.0 7.0 0
S_11397632762 75.0 3.0 4.0 7.0 0
S_7175614341 75.0 3.0 4.0 7.0 0
S_7175614342 75.0 3.0 4.0 7.0 0
S_11397591498 75.0 3.0 4.0 7.0 0
S_7187815406 75.0 3.0 4.0 7.0 0
S_7298289291 75.0 3.0 4.0 7.0 0
S_10222690300 75.0 3.0 4.0 7.0 0
S_7261406107 75.0 3.0 4.0 7.0 0
S_7263113741 75.0 3.0 4.0 7.0 0
S_7465393579 75.0 3.0 4.0 7.0 0
S_7263139538 75.0 3.0 4.0 7.0 0
S_7452673901 75.0 3.0 4.0 7.0 0
S_7452673906 75.0 3.0 4.0 7.0 0
S_7263140433 75.0 3.0 4.0 7.0 0
S_7452673908 75.0 3.0 4.0 7.0 0
S_7291147457 75.0 3.0 4.0 7.0 0
S_11045649359 75.0 3.0 4.0 7.0 0
S_7291147465 75.0 3.0 4.0 7.0 0
S_7291147483 75.0 3.0 4.0 7.0 0
S_11021454465 75.0 3.0 4.0 7.0 0
S_11306557823 75.0 3.0 4.0 7.0 0
S_7291167499 75.0 3.0 4.0 7.0 0
S_7291167500 75.0 3.0 4.0 7.0 0
S_7291167504 75.0 3.0 4.0 7.0 0
S_11397591500 75.0 3.0 4.0 7.0 0
S_7291167511 75.0 3.0 4.0 7.0 0
S_11176392352 75.0 3.0 4.0 7.0 0
S_7291167520 75.0 3.0 4.0 7.0 0
S_11045649360 75.0 3.0 4.0 7.0 0
S_10991796882 75.0 3.0 4.0 7.0 0
S_7291167617 75.0 3.0 4.0 7.0 0
S_7291167619 75.0 3.0 4.0 7.0 0
S_7298268882 75.0 3.0 4.0 7.0 0
S_7298289193 75.0 3.0 4.0 7.0 0
S_11397486839 75.0 3.0 4.0 7.0 0
S_7298289198 75.0 3.0 4.0 7.0 0
S_7298289212 75.0 3.0 4.0 7.0 0
S_7298289223 75.0 3.0 4.0 7.0 0
S_7298289226 75.0 3.0 4.0 7.0 0
S_13097684026 75.0 3.0 4.0 7.0 0
S_7298289241 75.0 3.0 4.0 7.0 0
S_7298289246 75.0 3.0 4.0 7.0 0
S_7298289248 75.0 3.0 4.0 7.0 0
S_7298289316 75.0 3.0 4.0 7.0 0
S_14066685083 75.0 3.0 4.0 7.0 0
S_7298289269 75.0 3.0 4.0 7.0 0
S_7298289295 75.0 3.0 4.0 7.0 0
S_7298289292 75.0 3.0 4.0 7.0 0
S_7298289293 75.0 3.0 4.0 7.0 0
S_7298289294 75.0 3.0 4.0 7.0 0
S_11802465263 75.0 3.0 4.0 7.0 0
S_7298289296 75.0 3.0 4.0 7.0 0
S_13830106205 75.0 3.0 4.0 7.0 0
S_7298289307 75.0 3.0 4.0 7.0 0
S_7298289309 75.0 3.0 4.0 7.0 0
S_7298289314 75.0 3.0 4.0 7.0 0
S_10284858574 75.0 3.0 4.0 7.0 0
S_7298295674 75.0 3.0 4.0 7.0 0
S_11025384531 75.0 3.0 4.0 7.0 0
S_13535853200 75.0 3.0 4.0 7.0 0
S_9866129292 75.0 3.0 4.0 7.0 0
S_7298295675 75.0 3.0 4.0 7.0 0
S_10168889545 75.0 3.0 4.0 7.0 0
S_7298295681 75.0 3.0 4.0 7.0 0
S_7452673897 75.0 3.0 4.0 7.0 0
S_10991375325 75.0 3.0 4.0 7.0 0
S_7452673898 75.0 3.0 4.0 7.0 0
S_7452673899 75.0 3.0 4.0 7.0 0
S_7452673900 75.0 3.0 4.0 7.0 0
S_7452673902 75.0 3.0 4.0 7.0 0
S_7452673907 75.0 3.0 4.0 7.0 0
S_11021488560 75.0 3.0 4.0 7.0 0
S_7452673914 75.0 3.0 4.0 7.0 0
S_7452673915 75.0 3.0 4.0 7.0 0
S_7453315600 75.0 3.0 4.0 7.0 0
S_11175924867 75.0 3.0 4.0 7.0 0
S_7452673916 75.0 3.0 4.0 7.0 0
S_11021648177 75.0 3.0 4.0 7.0 0
S_7452673920 75.0 3.0 4.0 7.0 0
S_7452673921 75.0 3.0 4.0 7.0 0
S_7453315301 75.0 3.0 4.0 7.0 0
S_11015778368 75.0 3.0 4.0 7.0 0
S_7452692537 75.0 3.0 4.0 7.0 0
S_7452692541 75.0 3.0 4.0 7.0 0
S_9700074501 75.0 3.0 4.0 7.0 0
S_11015166119 75.0 3.0 4.0 7.0 0
S_7453315636 75.0 3.0 4.0 7.0 0
S_12697947081 75.0 3.0 4.0 7.0 0
S_7452712420 75.0 3.0 4.0 7.0 0
S_9990058602 75.0 3.0 4.0 7.0 0
S_9700074486 75.0 3.0 4.0 7.0 0
S_7453315302 75.0 3.0 4.0 7.0 0
S_7453315305 75.0 3.0 4.0 7.0 0
S_7453315307 75.0 3.0 4.0 7.0 0
S_7453315313 75.0 3.0 4.0 7.0 0
S_7453315387 75.0 3.0 4.0 7.0 0
S_7453315388 75.0 3.0 4.0 7.0 0
S_7453315391 75.0 3.0 4.0 7.0 0
S_7453315393 75.0 3.0 4.0 7.0 0
S_7453315399 75.0 3.0 4.0 7.0 0
S_7453315401 75.0 3.0 4.0 7.0 0
S_7453315432 75.0 3.0 4.0 7.0 0
S_7453315581 75.0 3.0 4.0 7.0 0
S_7453315582 75.0 3.0 4.0 7.0 0
S_7453315583 75.0 3.0 4.0 7.0 0
S_7453315584 75.0 3.0 4.0 7.0 0
S_7453315735 75.0 3.0 4.0 7.0 0
S_7453315613 75.0 3.0 4.0 7.0 0
S_7453315618 75.0 3.0 4.0 7.0 0
S_7453315622 75.0 3.0 4.0 7.0 0
S_13127664187 75.0 3.0 4.0 7.0 0
S_7453315627 75.0 3.0 4.0 7.0 0
S_7453315654 75.0 3.0 4.0 7.0 0
S_7453315653 75.0 3.0 4.0 7.0 0
S_7453315655 75.0 3.0 4.0 7.0 0
S_7453315731 75.0 3.0 4.0 7.0 0
S_7465393488 75.0 3.0 4.0 7.0 0
S_7465393498 75.0 3.0 4.0 7.0 0
S_7465393505 75.0 3.0 4.0 7.0 0
S_10991357069 75.0 3.0 4.0 7.0 0
S_7465393516 75.0 3.0 4.0 7.0 0
S_13645830505 75.0 3.0 4.0 7.0 0
S_7465393525 75.0 3.0 4.0 7.0 0
S_10593463228 75.0 3.0 4.0 7.0 0
S_7465393527 75.0 3.0 4.0 7.0 0
S_13645830516 75.0 3.0 4.0 7.0 0
S_13645830527 75.0 3.0 4.0 7.0 0
S_7465393572 75.0 3.0 4.0 7.0 0
S_7465393578 75.0 3.0 4.0 7.0 0
S_12260767760 75.0 3.0 4.0 7.0 0
S_7465449546 75.0 3.0 4.0 7.0 0
S_7465449555 75.0 3.0 4.0 7.0 0
S_11438132731 75.0 3.0 4.0 7.0 0
S_7465449547 75.0 3.0 4.0 7.0 0
S_7465449558 75.0 3.0 4.0 7.0 0
S_7465449554 75.0 3.0 4.0 7.0 0
S_11438132728 75.0 3.0 4.0 7.0 0
S_7465449556 75.0 3.0 4.0 7.0 0
S_7465449559 75.0 3.0 4.0 7.0 0
S_7465449560 75.0 3.0 4.0 7.0 0
S_7465449564 75.0 3.0 4.0 7.0 0
S_7465449567 75.0 3.0 4.0 7.0 0
S_7465449568 75.0 3.0 4.0 7.0 0
S_13152307781 75.0 3.0 4.0 7.0 0
S_7465449582 75.0 3.0 4.0 7.0 0
S_7465449583 75.0 3.0 4.0 7.0 0
S_7465456785 75.0 3.0 4.0 7.0 0
S_11438144606 75.0 3.0 4.0 7.0 0
S_7465449584 75.0 3.0 4.0 7.0 0
S_13152302110 75.0 3.0 4.0 7.0 0
S_7465456788 75.0 3.0 4.0 7.0 0
S_7465456798 75.0 3.0 4.0 7.0 0
S_7465456803 75.0 3.0 4.0 7.0 0
S_11021578456 75.0 3.0 4.0 7.0 0
S_7465456806 75.0 3.0 4.0 7.0 0
S_7465456810 75.0 3.0 4.0 7.0 0
S_11409454649 75.0 3.0 4.0 7.0 0
S_9700303072 75.0 3.0 4.0 7.0 0
S_7465456817 75.0 3.0 4.0 7.0 0
S_11021569037 75.0 3.0 4.0 7.0 0
S_10687741966 75.0 3.0 4.0 7.0 0
S_7465456830 75.0 3.0 4.0 7.0 0
S_7465456831 75.0 3.0 4.0 7.0 0
S_7465456839 75.0 3.0 4.0 7.0 0
S_7465456850 75.0 3.0 4.0 7.0 0
S_7465577040 75.0 3.0 4.0 7.0 0
S_7465577041 75.0 3.0 4.0 7.0 0
S_11409159131 75.0 3.0 4.0 7.0 0
S_7465577043 75.0 3.0 4.0 7.0 0
S_7465577042 75.0 3.0 4.0 7.0 0
S_11409263303 75.0 3.0 4.0 7.0 0
S_11409172855 75.0 3.0 4.0 7.0 0
S_7465577044 75.0 3.0 4.0 7.0 0
S_7465577051 75.0 3.0 4.0 7.0 0
S_7465614134 75.0 3.0 4.0 7.0 0
S_7465614144 75.0 3.0 4.0 7.0 0
S_11409171825 75.0 3.0 4.0 7.0 0
S_7465614140 75.0 3.0 4.0 7.0 0
S_7465614146 75.0 3.0 4.0 7.0 0
S_7465614145 75.0 3.0 4.0 7.0 0
S_7465614228 75.0 3.0 4.0 7.0 0
S_11002963424 75.0 3.0 4.0 7.0 0
S_7465614227 75.0 3.0 4.0 7.0 0
S_9700074465 75.0 3.0 4.0 7.0 0
S_7465614241 75.0 3.0 4.0 7.0 0
S_7465614245 75.0 3.0 4.0 7.0 0
S_7465614250 75.0 3.0 4.0 7.0 0
S_7465646171 75.0 3.0 4.0 7.0 0
S_7465646172 75.0 3.0 4.0 7.0 0
S_7465646173 75.0 3.0 4.0 7.0 0
S_9880569589 75.0 3.0 4.0 7.0 0
S_7465672893 75.0 3.0 4.0 7.0 0
S_7466375661 75.0 3.0 4.0 7.0 0
S_7466375683 75.0 3.0 4.0 7.0 0
S_13807649550 75.0 3.0 4.0 7.0 0
S_9928560993 75.0 3.0 4.0 7.0 0
S_13807649466 75.0 3.0 4.0 7.0 0
S_10017481078 75.0 3.0 4.0 7.0 0
S_10017481082 75.0 3.0 4.0 7.0 0
S_7466386859 75.0 3.0 4.0 7.0 0
S_7466386860 75.0 3.0 4.0 7.0 0
S_8935990991 75.0 3.0 4.0 7.0 0
S_13802597961 75.0 3.0 4.0 7.0 0
S_8935990993 75.0 3.0 4.0 7.0 0
S_11197323405 75.0 3.0 4.0 7.0 0
S_12161557849 75.0 3.0 4.0 7.0 0
S_9645445153 75.0 3.0 4.0 7.0 0
S_9645445136 75.0 3.0 4.0 7.0 0
S_9645445142 75.0 3.0 4.0 7.0 0
S_9645445151 75.0 3.0 4.0 7.0 0
S_10991478286 75.0 3.0 4.0 7.0 0
S_11015641079 75.0 3.0 4.0 7.0 0
S_9839093178 75.0 3.0 4.0 7.0 0
S_10695024184 75.0 3.0 4.0 7.0 0
S_9841504888 75.0 3.0 4.0 7.0 0
S_9841504889 75.0 3.0 4.0 7.0 0
S_10695024186 75.0 3.0 4.0 7.0 0
S_9841504890 75.0 3.0 4.0 7.0 0
S_12918642886 75.0 3.0 4.0 7.0 0
S_9866129293 75.0 3.0 4.0 7.0 0
S_11002921849 75.0 3.0 4.0 7.0 0
S_12180012794 75.0 3.0 4.0 7.0 0
S_9870086766 75.0 3.0 4.0 7.0 0
S_9870086765 75.0 3.0 4.0 7.0 0
S_9873963410 75.0 3.0 4.0 7.0 0
S_9870086773 75.0 3.0 4.0 7.0 0
S_11002595848 75.0 3.0 4.0 7.0 0
S_9880569588 75.0 3.0 4.0 7.0 0
S_11409454669 75.0 3.0 4.0 7.0 0
S_11409413544 75.0 3.0 4.0 7.0 0
S_9897294964 75.0 3.0 4.0 7.0 0
S_9899714418 75.0 3.0 4.0 7.0 0
S_9900960143 75.0 3.0 4.0 7.0 0
S_9900960190 75.0 3.0 4.0 7.0 0
S_9900960192 75.0 3.0 4.0 7.0 0
S_9900960191 75.0 3.0 4.0 7.0 0
S_9900969018 75.0 3.0 4.0 7.0 0
S_9900960193 75.0 3.0 4.0 7.0 0
S_9900969019 75.0 3.0 4.0 7.0 0
S_9901111716 75.0 3.0 4.0 7.0 0
S_9910918458 75.0 3.0 4.0 7.0 0
S_9910918465 75.0 3.0 4.0 7.0 0
S_11197334455 75.0 3.0 4.0 7.0 0
S_11197323412 75.0 3.0 4.0 7.0 0
S_9928560952 75.0 3.0 4.0 7.0 0
S_9928561083 75.0 3.0 4.0 7.0 0
S_11885820563 75.0 3.0 4.0 7.0 0
S_11397285061 75.0 3.0 4.0 7.0 0
S_9990058603 75.0 3.0 4.0 7.0 0
S_10017481116 75.0 3.0 4.0 7.0 0
S_9992581197 75.0 3.0 4.0 7.0 0
S_10017481077 75.0 3.0 4.0 7.0 0
S_10017481079 75.0 3.0 4.0 7.0 0
S_10017481090 75.0 3.0 4.0 7.0 0
S_10017481092 75.0 3.0 4.0 7.0 0
S_13041011657 75.0 3.0 4.0 7.0 0
S_12155114398 75.0 3.0 4.0 7.0 0
S_12155114399 75.0 3.0 4.0 7.0 0
S_10578097581 75.0 3.0 4.0 7.0 0
S_11003016445 75.0 3.0 4.0 7.0 0
S_14066685118 75.0 3.0 4.0 7.0 0
S_10038782704 75.0 3.0 4.0 7.0 0
S_10038799161 75.0 3.0 4.0 7.0 0
S_10168889544 75.0 3.0 4.0 7.0 0
S_10038799162 75.0 3.0 4.0 7.0 0
S_10038800926 75.0 3.0 4.0 7.0 0
S_10038800927 75.0 3.0 4.0 7.0 0
S_10044811670 75.0 3.0 4.0 7.0 0
S_11002587524 75.0 3.0 4.0 7.0 0
S_10209103448 75.0 3.0 4.0 7.0 0
S_10209123012 75.0 3.0 4.0 7.0 0
S_12696050651 75.0 3.0 4.0 7.0 0
S_10222738375 75.0 3.0 4.0 7.0 0
S_10222738376 75.0 3.0 4.0 7.0 0
S_12210693584 75.0 3.0 4.0 7.0 0
S_10266837400 75.0 3.0 4.0 7.0 0
S_12210693586 75.0 3.0 4.0 7.0 0
S_10266837403 75.0 3.0 4.0 7.0 0
S_13830106009 75.0 3.0 4.0 7.0 0
S_10266837401 75.0 3.0 4.0 7.0 0
S_10266837402 75.0 3.0 4.0 7.0 0
S_12157689023 75.0 3.0 4.0 7.0 0
S_12157689021 75.0 3.0 4.0 7.0 0
S_10277100419 75.0 3.0 4.0 7.0 0
S_10277100420 75.0 3.0 4.0 7.0 0
S_10277100422 75.0 3.0 4.0 7.0 0
S_10277100423 75.0 3.0 4.0 7.0 0
S_10284858578 75.0 3.0 4.0 7.0 0
S_10312430299 75.0 3.0 4.0 7.0 0
S_11028255656 75.0 3.0 4.0 7.0 0
S_12078798115 75.0 3.0 4.0 7.0 0
S_10574674451 75.0 3.0 4.0 7.0 0
S_10593463229 75.0 3.0 4.0 7.0 0
S_10593463230 75.0 3.0 4.0 7.0 0
S_10593463233 75.0 3.0 4.0 7.0 0
S_10593463231 75.0 3.0 4.0 7.0 0
S_10731125515 75.0 3.0 4.0 7.0 0
S_10687741969 75.0 3.0 4.0 7.0 0
S_10687741968 75.0 3.0 4.0 7.0 0
S_10687741973 75.0 3.0 4.0 7.0 0
S_10687741972 75.0 3.0 4.0 7.0 0
S_10687741975 75.0 3.0 4.0 7.0 0
S_10687741974 75.0 3.0 4.0 7.0 0
S_10687741977 75.0 3.0 4.0 7.0 0
S_10687741976 75.0 3.0 4.0 7.0 0
S_10687741978 75.0 3.0 4.0 7.0 0
S_12918665451 75.0 3.0 4.0 7.0 0
S_10695024185 75.0 3.0 4.0 7.0 0
S_10695024187 75.0 3.0 4.0 7.0 0
S_10716532019 75.0 3.0 4.0 7.0 0
S_10731123200 75.0 3.0 4.0 7.0 0
S_12185458377 75.0 3.0 4.0 7.0 0
S_10760860023 75.0 3.0 4.0 7.0 0
S_10760860022 75.0 3.0 4.0 7.0 0
S_10760860025 75.0 3.0 4.0 7.0 0
S_10760860024 75.0 3.0 4.0 7.0 0
S_10760860026 75.0 3.0 4.0 7.0 0
S_10820231133 75.0 3.0 4.0 7.0 0
S_11021555208 75.0 3.0 4.0 7.0 0
S_10820231134 75.0 3.0 4.0 7.0 0
S_11021548225 75.0 3.0 4.0 7.0 0
S_12187507077 75.0 3.0 4.0 7.0 0
S_10978638724 75.0 3.0 4.0 7.0 0
S_10978640858 75.0 3.0 4.0 7.0 0
S_10991357070 75.0 3.0 4.0 7.0 0
S_10991375326 75.0 3.0 4.0 7.0 0
S_10991440020 75.0 3.0 4.0 7.0 0
S_10991475147 75.0 3.0 4.0 7.0 0
S_10991651170 75.0 3.0 4.0 7.0 0
S_13717751723 75.0 3.0 4.0 7.0 0
S_10991915619 75.0 3.0 4.0 7.0 0
S_11001362539 75.0 3.0 4.0 7.0 0
S_11002607127 75.0 3.0 4.0 7.0 0
S_11002607128 75.0 3.0 4.0 7.0 0
S_11002607131 75.0 3.0 4.0 7.0 0
S_11002607133 75.0 3.0 4.0 7.0 0
S_11002607130 75.0 3.0 4.0 7.0 0
S_11002607132 75.0 3.0 4.0 7.0 0
S_11002890405 75.0 3.0 4.0 7.0 0
S_12180012791 75.0 3.0 4.0 7.0 0
S_13130886313 75.0 3.0 4.0 7.0 0
S_11002958966 75.0 3.0 4.0 7.0 0
S_11003016446 75.0 3.0 4.0 7.0 0
S_11003037132 75.0 3.0 4.0 7.0 0
S_11003036768 75.0 3.0 4.0 7.0 0
S_11006982240 75.0 3.0 4.0 7.0 0
S_11007664987 75.0 3.0 4.0 7.0 0
S_11015153617 75.0 3.0 4.0 7.0 0
S_11015166118 75.0 3.0 4.0 7.0 0
S_11015226553 75.0 3.0 4.0 7.0 0
S_11015226554 75.0 3.0 4.0 7.0 0
S_11017633320 75.0 3.0 4.0 7.0 0
S_11021428252 75.0 3.0 4.0 7.0 0
S_11399465859 75.0 3.0 4.0 7.0 0
S_11021437034 75.0 3.0 4.0 7.0 0
S_11021437033 75.0 3.0 4.0 7.0 0
S_11399469960 75.0 3.0 4.0 7.0 0
S_11021454466 75.0 3.0 4.0 7.0 0
S_11021478368 75.0 3.0 4.0 7.0 0
S_11021488561 75.0 3.0 4.0 7.0 0
S_11021514732 75.0 3.0 4.0 7.0 0
S_11021555207 75.0 3.0 4.0 7.0 0
S_11021555209 75.0 3.0 4.0 7.0 0
S_11021569038 75.0 3.0 4.0 7.0 0
S_11409461237 75.0 3.0 4.0 7.0 0
S_11021603481 75.0 3.0 4.0 7.0 0
S_11021603484 75.0 3.0 4.0 7.0 0
S_11826963020 75.0 3.0 4.0 7.0 0
S_11021676040 75.0 3.0 4.0 7.0 0
S_11021755953 75.0 3.0 4.0 7.0 0
S_11074670549 75.0 3.0 4.0 7.0 0
S_11021766299 75.0 3.0 4.0 7.0 0
S_11074670574 75.0 3.0 4.0 7.0 0
S_11025384532 75.0 3.0 4.0 7.0 0
S_11027804586 75.0 3.0 4.0 7.0 0
S_11027804588 75.0 3.0 4.0 7.0 0
S_11329623304 75.0 3.0 4.0 7.0 0
S_11028823358 75.0 3.0 4.0 7.0 0
S_11028858435 75.0 3.0 4.0 7.0 0
S_11033916343 75.0 3.0 4.0 7.0 0
S_11124633999 75.0 3.0 4.0 7.0 0
S_11033916345 75.0 3.0 4.0 7.0 0
S_11121867056 75.0 3.0 4.0 7.0 0
S_11397404813 75.0 3.0 4.0 7.0 0
S_12151901679 75.0 3.0 4.0 7.0 0
S_11397404822 75.0 3.0 4.0 7.0 0
S_12918642840 75.0 3.0 4.0 7.0 0
S_11077269488 75.0 3.0 4.0 7.0 0
S_11121286749 75.0 3.0 4.0 7.0 0
S_12997704936 75.0 3.0 4.0 7.0 0
S_11182447928 75.0 3.0 4.0 7.0 0
S_11397285063 75.0 3.0 4.0 7.0 0
S_11397388905 75.0 3.0 4.0 7.0 0
S_12151901633 75.0 3.0 4.0 7.0 0
S_11397404823 75.0 3.0 4.0 7.0 0
S_11397591499 75.0 3.0 4.0 7.0 0
S_11397593723 75.0 3.0 4.0 7.0 0
S_11397593733 75.0 3.0 4.0 7.0 0
S_11397632765 75.0 3.0 4.0 7.0 0
S_11397632764 75.0 3.0 4.0 7.0 0
S_11397632766 75.0 3.0 4.0 7.0 0
S_11409159132 75.0 3.0 4.0 7.0 0
S_11409171826 75.0 3.0 4.0 7.0 0
S_11409172856 75.0 3.0 4.0 7.0 0
S_11409245946 75.0 3.0 4.0 7.0 0
S_11409293348 75.0 3.0 4.0 7.0 0
S_11409341814 75.0 3.0 4.0 7.0 0
S_11409322629 75.0 3.0 4.0 7.0 0
S_11409327905 75.0 3.0 4.0 7.0 0
S_11409327904 75.0 3.0 4.0 7.0 0
S_11409341813 75.0 3.0 4.0 7.0 0
S_11409461238 75.0 3.0 4.0 7.0 0
S_11414136197 75.0 3.0 4.0 7.0 0
S_11419446867 75.0 3.0 4.0 7.0 0
S_11419448880 75.0 3.0 4.0 7.0 0
S_11434298150 75.0 3.0 4.0 7.0 0
S_11434298136 75.0 3.0 4.0 7.0 0
S_11434298145 75.0 3.0 4.0 7.0 0
S_11434298148 75.0 3.0 4.0 7.0 0
S_11434298147 75.0 3.0 4.0 7.0 0
S_11434298137 75.0 3.0 4.0 7.0 0
S_11434298138 75.0 3.0 4.0 7.0 0
S_11434298144 75.0 3.0 4.0 7.0 0
S_11434298143 75.0 3.0 4.0 7.0 0
S_11434298142 75.0 3.0 4.0 7.0 0
S_11434298146 75.0 3.0 4.0 7.0 0
S_11434298149 75.0 3.0 4.0 7.0 0
S_11434298151 75.0 3.0 4.0 7.0 0
S_11434512224 75.0 3.0 4.0 7.0 0
S_11434710894 75.0 3.0 4.0 7.0 0
S_11436636898 75.0 3.0 4.0 7.0 0
S_11438132729 75.0 3.0 4.0 7.0 0
S_11438132732 75.0 3.0 4.0 7.0 0
S_11438144607 75.0 3.0 4.0 7.0 0
S_11438167761 75.0 3.0 4.0 7.0 0
S_11438298623 75.0 3.0 4.0 7.0 0
S_11438418705 75.0 3.0 4.0 7.0 0
S_12196909080 75.0 3.0 4.0 7.0 0
S_13076932659 75.0 3.0 4.0 7.0 0
S_13076932657 75.0 3.0 4.0 7.0 0
S_12765390074 75.0 3.0 4.0 7.0 0
S_11826963022 75.0 3.0 4.0 7.0 0
S_12961466032 75.0 3.0 4.0 7.0 0
S_11934696261 75.0 3.0 4.0 7.0 0
S_11934696262 75.0 3.0 4.0 7.0 0
S_13715446990 75.0 3.0 4.0 7.0 0
S_11934696264 75.0 3.0 4.0 7.0 0
S_11934696263 75.0 3.0 4.0 7.0 0
S_11944239436 75.0 3.0 4.0 7.0 0
S_11944239448 75.0 3.0 4.0 7.0 0
S_11944239449 75.0 3.0 4.0 7.0 0
S_11944239437 75.0 3.0 4.0 7.0 0
S_11944239442 75.0 3.0 4.0 7.0 0
S_11944239447 75.0 3.0 4.0 7.0 0
S_11944239441 75.0 3.0 4.0 7.0 0
S_11944239438 75.0 3.0 4.0 7.0 0
S_11944239450 75.0 3.0 4.0 7.0 0
S_11944239439 75.0 3.0 4.0 7.0 0
S_11944239444 75.0 3.0 4.0 7.0 0
S_11944239440 75.0 3.0 4.0 7.0 0
S_11944239445 75.0 3.0 4.0 7.0 0
S_11944239446 75.0 3.0 4.0 7.0 0
S_11944239443 75.0 3.0 4.0 7.0 0
S_11951620623 75.0 3.0 4.0 7.0 0
S_12078798117 75.0 3.0 4.0 7.0 0
S_12151901680 75.0 3.0 4.0 7.0 0
S_12155167317 75.0 3.0 4.0 7.0 0
S_12155167316 75.0 3.0 4.0 7.0 0
S_12157689025 75.0 3.0 4.0 7.0 0
S_13086731148 75.0 3.0 4.0 7.0 0
S_12180012792 75.0 3.0 4.0 7.0 0
S_12180012793 75.0 3.0 4.0 7.0 0
S_12185458378 75.0 3.0 4.0 7.0 0
S_12186088998 75.0 3.0 4.0 7.0 0
S_12187447576 75.0 3.0 4.0 7.0 0
S_12196464673 75.0 3.0 4.0 7.0 0
S_12196521967 75.0 3.0 4.0 7.0 0
S_12206473572 75.0 3.0 4.0 7.0 0
S_12210693585 75.0 3.0 4.0 7.0 0
S_12393621581 75.0 3.0 4.0 7.0 0
S_12604472596 75.0 3.0 4.0 7.0 0
S_12696050650 75.0 3.0 4.0 7.0 0
S_12697947084 75.0 3.0 4.0 7.0 0
S_12698276488 75.0 3.0 4.0 7.0 0
S_13645830500 75.0 3.0 4.0 7.0 0
S_12732525820 75.0 3.0 4.0 7.0 0
S_13787035709 75.0 3.0 4.0 7.0 0
S_13787010485 75.0 3.0 4.0 7.0 0
S_12918642841 75.0 3.0 4.0 7.0 0
S_12961466031 75.0 3.0 4.0 7.0 0
S_12997704925 75.0 3.0 4.0 7.0 0
S_12997704926 75.0 3.0 4.0 7.0 0
S_12997704944 75.0 3.0 4.0 7.0 0
S_13787010459 75.0 3.0 4.0 7.0 0
S_12999157123 75.0 3.0 4.0 7.0 0
S_12999157125 75.0 3.0 4.0 7.0 0
S_13041011653 75.0 3.0 4.0 7.0 0
S_13041011654 75.0 3.0 4.0 7.0 0
S_13041011658 75.0 3.0 4.0 7.0 0
S_13041011659 75.0 3.0 4.0 7.0 0
S_13041011662 75.0 3.0 4.0 7.0 0
S_13041011664 75.0 3.0 4.0 7.0 0
S_13041584928 75.0 3.0 4.0 7.0 0
S_13064736701 75.0 3.0 4.0 7.0 0
S_13098366975 75.0 3.0 4.0 7.0 0
S_13127664188 75.0 3.0 4.0 7.0 0
S_13127664193 75.0 3.0 4.0 7.0 0
S_13127790409 75.0 3.0 4.0 7.0 0
S_13127790410 75.0 3.0 4.0 7.0 0
S_13127790411 75.0 3.0 4.0 7.0 0
S_13130332396 75.0 3.0 4.0 7.0 0
S_13149044766 75.0 3.0 4.0 7.0 0
S_13149044767 75.0 3.0 4.0 7.0 0
S_13152302109 75.0 3.0 4.0 7.0 0
S_13360780445 75.0 3.0 4.0 7.0 0
S_13607317195 75.0 3.0 4.0 7.0 0
S_13645830523 75.0 3.0 4.0 7.0 0
S_13645830524 75.0 3.0 4.0 7.0 0
S_13645830525 75.0 3.0 4.0 7.0 0
S_13645830526 75.0 3.0 4.0 7.0 0
S_13654038306 75.0 3.0 4.0 7.0 0
S_13654038432 75.0 3.0 4.0 7.0 0
S_13655652478 75.0 3.0 4.0 7.0 0
S_13655653224 75.0 3.0 4.0 7.0 0
S_13667500009 75.0 3.0 4.0 7.0 0
S_13787010454 75.0 3.0 4.0 7.0 0
S_13787010455 75.0 3.0 4.0 7.0 0
S_13787010456 75.0 3.0 4.0 7.0 0
S_13787010457 75.0 3.0 4.0 7.0 0
S_13787010458 75.0 3.0 4.0 7.0 0
S_13787010460 75.0 3.0 4.0 7.0 0
S_13807649465 75.0 3.0 4.0 7.0 0
S_13807649549 75.0 3.0 4.0 7.0 0
S_13811792565 75.0 3.0 4.0 7.0 0
S_13830105943 75.0 3.0 4.0 7.0 0
S_13830106010 75.0 3.0 4.0 7.0 0
S_13830106176 75.0 3.0 4.0 7.0 0
S_13830106203 75.0 3.0 4.0 7.0 0
S_13830106204 75.0 3.0 4.0 7.0 0
S_13830106206 75.0 3.0 4.0 7.0 0
S_14072070988 75.0 3.0 4.0 7.0 0
S_14074138182 75.0 3.0 4.0 7.0 0

[JUNCTIONS]
;;Name Elevation MaxDepth InitDepth SurDepth Aponded
J_251104955 901.66 3.0 0 0 100
J_1382528609 902.34 3.0 0 0 100
J_11028310396 903.17 3.0 0 0 100
J_251105277 893.79 3.0 0 0 100
J_6132933105 896.26 3.0 0 0 100
J_253448544 893.55 3.0 0 0 100
J_251105285 884.61 3.0 0 0 100
J_10277091600 884.19 3.0 0 0 100
J_1016228526 882.06 3.0 0 0 100
J_251106545 902.62 3.0 0 0 100
J_6901363519 903.21 3.0 0 0 100
J_251106828 904.90 3.0 0 0 100
J_251106717 900.71 3.0 0 0 100
J_13123179217 903.27 3.0 0 0 100
J_13360780446 902.31 3.0 0 0 100
J_6632652235 904.08 3.0 0 0 100
J_253447895 901.08 3.0 0 0 100
J_9857850176 900.52 3.0 0 0 100
J_12999157122 903.29 3.0 0 0 100
J_10221065289 897.03 3.0 0 0 100
J_253447898 901.07 3.0 0 0 100
J_253447899 900.04 3.0 0 0 100
J_1605954226 902.72 3.0 0 0 100
J_9700106334 899.25 3.0 0 0 100
J_1262043911 899.79 3.0 0 0 100
J_5281691574 901.22 3.0 0 0 100
J_253447903 899.16 3.0 0 0 100
J_12171179550 900.57 3.0 0 0 100
J_9928560951 900.90 3.0 0 0 100
J_253448523 898.01 3.0 0 0 100
J_5281691579 897.62 3.0 0 0 100
J_5281842542 896.52 3.0 0 0 100
J_253448524 896.43 3.0 0 0 100
J_1470833614 896.49 3.0 0 0 100
J_5281842558 896.84 3.0 0 0 100
J_253448537 893.93 3.0 0 0 100
J_1492407638 894.08 3.0 0 0 100
J_253448549 894.40 3.0 0 0 100
J_253448562 892.37 3.0 0 0 100
J_253448573 893.14 3.0 0 0 100
J_1368117314 892.47 3.0 0 0 100
J_253448561 890.60 3.0 0 0 100
J_1367922236 891.29 3.0 0 0 100
J_253448582 893.74 3.0 0 0 100
J_1368117329 891.33 3.0 0 0 100
J_253448566 892.70 3.0 0 0 100
J_254442569 892.61 3.0 0 0 100
J_1694231929 891.47 3.0 0 0 100
J_1368117387 893.57 3.0 0 0 100
J_253449679 897.18 3.0 0 0 100
J_13811792564 896.29 3.0 0 0 100
J_2048245857 897.75 3.0 0 0 100
J_253449681 896.32 3.0 0 0 100
J_10731123199 896.98 3.0 0 0 100
J_7466386855 895.82 3.0 0 0 100
J_5281842562 896.83 3.0 0 0 100
J_253449683 898.47 3.0 0 0 100
J_1492407642 898.67 3.0 0 0 100
J_11002574624 898.44 3.0 0 0 100
J_253449686 897.74 3.0 0 0 100
J_7466386858 899.27 3.0 0 0 100
J_7466386856 897.05 3.0 0 0 100
J_9870086764 898.29 3.0 0 0 100
J_253449692 897.17 3.0 0 0 100
J_10044811668 898.14 3.0 0 0 100
J_253449698 894.81 3.0 0 0 100
J_10017481089 898.09 3.0 0 0 100
J_9992581195 894.29 3.0 0 0 100
J_5931305385 893.31 3.0 0 0 100
J_253452075 902.60 3.0 0 0 100
J_6901407760 902.01 3.0 0 0 100
J_1382528655 904.75 3.0 0 0 100
J_7137902395 902.91 3.0 0 0 100
J_253452077 900.37 3.0 0 0 100
J_3957948342 900.17 3.0 0 0 100
J_12155167311 900.62 3.0 0 0 100
J_7466386863 900.57 3.0 0 0 100
J_253532871 890.64 3.0 0 0 100
J_253532914 891.32 3.0 0 0 100
J_5281842567 892.85 3.0 0 0 100
J_253532874 890.02 3.0 0 0 100
J_3545987055 890.91 3.0 0 0 100
J_12206473568 890.26 3.0 0 0 100
J_7121386221 892.27 3.0 0 0 100
J_253532894 890.99 3.0 0 0 100
J_11399419950 889.72 3.0 0 0 100
J_7101760803 892.59 3.0 0 0 100
J_1634932079 892.10 3.0 0 0 100
J_253532896 892.05 3.0 0 0 100
J_11021627219 890.10 3.0 0 0 100
J_253532905 890.99 3.0 0 0 100
J_7298289272 890.87 3.0 0 0 100
J_253532978 891.86 3.0 0 0 100
J_253532910 890.43 3.0 0 0 100
J_11021478367 888.76 3.0 0 0 100
J_1103017558 889.80 3.0 0 0 100
J_11135547223 890.34 3.0 0 0 100
J_253532931 890.71 3.0 0 0 100
J_11434296179 885.81 3.0 0 0 100
J_253532934 892.74 3.0 0 0 100
J_1443044870 891.75 3.0 0 0 100
J_3530426108 891.75 3.0 0 0 100
J_11002801404 890.71 3.0 0 0 100
J_253532971 890.11 3.0 0 0 100
J_11121286748 890.24 3.0 0 0 100
J_11002878595 888.79 3.0 0 0 100
J_331146193 891.63 3.0 0 0 100
J_254442570 892.17 3.0 0 0 100
J_1590229386 891.08 3.0 0 0 100
J_1367922212 892.62 3.0 0 0 100
J_1472791625 892.75 3.0 0 0 100
J_307940137 880.02 3.0 0 0 100
J_9645445129 882.79 3.0 0 0 100
J_1434089177 883.01 3.0 0 0 100
J_320240652 886.49 3.0 0 0 100
J_1371807641 888.29 3.0 0 0 100
J_1371807634 887.82 3.0 0 0 100
J_9700074489 888.66 3.0 0 0 100
J_320240654 887.86 3.0 0 0 100
J_1371807648 888.06 3.0 0 0 100
J_320240656 888.70 3.0 0 0 100
J_6193957625 886.30 3.0 0 0 100
J_12141933091 889.12 3.0 0 0 100
J_11027638241 886.29 3.0 0 0 100
J_320241385 888.18 3.0 0 0 100
J_6182692049 887.25 3.0 0 0 100
J_11015226548 889.42 3.0 0 0 100
J_11021479825 886.93 3.0 0 0 100
J_320241388 887.56 3.0 0 0 100
J_1514989637 887.89 3.0 0 0 100
J_7452692543 888.52 3.0 0 0 100
J_2225133166 889.17 3.0 0 0 100
J_320241390 888.27 3.0 0 0 100
J_4458722678 887.54 3.0 0 0 100
J_6194091031 889.01 3.0 0 0 100
J_320242565 888.71 3.0 0 0 100
J_7453315390 890.39 3.0 0 0 100
J_4458722615 888.71 3.0 0 0 100
J_4458722596 889.18 3.0 0 0 100
J_1514989618 887.47 3.0 0 0 100
J_320242567 890.04 3.0 0 0 100
J_4458722572 889.07 3.0 0 0 100
J_6177428350 891.03 3.0 0 0 100
J_7453315312 891.65 3.0 0 0 100
J_320242571 892.55 3.0 0 0 100
J_7453315398 891.08 3.0 0 0 100
J_2225133290 891.57 3.0 0 0 100
J_6904168224 891.74 3.0 0 0 100
J_320242582 899.67 3.0 0 0 100
J_6182547032 899.38 3.0 0 0 100
J_6751829037 898.50 3.0 0 0 100
J_2225133544 899.51 3.0 0 0 100
J_320242587 899.44 3.0 0 0 100
J_1347565272 899.74 3.0 0 0 100
J_7465456804 900.14 3.0 0 0 100
J_7138383916 899.65 3.0 0 0 100
J_320242814 901.81 3.0 0 0 100
J_6901280942 901.35 3.0 0 0 100
J_1371816433 899.48 3.0 0 0 100
J_6758593405 900.57 3.0 0 0 100
J_320242815 900.87 3.0 0 0 100
J_1371816389 901.76 3.0 0 0 100
J_11885729668 902.55 3.0 0 0 100
J_1371816411 900.85 3.0 0 0 100
J_320242819 901.27 3.0 0 0 100
J_6748996048 903.62 3.0 0 0 100
J_11021428239 902.75 3.0 0 0 100
J_2225133701 900.78 3.0 0 0 100
J_7291167555 891.40 3.0 0 0 100
J_1368829030 891.01 3.0 0 0 100
J_331146194 890.52 3.0 0 0 100
J_14072070989 891.22 3.0 0 0 100
J_331146195 890.03 3.0 0 0 100
J_12998590069 889.23 3.0 0 0 100
J_10991651169 891.17 3.0 0 0 100
J_4315977113 892.13 3.0 0 0 100
J_331146196 891.02 3.0 0 0 100
J_1016228579 891.72 3.0 0 0 100
J_331146200 891.56 3.0 0 0 100
J_1470833642 892.45 3.0 0 0 100
J_1718789013 890.37 3.0 0 0 100
J_331146203 891.20 3.0 0 0 100
J_10056189410 889.77 3.0 0 0 100
J_331147616 890.53 3.0 0 0 100
J_7298289287 890.35 3.0 0 0 100
J_331147621 889.06 3.0 0 0 100
J_11381136612 889.12 3.0 0 0 100
J_331147627 887.68 3.0 0 0 100
J_1374396082 890.38 3.0 0 0 100
J_1368814490 890.23 3.0 0 0 100
J_7298289289 889.76 3.0 0 0 100
J_331147702 892.29 3.0 0 0 100
J_1104250513 891.40 3.0 0 0 100
J_331147771 890.10 3.0 0 0 100
J_1371814186 890.99 3.0 0 0 100
J_1371814178 890.30 3.0 0 0 100
J_1371807570 889.34 3.0 0 0 100
J_331147773 888.98 3.0 0 0 100
J_1371807583 890.15 3.0 0 0 100
J_2225133203 890.45 3.0 0 0 100
J_1371807553 890.82 3.0 0 0 100
J_331150815 887.34 3.0 0 0 100
J_1103017563 889.03 3.0 0 0 100
J_956958701 887.39 3.0 0 0 100
J_11074670551 887.65 3.0 0 0 100
J_331150822 891.07 3.0 0 0 100
J_7298268883 889.45 3.0 0 0 100
J_10637202311 889.25 3.0 0 0 100
J_10038766779 889.66 3.0 0 0 100
J_574872968 903.13 3.0 0 0 100
J_11885834679 902.89 3.0 0 0 100
J_12961466033 901.05 3.0 0 0 100
J_7465456821 902.68 3.0 0 0 100
J_594600161 885.53 3.0 0 0 100
J_2376774439 883.36 3.0 0 0 100
J_7452692549 885.57 3.0 0 0 100
J_2225133157 886.97 3.0 0 0 100
J_594600189 887.39 3.0 0 0 100
J_594600191 886.75 3.0 0 0 100
J_7453315573 887.54 3.0 0 0 100
J_7453315574 887.41 3.0 0 0 100
J_594600200 886.58 3.0 0 0 100
J_7452692544 888.43 3.0 0 0 100
J_809461728 882.46 3.0 0 0 100
J_5485647354 884.00 3.0 0 0 100
J_809461787 883.70 3.0 0 0 100
J_3713858821 882.83 3.0 0 0 100
J_1104250512 881.87 3.0 0 0 100
J_832572431 889.53 3.0 0 0 100
J_12604472593 889.21 3.0 0 0 100
J_1633904753 890.04 3.0 0 0 100
J_955696066 906.57 3.0 0 0 100
J_9937603726 904.17 3.0 0 0 100
J_12918665449 887.45 3.0 0 0 100
J_1078253085 885.13 3.0 0 0 100
J_956975072 885.00 3.0 0 0 100
J_1104250537 885.18 3.0 0 0 100
J_1078253094 888.00 3.0 0 0 100
J_1014648217 886.40 3.0 0 0 100
J_10760860021 887.33 3.0 0 0 100
J_2066388579 891.11 3.0 0 0 100
J_6043189067 886.79 3.0 0 0 100
J_1014707800 882.50 3.0 0 0 100
J_1371828536 882.55 3.0 0 0 100
J_1371828541 880.35 3.0 0 0 100
J_1014707856 880.57 3.0 0 0 100
J_1014707848 881.83 3.0 0 0 100
J_1371828527 880.79 3.0 0 0 100
J_13830086493 879.77 3.0 0 0 100
J_7298289213 879.97 3.0 0 0 100
J_7298289244 880.82 3.0 0 0 100
J_7298289236 881.77 3.0 0 0 100
J_1014707872 879.57 3.0 0 0 100
J_13830105941 879.81 3.0 0 0 100
J_7298289211 880.80 3.0 0 0 100
J_1371828542 880.64 3.0 0 0 100
J_1014707907 880.65 3.0 0 0 100
J_1371828544 880.07 3.0 0 0 100
J_1371828530 881.77 3.0 0 0 100
J_1066108522 880.89 3.0 0 0 100
J_1016228504 886.20 3.0 0 0 100
J_1104250503 885.26 3.0 0 0 100
J_1016228517 891.68 3.0 0 0 100
J_1368117344 893.30 3.0 0 0 100
J_1368828980 893.06 3.0 0 0 100
J_1368829000 893.41 3.0 0 0 100
J_12196582428 882.71 3.0 0 0 100
J_1016228534 883.56 3.0 0 0 100
J_1683088958 882.83 3.0 0 0 100
J_10991813477 885.26 3.0 0 0 100
J_1016228556 893.41 3.0 0 0 100
J_1016228610 892.91 3.0 0 0 100
J_1634931711 892.73 3.0 0 0 100
J_1368828996 890.33 3.0 0 0 100
J_2066388589 891.40 3.0 0 0 100
J_1368828999 893.42 3.0 0 0 100
J_1016228596 882.28 3.0 0 0 100
J_1066041419 886.64 3.0 0 0 100
J_1066041427 887.61 3.0 0 0 100
J_11021766298 888.49 3.0 0 0 100
J_11074670573 885.46 3.0 0 0 100
J_1368801653 881.31 3.0 0 0 100
J_1066108534 881.76 3.0 0 0 100
J_1368801668 882.28 3.0 0 0 100
J_1103012306 883.09 3.0 0 0 100
J_7261406108 882.37 3.0 0 0 100
J_14074138183 882.86 3.0 0 0 100
J_2623251185 888.03 3.0 0 0 100
J_1104250488 885.81 3.0 0 0 100
J_1078253103 885.42 3.0 0 0 100
J_11434298134 884.31 3.0 0 0 100
J_14074138200 883.20 3.0 0 0 100
J_1078253167 887.75 3.0 0 0 100
J_1080176720 900.23 3.0 0 0 100
J_5281842556 898.14 3.0 0 0 100
J_1437330565 899.55 3.0 0 0 100
J_1080176721 897.47 3.0 0 0 100
J_1605954184 897.03 3.0 0 0 100
J_1103012303 887.14 3.0 0 0 100
J_13535865211 886.46 3.0 0 0 100
J_1103012305 886.18 3.0 0 0 100
J_1368117382 881.62 3.0 0 0 100
J_1368117384 882.83 3.0 0 0 100
J_1502865751 880.22 3.0 0 0 100
J_11021437035 890.72 3.0 0 0 100
J_11021437031 887.46 3.0 0 0 100
J_9841504887 888.34 3.0 0 0 100
J_1104241031 906.38 3.0 0 0 100
J_1104241056 905.67 3.0 0 0 100
J_11197334454 901.95 3.0 0 0 100
J_1104250501 887.72 3.0 0 0 100
J_1104250495 889.31 3.0 0 0 100
J_6194047462 889.11 3.0 0 0 100
J_6759139268 887.65 3.0 0 0 100
J_1507064149 887.52 3.0 0 0 100
J_1507064152 887.09 3.0 0 0 100
J_3649025396 887.24 3.0 0 0 100
J_1558993952 885.74 3.0 0 0 100
J_9645445144 880.57 3.0 0 0 100
J_1590229362 890.22 3.0 0 0 100
J_10056189411 889.76 3.0 0 0 100
J_1104250524 892.22 3.0 0 0 100
J_12187447575 893.59 3.0 0 0 100
J_12098136116 892.15 3.0 0 0 100
J_5281842535 884.58 3.0 0 0 100
J_10284858598 883.32 3.0 0 0 100
J_1177705626 900.31 3.0 0 0 100
J_6901276163 900.14 3.0 0 0 100
J_12187502877 901.22 3.0 0 0 100
J_1177705914 901.14 3.0 0 0 100
J_11434710893 901.61 3.0 0 0 100
J_12961466034 901.86 3.0 0 0 100
J_1198163774 902.33 3.0 0 0 100
J_1374397406 903.35 3.0 0 0 100
J_12161557850 903.57 3.0 0 0 100
J_13802597960 906.72 3.0 0 0 100
J_1198169318 897.05 3.0 0 0 100
J_7465393503 897.13 3.0 0 0 100
J_7465393502 898.41 3.0 0 0 100
J_12362900668 896.16 3.0 0 0 100
J_1198169359 896.53 3.0 0 0 100
J_5281840014 896.46 3.0 0 0 100
J_7465393504 898.33 3.0 0 0 100
J_4458722757 895.89 3.0 0 0 100
J_11812221695 898.02 3.0 0 0 100
J_1262043907 903.01 3.0 0 0 100
J_1262043930 900.86 3.0 0 0 100
J_1770465756 903.41 3.0 0 0 100
J_1262043929 902.98 3.0 0 0 100
J_1262043916 902.50 3.0 0 0 100
J_1262043909 902.44 3.0 0 0 100
J_9928560958 901.02 3.0 0 0 100
J_13105830030 901.35 3.0 0 0 100
J_1262043934 903.58 3.0 0 0 100
J_1262043910 903.71 3.0 0 0 100
J_1262043922 902.65 3.0 0 0 100
J_7466386826 902.19 3.0 0 0 100
J_1262043932 902.71 3.0 0 0 100
J_1262043912 902.38 3.0 0 0 100
J_1262043947 902.82 3.0 0 0 100
J_1262043933 902.51 3.0 0 0 100
J_7466386827 902.26 3.0 0 0 100
J_1262043914 902.28 3.0 0 0 100
J_1262043936 900.80 3.0 0 0 100
J_1262043931 900.95 3.0 0 0 100
J_1262043919 901.92 3.0 0 0 100
J_6144436485 903.18 3.0 0 0 100
J_1966466667 902.11 3.0 0 0 100
J_1262043920 903.23 3.0 0 0 100
J_1262043938 902.37 3.0 0 0 100
J_7466386830 903.00 3.0 0 0 100
J_1262043923 902.54 3.0 0 0 100
J_13807649806 902.77 3.0 0 0 100
J_1770465746 901.10 3.0 0 0 100
J_9928560957 902.65 3.0 0 0 100
J_7466386825 900.83 3.0 0 0 100
J_1770465743 902.93 3.0 0 0 100
J_1327387669 898.08 3.0 0 0 100
J_1371814296 896.30 3.0 0 0 100
J_1371814145 896.03 3.0 0 0 100
J_4204925697 898.47 3.0 0 0 100
J_1327387674 897.15 3.0 0 0 100
J_1371814201 898.00 3.0 0 0 100
J_1371814219 897.71 3.0 0 0 100
J_1923819587 896.48 3.0 0 0 100
J_1327387675 899.54 3.0 0 0 100
J_1327387677 897.73 3.0 0 0 100
J_1327387676 898.88 3.0 0 0 100
J_1371814282 897.49 3.0 0 0 100
J_7465614235 897.06 3.0 0 0 100
J_1327387682 899.28 3.0 0 0 100
J_6194157441 898.56 3.0 0 0 100
J_1371814252 899.73 3.0 0 0 100
J_1327387679 897.26 3.0 0 0 100
J_1327387681 897.17 3.0 0 0 100
J_1371814205 896.94 3.0 0 0 100
J_1327387683 897.64 3.0 0 0 100
J_7465614240 897.56 3.0 0 0 100
J_1327387684 897.54 3.0 0 0 100
J_1327387685 899.82 3.0 0 0 100
J_1371814312 897.51 3.0 0 0 100
J_7465614246 898.21 3.0 0 0 100
J_11009508675 899.64 3.0 0 0 100
J_1327387687 898.63 3.0 0 0 100
J_1327387689 898.85 3.0 0 0 100
J_1371814209 898.17 3.0 0 0 100
J_1327387686 900.42 3.0 0 0 100
J_1371816431 898.33 3.0 0 0 100
J_1327387694 899.23 3.0 0 0 100
J_1327387695 899.46 3.0 0 0 100
J_1371814298 900.08 3.0 0 0 100
J_1327387690 898.52 3.0 0 0 100
J_6152762851 899.44 3.0 0 0 100
J_1327387692 898.21 3.0 0 0 100
J_4204925700 897.47 3.0 0 0 100
J_1371816413 900.81 3.0 0 0 100
J_1327387697 901.23 3.0 0 0 100
J_1327387698 899.88 3.0 0 0 100
J_11395452271 899.76 3.0 0 0 100
J_1327387696 898.61 3.0 0 0 100
J_1371816442 901.22 3.0 0 0 100
J_1371816427 899.72 3.0 0 0 100
J_1327387702 900.17 3.0 0 0 100
J_5281727082 898.89 3.0 0 0 100
J_1327387699 899.37 3.0 0 0 100
J_1327387701 900.61 3.0 0 0 100
J_1371816463 899.74 3.0 0 0 100
J_1371816459 900.87 3.0 0 0 100
J_7465614249 900.90 3.0 0 0 100
J_7465614251 899.89 3.0 0 0 100
J_1327387704 900.33 3.0 0 0 100
J_7465614253 900.55 3.0 0 0 100
J_7465614254 900.55 3.0 0 0 100
J_1347565267 900.31 3.0 0 0 100
J_7465646179 898.40 3.0 0 0 100
J_6620856876 896.35 3.0 0 0 100
J_2225133603 898.45 3.0 0 0 100
J_7465646180 898.49 3.0 0 0 100
J_1347565269 898.62 3.0 0 0 100
J_1347565270 900.62 3.0 0 0 100
J_11021533254 898.53 3.0 0 0 100
J_7465456816 900.83 3.0 0 0 100
J_7465672901 899.62 3.0 0 0 100
J_1634931753 892.15 3.0 0 0 100
J_1368117346 891.47 3.0 0 0 100
J_1368117304 892.34 3.0 0 0 100
J_1368117316 891.97 3.0 0 0 100
J_1371814142 893.06 3.0 0 0 100
J_9700074482 893.33 3.0 0 0 100
J_1368117325 883.27 3.0 0 0 100
J_9900960189 881.21 3.0 0 0 100
J_1368117350 879.82 3.0 0 0 100
J_1502865753 882.58 3.0 0 0 100
J_1368117363 882.97 3.0 0 0 100
J_5281842539 884.18 3.0 0 0 100
J_9645445154 882.01 3.0 0 0 100
J_11434400637 880.89 3.0 0 0 100
J_11926574593 881.25 3.0 0 0 100
J_1368672364 880.37 3.0 0 0 100
J_1701004552 879.84 3.0 0 0 100
J_1558993987 880.23 3.0 0 0 100
J_7298295670 883.06 3.0 0 0 100
J_1368801655 879.99 3.0 0 0 100
J_6182817159 878.33 3.0 0 0 100
J_7101732711 879.69 3.0 0 0 100
J_1368801659 880.27 3.0 0 0 100
J_1368801669 878.93 3.0 0 0 100
J_11027804585 878.13 3.0 0 0 100
J_11077269487 877.03 3.0 0 0 100
J_1558993902 882.87 3.0 0 0 100
J_1558994002 879.05 3.0 0 0 100
J_11397593720 879.85 3.0 0 0 100
J_1368801673 882.25 3.0 0 0 100
J_1371828535 882.00 3.0 0 0 100
J_10738521350 881.66 3.0 0 0 100
J_1368801692 882.46 3.0 0 0 100
J_9681688971 883.33 3.0 0 0 100
J_1376905664 887.45 3.0 0 0 100
J_1368828978 890.60 3.0 0 0 100
J_7298289285 891.63 3.0 0 0 100
J_7291167549 892.96 3.0 0 0 100
J_2066388564 891.64 3.0 0 0 100
J_1368933533 890.27 3.0 0 0 100
J_11640782969 891.32 3.0 0 0 100
J_1368933536 890.82 3.0 0 0 100
J_14066684544 891.36 3.0 0 0 100
J_7298268884 889.47 3.0 0 0 100
J_1371807527 888.06 3.0 0 0 100
J_1371807599 889.29 3.0 0 0 100
J_1371807607 889.12 3.0 0 0 100
J_5281839991 887.75 3.0 0 0 100
J_1371807528 890.23 3.0 0 0 100
J_1371807530 887.88 3.0 0 0 100
J_13654038141 888.09 3.0 0 0 100
J_1371807531 887.61 3.0 0 0 100
J_1371807645 886.36 3.0 0 0 100
J_1371807533 889.26 3.0 0 0 100
J_13654038123 888.05 3.0 0 0 100
J_1371807573 887.23 3.0 0 0 100
J_1371807534 888.25 3.0 0 0 100
J_1371807587 890.33 3.0 0 0 100
J_1371807535 885.53 3.0 0 0 100
J_1371807649 887.80 3.0 0 0 100
J_1371807537 887.40 3.0 0 0 100
J_2486617762 888.04 3.0 0 0 100
J_9884546155 889.42 3.0 0 0 100
J_7453315722 887.99 3.0 0 0 100
J_1371807538 889.92 3.0 0 0 100
J_13667500256 890.00 3.0 0 0 100
J_1371807540 889.75 3.0 0 0 100
J_1371807651 888.53 3.0 0 0 100
J_1371807595 888.65 3.0 0 0 100
J_13654030352 889.28 3.0 0 0 100
J_1371807542 889.06 3.0 0 0 100
J_11027638242 887.82 3.0 0 0 100
J_1371807544 888.17 3.0 0 0 100
J_1371807598 886.18 3.0 0 0 100
J_1371807657 887.04 3.0 0 0 100
J_3649025393 886.15 3.0 0 0 100
J_1371807546 886.32 3.0 0 0 100
J_1371807616 887.48 3.0 0 0 100
J_13130350871 886.11 3.0 0 0 100
J_13654038433 887.64 3.0 0 0 100
J_1371807549 890.69 3.0 0 0 100
J_1371807564 888.73 3.0 0 0 100
J_1371807666 889.56 3.0 0 0 100
J_1371807551 888.37 3.0 0 0 100
J_5281840020 887.85 3.0 0 0 100
J_13503417936 888.83 3.0 0 0 100
J_1371807558 888.62 3.0 0 0 100
J_1371807559 889.05 3.0 0 0 100
J_1371807561 889.78 3.0 0 0 100
J_1371807620 889.05 3.0 0 0 100
J_1371807563 889.17 3.0 0 0 100
J_13667500010 889.31 3.0 0 0 100
J_1371807631 890.92 3.0 0 0 100
J_1578236015 891.18 3.0 0 0 100
J_1371807612 890.67 3.0 0 0 100
J_7453315612 890.29 3.0 0 0 100
J_7453315740 890.18 3.0 0 0 100
J_1371807571 888.73 3.0 0 0 100
J_1371807652 889.11 3.0 0 0 100
J_7452673911 888.95 3.0 0 0 100
J_5283343749 889.21 3.0 0 0 100
J_11021488563 889.88 3.0 0 0 100
J_1371807572 888.41 3.0 0 0 100
J_1371807661 890.32 3.0 0 0 100
J_13667500433 890.59 3.0 0 0 100
J_9700074494 888.35 3.0 0 0 100
J_11021806270 887.25 3.0 0 0 100
J_9700074492 887.79 3.0 0 0 100
J_1371807575 885.07 3.0 0 0 100
J_1371807639 886.98 3.0 0 0 100
J_1371807578 888.09 3.0 0 0 100
J_1371807627 888.77 3.0 0 0 100
J_1371807637 886.10 3.0 0 0 100
J_1371807659 886.15 3.0 0 0 100
J_7147042929 890.76 3.0 0 0 100
J_1371807586 886.64 3.0 0 0 100
J_5281842526 889.01 3.0 0 0 100
J_5283547061 889.64 3.0 0 0 100
J_1371807592 890.65 3.0 0 0 100
J_5283547056 890.29 3.0 0 0 100
J_1371807642 890.15 3.0 0 0 100
J_1371807593 890.78 3.0 0 0 100
J_1371807654 889.06 3.0 0 0 100
J_2225133216 890.33 3.0 0 0 100
J_1371807596 887.84 3.0 0 0 100
J_1514989648 887.72 3.0 0 0 100
J_11015226552 887.49 3.0 0 0 100
J_7453315652 887.59 3.0 0 0 100
J_1371807602 889.27 3.0 0 0 100
J_1371807630 889.26 3.0 0 0 100
J_1371807606 889.34 3.0 0 0 100
J_1371807660 890.14 3.0 0 0 100
J_1371807608 888.22 3.0 0 0 100
J_1514989684 887.69 3.0 0 0 100
J_7453315436 887.23 3.0 0 0 100
J_1371807614 890.42 3.0 0 0 100
J_1590229489 891.60 3.0 0 0 100
J_1371814159 892.55 3.0 0 0 100
J_13654038308 886.44 3.0 0 0 100
J_11397275311 887.39 3.0 0 0 100
J_1371807625 890.28 3.0 0 0 100
J_1371814174 892.59 3.0 0 0 100
J_12186088999 891.54 3.0 0 0 100
J_1371807626 888.66 3.0 0 0 100
J_5281842527 891.12 3.0 0 0 100
J_11021417755 886.94 3.0 0 0 100
J_1371807646 885.11 3.0 0 0 100
J_11015643600 887.06 3.0 0 0 100
J_13654030332 887.82 3.0 0 0 100
J_1371814339 891.35 3.0 0 0 100
J_1371807633 888.52 3.0 0 0 100
J_1371807636 889.30 3.0 0 0 100
J_5283343745 888.34 3.0 0 0 100
J_7138383879 889.69 3.0 0 0 100
J_7453315624 889.58 3.0 0 0 100
J_3530277755 887.40 3.0 0 0 100
J_1371807655 886.53 3.0 0 0 100
J_1371807665 889.44 3.0 0 0 100
J_5283547059 891.34 3.0 0 0 100
J_1371807644 890.59 3.0 0 0 100
J_12598616677 888.24 3.0 0 0 100
J_13654030378 889.41 3.0 0 0 100
J_7452673919 888.91 3.0 0 0 100
J_11021648174 890.50 3.0 0 0 100
J_2225133206 890.10 3.0 0 0 100
J_1371807658 886.61 3.0 0 0 100
J_2486617761 889.22 3.0 0 0 100
J_1371814115 893.92 3.0 0 0 100
J_1371814269 892.79 3.0 0 0 100
J_1371814238 893.50 3.0 0 0 100
J_1371814161 892.96 3.0 0 0 100
J_1371814117 891.38 3.0 0 0 100
J_1371814138 893.20 3.0 0 0 100
J_3324726802 893.14 3.0 0 0 100
J_1371814248 893.33 3.0 0 0 100
J_1371814124 892.53 3.0 0 0 100
J_1371814175 893.82 3.0 0 0 100
J_1371814188 893.22 3.0 0 0 100
J_1371814251 892.02 3.0 0 0 100
J_1371814172 894.23 3.0 0 0 100
J_1371814128 896.47 3.0 0 0 100
J_1371814230 895.04 3.0 0 0 100
J_9700074467 894.60 3.0 0 0 100
J_1578238465 894.53 3.0 0 0 100
J_6617329692 895.76 3.0 0 0 100
J_1371814129 895.77 3.0 0 0 100
J_1371814193 896.48 3.0 0 0 100
J_1371814130 890.75 3.0 0 0 100
J_1371814132 894.56 3.0 0 0 100
J_1371814194 894.07 3.0 0 0 100
J_1371814294 894.12 3.0 0 0 100
J_1371814162 891.87 3.0 0 0 100
J_1598804290 891.62 3.0 0 0 100
J_1371814140 893.71 3.0 0 0 100
J_1578237528 892.52 3.0 0 0 100
J_1371814297 892.65 3.0 0 0 100
J_1371814255 892.86 3.0 0 0 100
J_1371814237 895.87 3.0 0 0 100
J_9897294963 893.70 3.0 0 0 100
J_1371814316 895.15 3.0 0 0 100
J_1371814146 892.66 3.0 0 0 100
J_1371814246 892.27 3.0 0 0 100
J_1371814148 893.06 3.0 0 0 100
J_1371814154 895.81 3.0 0 0 100
J_1371814281 895.97 3.0 0 0 100
J_1371814156 893.34 3.0 0 0 100
J_1371814265 893.14 3.0 0 0 100
J_1457451923 893.92 3.0 0 0 100
J_1371814158 891.87 3.0 0 0 100
J_1371814160 894.38 3.0 0 0 100
J_1371814267 893.53 3.0 0 0 100
J_7465393489 895.88 3.0 0 0 100
J_1371814332 892.26 3.0 0 0 100
J_1371814176 893.64 3.0 0 0 100
J_1371814300 892.70 3.0 0 0 100
J_1371814326 894.07 3.0 0 0 100
J_1371814331 893.16 3.0 0 0 100
J_10991440018 890.17 3.0 0 0 100
J_5281842533 890.55 3.0 0 0 100
J_1371814310 893.84 3.0 0 0 100
J_1371814191 896.41 3.0 0 0 100
J_1371814254 896.50 3.0 0 0 100
J_1371814222 896.57 3.0 0 0 100
J_7465393486 896.48 3.0 0 0 100
J_4204925699 897.57 3.0 0 0 100
J_1371814327 898.22 3.0 0 0 100
J_7465614239 897.41 3.0 0 0 100
J_1371814206 890.89 3.0 0 0 100
J_1371814223 891.52 3.0 0 0 100
J_5281842546 893.02 3.0 0 0 100
J_5281839988 893.20 3.0 0 0 100
J_1371814207 895.70 3.0 0 0 100
J_1371814280 892.35 3.0 0 0 100
J_11395452270 898.23 3.0 0 0 100
J_12765426026 893.00 3.0 0 0 100
J_6617328973 897.26 3.0 0 0 100
J_1371814232 894.59 3.0 0 0 100
J_1371814285 894.52 3.0 0 0 100
J_1371814239 894.74 3.0 0 0 100
J_5281840018 891.50 3.0 0 0 100
J_5281840016 892.71 3.0 0 0 100
J_5281842545 894.52 3.0 0 0 100
J_1371814308 893.00 3.0 0 0 100
J_10991475142 893.76 3.0 0 0 100
J_1371814284 893.11 3.0 0 0 100
J_1371814314 892.93 3.0 0 0 100
J_7097657282 893.25 3.0 0 0 100
J_9700074460 897.60 3.0 0 0 100
J_1371814324 892.91 3.0 0 0 100
J_7452673893 891.41 3.0 0 0 100
J_5281840019 890.27 3.0 0 0 100
J_5283343739 891.79 3.0 0 0 100
J_1371816450 898.95 3.0 0 0 100
J_1371816422 902.37 3.0 0 0 100
J_1371816419 900.10 3.0 0 0 100
J_1371816391 902.82 3.0 0 0 100
J_1371816400 902.49 3.0 0 0 100
J_1371816415 899.36 3.0 0 0 100
J_1371816443 901.82 3.0 0 0 100
J_1371816460 899.56 3.0 0 0 100
J_1371816401 899.07 3.0 0 0 100
J_1371816402 901.30 3.0 0 0 100
J_1371816464 902.28 3.0 0 0 100
J_1371816425 901.53 3.0 0 0 100
J_1371816407 900.15 3.0 0 0 100
J_1371816435 899.73 3.0 0 0 100
J_11438418704 899.14 3.0 0 0 100
J_1371816440 901.51 3.0 0 0 100
J_11885696210 902.42 3.0 0 0 100
J_1371816417 899.16 3.0 0 0 100
J_1371816446 899.35 3.0 0 0 100
J_5281842548 898.50 3.0 0 0 100
J_4730103812 899.31 3.0 0 0 100
J_1371816441 901.48 3.0 0 0 100
J_6901280956 902.62 3.0 0 0 100
J_7465456827 900.84 3.0 0 0 100
J_1371816462 899.12 3.0 0 0 100
J_1371828528 881.40 3.0 0 0 100
J_1371828545 881.10 3.0 0 0 100
J_7298289263 880.31 3.0 0 0 100
J_1371828540 881.95 3.0 0 0 100
J_7298289227 881.37 3.0 0 0 100
J_1371828539 881.99 3.0 0 0 100
J_1371828531 880.14 3.0 0 0 100
J_13830106177 881.88 3.0 0 0 100
J_9900960144 882.14 3.0 0 0 100
J_11397402715 880.85 3.0 0 0 100
J_1371828533 879.64 3.0 0 0 100
J_7298289303 879.52 3.0 0 0 100
J_10084814543 881.67 3.0 0 0 100
J_7140718125 881.64 3.0 0 0 100
J_7140718121 880.02 3.0 0 0 100
J_1371828543 879.14 3.0 0 0 100
J_7298289304 880.63 3.0 0 0 100
J_10266837398 878.55 3.0 0 0 100
J_7140718123 880.41 3.0 0 0 100
J_7298289290 888.27 3.0 0 0 100
J_1511238410 904.48 3.0 0 0 100
J_1376905673 888.65 3.0 0 0 100
J_1376905667 888.22 3.0 0 0 100
J_1376905672 887.82 3.0 0 0 100
J_1376905671 890.50 3.0 0 0 100
J_7452712421 889.03 3.0 0 0 100
J_13655653225 888.12 3.0 0 0 100
J_1382528610 904.26 3.0 0 0 100
J_1384732339 903.36 3.0 0 0 100
J_9982048425 902.06 3.0 0 0 100
J_7465456846 901.84 3.0 0 0 100
J_11885832888 903.36 3.0 0 0 100
J_1384732709 900.49 3.0 0 0 100
J_11885832889 902.06 3.0 0 0 100
J_7465456828 900.92 3.0 0 0 100
J_1384732910 900.48 3.0 0 0 100
J_7465456843 900.62 3.0 0 0 100
J_9982048419 900.85 3.0 0 0 100
J_11409245945 900.72 3.0 0 0 100
J_1384733202 900.68 3.0 0 0 100
J_11397260844 901.06 3.0 0 0 100
J_1585741084 882.15 3.0 0 0 100
J_11006982239 900.48 3.0 0 0 100
J_1605954141 899.60 3.0 0 0 100
J_1439027926 891.04 3.0 0 0 100
J_1505269146 891.20 3.0 0 0 100
J_1443044904 892.16 3.0 0 0 100
J_1631443363 892.40 3.0 0 0 100
J_1443044792 892.09 3.0 0 0 100
J_11002846646 893.68 3.0 0 0 100
J_13130886315 893.05 3.0 0 0 100
J_9867253967 893.04 3.0 0 0 100
J_11002846647 891.29 3.0 0 0 100
J_1443044865 891.30 3.0 0 0 100
J_1443044896 893.67 3.0 0 0 100
J_7298289268 890.08 3.0 0 0 100
J_1443044900 893.75 3.0 0 0 100
J_1631443235 893.20 3.0 0 0 100
J_1457451930 893.58 3.0 0 0 100
J_1457451925 894.31 3.0 0 0 100
J_1598804288 892.57 3.0 0 0 100
J_5281839987 893.62 3.0 0 0 100
J_1470833636 897.67 3.0 0 0 100
J_1470833628 896.69 3.0 0 0 100
J_1470833622 898.72 3.0 0 0 100
J_1470833646 897.98 3.0 0 0 100
J_1470833630 896.53 3.0 0 0 100
J_1470833645 895.70 3.0 0 0 100
J_1470833629 890.78 3.0 0 0 100
J_10716532018 892.18 3.0 0 0 100
J_1470833639 897.04 3.0 0 0 100
J_1470833634 896.20 3.0 0 0 100
J_1470833650 897.97 3.0 0 0 100
J_6632636571 898.53 3.0 0 0 100
J_1470833643 894.94 3.0 0 0 100
J_11017633319 896.06 3.0 0 0 100
J_1492407658 894.23 3.0 0 0 100
J_11414136196 898.33 3.0 0 0 100
J_11182447927 891.17 3.0 0 0 100
J_1485730731 892.84 3.0 0 0 100
J_6180767894 894.27 3.0 0 0 100
J_1485730738 893.79 3.0 0 0 100
J_6142680814 893.86 3.0 0 0 100
J_1485730754 893.28 3.0 0 0 100
J_1485730751 893.75 3.0 0 0 100
J_1485730776 893.19 3.0 0 0 100
J_6142680813 893.19 3.0 0 0 100
J_1485730755 894.96 3.0 0 0 100
J_1485730774 893.43 3.0 0 0 100
J_1485730775 894.45 3.0 0 0 100
J_6142628592 893.26 3.0 0 0 100
J_1492407651 895.11 3.0 0 0 100
J_1492407663 893.99 3.0 0 0 100
J_1492407639 895.61 3.0 0 0 100
J_9839093177 896.75 3.0 0 0 100
J_9839093175 894.94 3.0 0 0 100
J_1492407640 897.19 3.0 0 0 100
J_10017481091 896.92 3.0 0 0 100
J_1634931733 895.78 3.0 0 0 100
J_1492407645 899.39 3.0 0 0 100
J_13041011660 900.38 3.0 0 0 100
J_2048245856 899.33 3.0 0 0 100
J_11184922059 900.02 3.0 0 0 100
J_1492407646 894.67 3.0 0 0 100
J_7466375684 896.41 3.0 0 0 100
J_11017641140 894.58 3.0 0 0 100
J_1492407652 894.24 3.0 0 0 100
J_1497326586 902.82 3.0 0 0 100
J_5281840005 902.37 3.0 0 0 100
J_10841617807 903.05 3.0 0 0 100
J_7298289308 879.99 3.0 0 0 100
J_1502865760 878.98 3.0 0 0 100
J_7101732724 879.40 3.0 0 0 100
J_1558993985 880.25 3.0 0 0 100
J_1502865776 879.00 3.0 0 0 100
J_1502865762 879.10 3.0 0 0 100
J_10209103447 878.20 3.0 0 0 100
J_7140718119 879.45 3.0 0 0 100
J_1852671167 879.20 3.0 0 0 100
J_1502865774 880.28 3.0 0 0 100
J_1558993906 879.98 3.0 0 0 100
J_1558994048 880.05 3.0 0 0 100
J_1505269133 890.46 3.0 0 0 100
J_1505269186 891.79 3.0 0 0 100
J_7101760810 891.61 3.0 0 0 100
J_1505269171 878.24 3.0 0 0 100
J_7298289243 880.37 3.0 0 0 100
J_7298289210 879.38 3.0 0 0 100
J_11028823357 879.94 3.0 0 0 100
J_1507064166 886.06 3.0 0 0 100
J_13655652829 886.58 3.0 0 0 100
J_1511238406 902.97 3.0 0 0 100
J_12999157124 903.69 3.0 0 0 100
J_9928561082 903.84 3.0 0 0 100
J_6901363516 904.28 3.0 0 0 100
J_4458722643 888.65 3.0 0 0 100
J_4458722689 888.08 3.0 0 0 100
J_11015173157 888.49 3.0 0 0 100
J_1514989656 887.83 3.0 0 0 100
J_7453315306 887.76 3.0 0 0 100
J_7453315718 888.53 3.0 0 0 100
J_7452673917 890.28 3.0 0 0 100
J_1514989685 889.73 3.0 0 0 100
J_9901111715 882.33 3.0 0 0 100
J_1558993988 882.65 3.0 0 0 100
J_1558993939 877.71 3.0 0 0 100
J_7298289310 878.79 3.0 0 0 100
J_1558993929 879.18 3.0 0 0 100
J_1558994010 876.78 3.0 0 0 100
J_11397404812 876.81 3.0 0 0 100
J_1558993961 878.32 3.0 0 0 100
J_1558993933 878.18 3.0 0 0 100
J_7298289189 879.78 3.0 0 0 100
J_12244701790 880.60 3.0 0 0 100
J_11397404821 876.90 3.0 0 0 100
J_10209123011 879.37 3.0 0 0 100
J_6142293179 880.49 3.0 0 0 100
J_1558993942 878.44 3.0 0 0 100
J_12196464672 877.17 3.0 0 0 100
J_11397593732 879.22 3.0 0 0 100
J_7175603121 876.48 3.0 0 0 100
J_10991915618 887.22 3.0 0 0 100
J_1558993960 877.85 3.0 0 0 100
J_12151901678 878.47 3.0 0 0 100
J_7175594106 877.83 3.0 0 0 100
J_7175594101 876.06 3.0 0 0 100
J_11045649363 878.67 3.0 0 0 100
J_11045649364 878.42 3.0 0 0 100
J_7101732727 879.65 3.0 0 0 100
J_7101732710 879.61 3.0 0 0 100
J_1558993992 886.40 3.0 0 0 100
J_7101732723 879.84 3.0 0 0 100
J_1558994009 879.06 3.0 0 0 100
J_1558994055 880.44 3.0 0 0 100
J_11397404814 877.43 3.0 0 0 100
J_1558994024 882.14 3.0 0 0 100
J_10978638722 881.91 3.0 0 0 100
J_1558994025 882.67 3.0 0 0 100
J_1558994047 880.17 3.0 0 0 100
J_10978640856 882.78 3.0 0 0 100
J_7291167618 880.27 3.0 0 0 100
J_1589223971 893.95 3.0 0 0 100
J_1590229329 892.04 3.0 0 0 100
J_1590229523 892.48 3.0 0 0 100
J_1590229591 889.82 3.0 0 0 100
J_1605954172 898.25 3.0 0 0 100
J_1605954220 899.64 3.0 0 0 100
J_1605954168 897.24 3.0 0 0 100
J_1605954178 898.56 3.0 0 0 100
J_1605954206 898.04 3.0 0 0 100
J_11375356861 897.62 3.0 0 0 100
J_1605954179 897.71 3.0 0 0 100
J_7466456019 899.78 3.0 0 0 100
J_1605954215 899.02 3.0 0 0 100
J_11169596337 898.47 3.0 0 0 100
J_7291147477 892.61 3.0 0 0 100
J_1633904682 897.78 3.0 0 0 100
J_1633904785 898.02 3.0 0 0 100
J_7465449566 895.35 3.0 0 0 100
J_1633904727 896.09 3.0 0 0 100
J_13152307780 894.94 3.0 0 0 100
J_10232936572 891.22 3.0 0 0 100
J_1633904764 896.84 3.0 0 0 100
J_7465449561 897.44 3.0 0 0 100
J_7465449565 895.55 3.0 0 0 100
J_7465449562 896.75 3.0 0 0 100
J_7465449557 898.01 3.0 0 0 100
J_13152322515 895.90 3.0 0 0 100
J_1633904819 894.69 3.0 0 0 100
J_7465393573 895.97 3.0 0 0 100
J_7263113742 895.16 3.0 0 0 100
J_11002858225 895.75 3.0 0 0 100
J_1634931522 892.55 3.0 0 0 100
J_1634931847 889.54 3.0 0 0 100
J_1634931610 898.33 3.0 0 0 100
J_7298289286 891.57 3.0 0 0 100
J_10044811669 895.56 3.0 0 0 100
J_1634931831 892.31 3.0 0 0 100
J_11003036767 889.98 3.0 0 0 100
J_1634931868 891.01 3.0 0 0 100
J_12393621582 892.01 3.0 0 0 100
J_5281842568 892.59 3.0 0 0 100
J_5281842566 892.62 3.0 0 0 100
J_1634963569 897.04 3.0 0 0 100
J_1697942242 881.03 3.0 0 0 100
J_5281842584 881.10 3.0 0 0 100
J_5281842576 882.93 3.0 0 0 100
J_1701004555 879.72 3.0 0 0 100
J_13098366974 882.26 3.0 0 0 100
J_1718788929 889.45 3.0 0 0 100
J_10277100421 888.62 3.0 0 0 100
J_1718789067 890.62 3.0 0 0 100
J_1718788930 891.96 3.0 0 0 100
J_3649031394 890.20 3.0 0 0 100
J_1759857345 898.92 3.0 0 0 100
J_2987147432 900.43 3.0 0 0 100
J_1770465751 901.14 3.0 0 0 100
J_1770465753 902.48 3.0 0 0 100
J_7298295682 878.28 3.0 0 0 100
J_13041011663 899.13 3.0 0 0 100
J_2048245859 898.84 3.0 0 0 100
J_13041011665 900.44 3.0 0 0 100
J_11002607129 898.10 3.0 0 0 100
J_11056570933 889.43 3.0 0 0 100
J_2376774391 887.43 3.0 0 0 100
J_11434512223 887.35 3.0 0 0 100
J_2225133167 888.37 3.0 0 0 100
J_2225133173 888.66 3.0 0 0 100
J_2225133175 889.94 3.0 0 0 100
J_9700074499 887.65 3.0 0 0 100
J_2225133195 890.96 3.0 0 0 100
J_2225133212 889.51 3.0 0 0 100
J_7147088714 890.30 3.0 0 0 100
J_2225133199 890.57 3.0 0 0 100
J_12698276487 890.16 3.0 0 0 100
J_11021676037 889.86 3.0 0 0 100
J_13645830539 892.56 3.0 0 0 100
J_7453315614 891.30 3.0 0 0 100
J_2225133295 892.36 3.0 0 0 100
J_2225133273 891.12 3.0 0 0 100
J_11021755952 891.73 3.0 0 0 100
J_7453315392 892.55 3.0 0 0 100
J_2225133309 892.07 3.0 0 0 100
J_2225133523 898.34 3.0 0 0 100
J_6753110523 897.18 3.0 0 0 100
J_6753110522 896.34 3.0 0 0 100
J_2225133530 900.02 3.0 0 0 100
J_6753110521 898.93 3.0 0 0 100
J_7263139539 900.12 3.0 0 0 100
J_2225133551 898.21 3.0 0 0 100
J_11438298620 900.11 3.0 0 0 100
J_7465456797 900.21 3.0 0 0 100
J_9982048431 900.56 3.0 0 0 100
J_6748996026 903.14 3.0 0 0 100
J_11846741326 901.70 3.0 0 0 100
J_7453315632 887.62 3.0 0 0 100
J_2376774417 883.17 3.0 0 0 100
J_13720252591 883.09 3.0 0 0 100
J_12141933090 888.37 3.0 0 0 100
J_13656305932 888.05 3.0 0 0 100
J_2508149195 902.47 3.0 0 0 100
J_2578488068 881.18 3.0 0 0 100
J_13607317196 881.19 3.0 0 0 100
J_13607317191 880.22 3.0 0 0 100
J_2578488069 881.44 3.0 0 0 100
J_2623258606 887.58 3.0 0 0 100
J_2987147429 902.80 3.0 0 0 100
J_2987148124 901.86 3.0 0 0 100
J_7465614187 901.34 3.0 0 0 100
J_2987149133 899.43 3.0 0 0 100
J_2987148123 900.88 3.0 0 0 100
J_11885834678 902.81 3.0 0 0 100
J_7465614189 901.39 3.0 0 0 100
J_3300742565 882.52 3.0 0 0 100
J_3324730976 891.03 3.0 0 0 100
J_3528034343 903.03 3.0 0 0 100
J_6748996035 903.38 3.0 0 0 100
J_9700303070 903.05 3.0 0 0 100
J_3545987056 892.53 3.0 0 0 100
J_11003046329 891.10 3.0 0 0 100
J_11003034318 892.79 3.0 0 0 100
J_3649025375 886.59 3.0 0 0 100
J_3649025381 879.45 3.0 0 0 100
J_13655652480 884.83 3.0 0 0 100
J_3649031405 892.24 3.0 0 0 100
J_7147090917 881.57 3.0 0 0 100
J_13715446989 884.63 3.0 0 0 100
J_13064733100 896.23 3.0 0 0 100
J_4458722522 896.26 3.0 0 0 100
J_4458722721 897.01 3.0 0 0 100
J_4458722823 896.39 3.0 0 0 100
J_4458722559 896.64 3.0 0 0 100
J_4458722553 889.72 3.0 0 0 100
J_7452673912 888.35 3.0 0 0 100
J_7453315599 891.59 3.0 0 0 100
J_13041584929 894.34 3.0 0 0 100
J_7138383902 888.16 3.0 0 0 100
J_11419446866 890.18 3.0 0 0 100
J_11015153616 891.52 3.0 0 0 100
J_4458722622 895.52 3.0 0 0 100
J_4458722731 896.33 3.0 0 0 100
J_11007663483 895.21 3.0 0 0 100
J_4458722675 898.07 3.0 0 0 100
J_4458722626 887.05 3.0 0 0 100
J_7453315580 889.58 3.0 0 0 100
J_7453315717 887.19 3.0 0 0 100
J_7453315577 888.52 3.0 0 0 100
J_12690216001 887.66 3.0 0 0 100
J_4458722633 890.41 3.0 0 0 100
J_10593463232 893.57 3.0 0 0 100
J_7263140430 890.62 3.0 0 0 100
J_7138383899 888.11 3.0 0 0 100
J_11007663477 897.45 3.0 0 0 100
J_11812221683 896.37 3.0 0 0 100
J_4458722815 896.51 3.0 0 0 100
J_4458722824 897.30 3.0 0 0 100
J_6141750279 897.10 3.0 0 0 100
J_4730103806 900.33 3.0 0 0 100
J_4730103816 897.86 3.0 0 0 100
J_9866129294 901.00 3.0 0 0 100
J_5281691576 896.88 3.0 0 0 100
J_5281691577 898.17 3.0 0 0 100
J_5281842544 896.95 3.0 0 0 100
J_5281727083 899.76 3.0 0 0 100
J_7465614252 901.31 3.0 0 0 100
J_5281839990 887.73 3.0 0 0 100
J_5281840000 902.41 3.0 0 0 100
J_6902150001 900.41 3.0 0 0 100
J_11197334457 901.80 3.0 0 0 100
J_5281840017 893.12 3.0 0 0 100
J_5281842521 889.37 3.0 0 0 100
J_6168910216 887.93 3.0 0 0 100
J_5281842523 887.24 3.0 0 0 100
J_13656305937 887.59 3.0 0 0 100
J_5283547058 889.16 3.0 0 0 100
J_13667500182 890.17 3.0 0 0 100
J_5281842528 891.01 3.0 0 0 100
J_5281842531 892.15 3.0 0 0 100
J_5283343737 891.45 3.0 0 0 100
J_13652990523 891.04 3.0 0 0 100
J_5281842532 891.96 3.0 0 0 100
J_5281842534 885.51 3.0 0 0 100
J_5281842537 886.66 3.0 0 0 100
J_5281842536 885.02 3.0 0 0 100
J_5281842538 884.59 3.0 0 0 100
J_10991832380 885.92 3.0 0 0 100
J_5281842557 898.78 3.0 0 0 100
J_5281842559 895.20 3.0 0 0 100
J_5281842560 897.41 3.0 0 0 100
J_5281842561 898.06 3.0 0 0 100
J_5281842563 896.66 3.0 0 0 100
J_5281842564 897.61 3.0 0 0 100
J_5281842565 891.38 3.0 0 0 100
J_7101760800 890.19 3.0 0 0 100
J_5281842569 883.12 3.0 0 0 100
J_6911835051 880.96 3.0 0 0 100
J_5281842571 881.57 3.0 0 0 100
J_6911835052 880.30 3.0 0 0 100
J_5281842573 881.17 3.0 0 0 100
J_6911835053 881.11 3.0 0 0 100
J_5281842574 882.33 3.0 0 0 100
J_5281842575 881.33 3.0 0 0 100
J_6911835054 880.55 3.0 0 0 100
J_5283343736 891.24 3.0 0 0 100
J_11395872426 890.89 3.0 0 0 100
J_5283343744 889.25 3.0 0 0 100
J_11015173154 888.14 3.0 0 0 100
J_11436636897 890.15 3.0 0 0 100
J_5283343748 890.59 3.0 0 0 100
J_13127664189 890.79 3.0 0 0 100
J_5283343750 890.86 3.0 0 0 100
J_5283343751 890.08 3.0 0 0 100
J_5283343753 888.97 3.0 0 0 100
J_13667499252 889.65 3.0 0 0 100
J_10687414876 892.07 3.0 0 0 100
J_7147063884 892.49 3.0 0 0 100
J_7334211452 881.82 3.0 0 0 100
J_5928041457 898.62 3.0 0 0 100
J_10017481076 899.60 3.0 0 0 100
J_7466386861 899.12 3.0 0 0 100
J_12155167315 899.97 3.0 0 0 100
J_10038712736 893.79 3.0 0 0 100
J_5931305386 894.76 3.0 0 0 100
J_12180012795 893.59 3.0 0 0 100
J_6043189063 887.85 3.0 0 0 100
J_12196521966 887.59 3.0 0 0 100
J_6137413125 888.46 3.0 0 0 100
J_11363958154 889.27 3.0 0 0 100
J_11397801173 889.68 3.0 0 0 100
J_7291167515 880.44 3.0 0 0 100
J_6142628590 893.94 3.0 0 0 100
J_6168910212 889.03 3.0 0 0 100
J_7452673924 889.15 3.0 0 0 100
J_6168910213 888.10 3.0 0 0 100
J_12185851902 887.66 3.0 0 0 100
J_11021479822 889.73 3.0 0 0 100
J_6177428349 890.52 3.0 0 0 100
J_9899714417 888.69 3.0 0 0 100
J_11021465194 901.31 3.0 0 0 100
J_11419448879 889.08 3.0 0 0 100
J_10185513621 878.69 3.0 0 0 100
J_11015706619 886.25 3.0 0 0 100
J_13130422494 889.01 3.0 0 0 100
J_6194091030 888.58 3.0 0 0 100
J_7452692540 885.93 3.0 0 0 100
J_7452692538 888.50 3.0 0 0 100
J_6194238913 885.15 3.0 0 0 100
J_13130332397 885.43 3.0 0 0 100
J_6194238914 885.32 3.0 0 0 100
J_13127790412 885.37 3.0 0 0 100
J_7147090948 885.15 3.0 0 0 100
J_6617328935 895.46 3.0 0 0 100
J_12635196524 897.40 3.0 0 0 100
J_13076932658 897.15 3.0 0 0 100
J_6617328955 897.27 3.0 0 0 100
J_11812221673 895.12 3.0 0 0 100
J_11007664986 896.54 3.0 0 0 100
J_6617329698 897.55 3.0 0 0 100
J_11009607007 894.65 3.0 0 0 100
J_6617329699 896.78 3.0 0 0 100
J_6617329732 895.38 3.0 0 0 100
J_11812221689 896.43 3.0 0 0 100
J_11812221684 897.55 3.0 0 0 100
J_6620856859 896.63 3.0 0 0 100
J_11812221682 898.14 3.0 0 0 100
J_10221065294 899.03 3.0 0 0 100
J_6632652201 903.82 3.0 0 0 100
J_10076263537 904.32 3.0 0 0 100
J_6632652240 903.51 3.0 0 0 100
J_11041656612 904.21 3.0 0 0 100
J_6746682761 902.30 3.0 0 0 100
J_6894486324 904.72 3.0 0 0 100
J_6746708992 902.20 3.0 0 0 100
J_9700303071 904.22 3.0 0 0 100
J_6748996039 902.67 3.0 0 0 100
J_7465456856 902.33 3.0 0 0 100
J_6748996042 903.56 3.0 0 0 100
J_6748996040 902.52 3.0 0 0 100
J_7465456851 901.81 3.0 0 0 100
J_11409263307 901.89 3.0 0 0 100
J_6748996044 901.75 3.0 0 0 100
J_6748996043 901.91 3.0 0 0 100
J_6748996075 902.18 3.0 0 0 100
J_6748996045 902.74 3.0 0 0 100
J_6748996047 903.05 3.0 0 0 100
J_6748996049 905.53 3.0 0 0 100
J_11944239451 904.31 3.0 0 0 100
J_7465614139 906.62 3.0 0 0 100
J_6749434106 891.00 3.0 0 0 100
J_12185986689 892.19 3.0 0 0 100
J_7452692536 889.18 3.0 0 0 100
J_11438167760 897.11 3.0 0 0 100
J_6755551374 902.06 3.0 0 0 100
J_6755551377 901.68 3.0 0 0 100
J_11409293349 900.93 3.0 0 0 100
J_10687741979 901.47 3.0 0 0 100
J_6755551379 900.97 3.0 0 0 100
J_11409322630 902.19 3.0 0 0 100
J_11409346234 901.07 3.0 0 0 100
J_6758593404 901.12 3.0 0 0 100
J_6884970118 902.13 3.0 0 0 100
J_6884970119 902.63 3.0 0 0 100
J_11197334456 900.78 3.0 0 0 100
J_8935990994 903.26 3.0 0 0 100
J_6894243326 888.47 3.0 0 0 100
J_6894243328 890.53 3.0 0 0 100
J_6894486323 906.35 3.0 0 0 100
J_6901276162 901.72 3.0 0 0 100
J_11885820562 902.64 3.0 0 0 100
J_6901363518 902.11 3.0 0 0 100
J_6901363517 904.89 3.0 0 0 100
J_6904168220 893.00 3.0 0 0 100
J_6904168225 893.04 3.0 0 0 100
J_7453315400 890.96 3.0 0 0 100
J_7097657283 891.72 3.0 0 0 100
J_7465393495 892.87 3.0 0 0 100
J_11027804587 878.29 3.0 0 0 100
J_7101732726 878.98 3.0 0 0 100
J_7101732730 880.40 3.0 0 0 100
J_7101732731 881.02 3.0 0 0 100
J_7298289306 881.25 3.0 0 0 100
J_7101732735 881.10 3.0 0 0 100
J_7101760804 892.02 3.0 0 0 100
J_14066684771 890.88 3.0 0 0 100
J_14066684791 891.19 3.0 0 0 100
J_7101760812 891.39 3.0 0 0 100
J_7101760813 891.23 3.0 0 0 100
J_7101760816 891.58 3.0 0 0 100
J_10038722876 890.65 3.0 0 0 100
J_7121386231 892.12 3.0 0 0 100
J_10719511590 903.93 3.0 0 0 100
J_7138383883 889.22 3.0 0 0 100
J_7138383898 891.72 3.0 0 0 100
J_7453315631 891.13 3.0 0 0 100
J_7138383900 890.11 3.0 0 0 100
J_7138383903 893.31 3.0 0 0 100
J_7138383906 894.18 3.0 0 0 100
J_7465614223 893.78 3.0 0 0 100
J_7138383911 893.48 3.0 0 0 100
J_13149044768 891.61 3.0 0 0 100
J_7138383912 899.63 3.0 0 0 100
J_7140718117 879.88 3.0 0 0 100
J_7298289230 881.46 3.0 0 0 100
J_7140718126 878.64 3.0 0 0 100
J_7140718128 881.04 3.0 0 0 100
J_7140718132 880.42 3.0 0 0 100
J_11397421981 880.25 3.0 0 0 100
J_7147042927 890.00 3.0 0 0 100
J_7147088707 889.03 3.0 0 0 100
J_7147090938 883.98 3.0 0 0 100
J_7147090939 883.45 3.0 0 0 100
J_7453315650 883.06 3.0 0 0 100
J_7453315651 883.97 3.0 0 0 100
J_7175594108 876.35 3.0 0 0 100
J_7291147464 876.33 3.0 0 0 100
J_11397632762 875.48 3.0 0 0 100
J_7175614341 877.78 3.0 0 0 100
J_7175614342 877.32 3.0 0 0 100
J_11397591498 875.74 3.0 0 0 100
J_7187815406 880.17 3.0 0 0 100
J_7298289291 881.81 3.0 0 0 100
J_10222690300 881.54 3.0 0 0 100
J_7261406107 883.79 3.0 0 0 100
J_7263113741 893.77 3.0 0 0 100
J_7465393579 894.81 3.0 0 0 100
J_7263139538 898.94 3.0 0 0 100
J_7452673901 890.79 3.0 0 0 100
J_7452673906 892.99 3.0 0 0 100
J_7263140433 893.49 3.0 0 0 100
J_7452673908 893.10 3.0 0 0 100
J_7291147457 878.41 3.0 0 0 100
J_11045649359 878.87 3.0 0 0 100
J_7291147465 876.12 3.0 0 0 100
J_7291147483 888.59 3.0 0 0 100
J_11021454465 888.03 3.0 0 0 100
J_11306557823 889.53 3.0 0 0 100
J_7291167499 878.84 3.0 0 0 100
J_7291167500 880.62 3.0 0 0 100
J_7291167504 875.94 3.0 0 0 100
J_11397591500 877.07 3.0 0 0 100
J_7291167511 879.49 3.0 0 0 100
J_11176392352 878.76 3.0 0 0 100
J_7291167520 878.14 3.0 0 0 100
J_11045649360 878.77 3.0 0 0 100
J_10991796882 892.29 3.0 0 0 100
J_7291167617 880.09 3.0 0 0 100
J_7291167619 881.10 3.0 0 0 100
J_7298268882 891.58 3.0 0 0 100
J_7298289193 880.39 3.0 0 0 100
J_11397486839 880.87 3.0 0 0 100
J_7298289198 880.96 3.0 0 0 100
J_7298289212 879.51 3.0 0 0 100
J_7298289223 881.00 3.0 0 0 100
J_7298289226 883.10 3.0 0 0 100
J_13097684026 881.41 3.0 0 0 100
J_7298289241 881.53 3.0 0 0 100
J_7298289246 879.41 3.0 0 0 100
J_7298289248 879.94 3.0 0 0 100
J_7298289316 880.23 3.0 0 0 100
J_14066685083 890.66 3.0 0 0 100
J_7298289269 890.79 3.0 0 0 100
J_7298289295 881.18 3.0 0 0 100
J_7298289292 879.94 3.0 0 0 100
J_7298289293 880.17 3.0 0 0 100
J_7298289294 881.24 3.0 0 0 100
J_11802465263 878.91 3.0 0 0 100
J_7298289296 879.64 3.0 0 0 100
J_13830106205 881.04 3.0 0 0 100
J_7298289307 881.68 3.0 0 0 100
J_7298289309 882.33 3.0 0 0 100
J_7298289314 880.15 3.0 0 0 100
J_10284858574 882.83 3.0 0 0 100
J_7298295674 886.56 3.0 0 0 100
J_11025384531 886.80 3.0 0 0 100
J_13535853200 887.18 3.0 0 0 100
J_9866129292 884.83 3.0 0 0 100
J_7298295675 885.43 3.0 0 0 100
J_10168889545 884.73 3.0 0 0 100
J_7298295681 878.30 3.0 0 0 100
J_7452673897 892.53 3.0 0 0 100
J_10991375325 893.57 3.0 0 0 100
J_7452673898 890.42 3.0 0 0 100
J_7452673899 891.17 3.0 0 0 100
J_7452673900 892.23 3.0 0 0 100
J_7452673902 890.32 3.0 0 0 100
J_7452673907 890.90 3.0 0 0 100
J_11021488560 890.21 3.0 0 0 100
J_7452673914 889.66 3.0 0 0 100
J_7452673915 892.36 3.0 0 0 100
J_7453315600 889.84 3.0 0 0 100
J_11175924867 890.08 3.0 0 0 100
J_7452673916 890.63 3.0 0 0 100
J_11021648177 889.91 3.0 0 0 100
J_7452673920 887.91 3.0 0 0 100
J_7452673921 889.11 3.0 0 0 100
J_7453315301 889.51 3.0 0 0 100
J_11015778368 889.03 3.0 0 0 100
J_7452692537 888.93 3.0 0 0 100
J_7452692541 886.59 3.0 0 0 100
J_9700074501 885.99 3.0 0 0 100
J_11015166119 886.86 3.0 0 0 100
J_7453315636 888.01 3.0 0 0 100
J_12697947081 887.80 3.0 0 0 100
J_7452712420 887.93 3.0 0 0 100
J_9990058602 886.98 3.0 0 0 100
J_9700074486 887.05 3.0 0 0 100
J_7453315302 887.46 3.0 0 0 100
J_7453315305 889.47 3.0 0 0 100
J_7453315307 889.54 3.0 0 0 100
J_7453315313 890.66 3.0 0 0 100
J_7453315387 890.46 3.0 0 0 100
J_7453315388 889.81 3.0 0 0 100
J_7453315391 890.32 3.0 0 0 100
J_7453315393 892.44 3.0 0 0 100
J_7453315399 891.86 3.0 0 0 100
J_7453315401 893.99 3.0 0 0 100
J_7453315432 888.23 3.0 0 0 100
J_7453315581 888.59 3.0 0 0 100
J_7453315582 891.16 3.0 0 0 100
J_7453315583 889.96 3.0 0 0 100
J_7453315584 889.44 3.0 0 0 100
J_7453315735 890.38 3.0 0 0 100
J_7453315613 889.36 3.0 0 0 100
J_7453315618 890.33 3.0 0 0 100
J_7453315622 891.42 3.0 0 0 100
J_13127664187 888.97 3.0 0 0 100
J_7453315627 888.78 3.0 0 0 100
J_7453315654 886.03 3.0 0 0 100
J_7453315653 884.68 3.0 0 0 100
J_7453315655 886.15 3.0 0 0 100
J_7453315731 888.75 3.0 0 0 100
J_7465393488 893.74 3.0 0 0 100
J_7465393498 896.76 3.0 0 0 100
J_7465393505 895.97 3.0 0 0 100
J_10991357069 894.81 3.0 0 0 100
J_7465393516 893.95 3.0 0 0 100
J_13645830505 892.98 3.0 0 0 100
J_7465393525 892.34 3.0 0 0 100
J_10593463228 891.96 3.0 0 0 100
J_7465393527 893.11 3.0 0 0 100
J_13645830516 892.75 3.0 0 0 100
J_13645830527 891.87 3.0 0 0 100
J_7465393572 894.06 3.0 0 0 100
J_7465393578 894.07 3.0 0 0 100
J_12260767760 894.29 3.0 0 0 100
J_7465449546 898.42 3.0 0 0 100
J_7465449555 898.20 3.0 0 0 100
J_11438132731 898.79 3.0 0 0 100
J_7465449547 896.56 3.0 0 0 100
J_7465449558 898.15 3.0 0 0 100
J_7465449554 899.04 3.0 0 0 100
J_11438132728 896.28 3.0 0 0 100
J_7465449556 896.94 3.0 0 0 100
J_7465449559 896.70 3.0 0 0 100
J_7465449560 896.92 3.0 0 0 100
J_7465449564 896.48 3.0 0 0 100
J_7465449567 897.98 3.0 0 0 100
J_7465449568 898.35 3.0 0 0 100
J_13152307781 896.07 3.0 0 0 100
J_7465449582 896.25 3.0 0 0 100
J_7465449583 898.92 3.0 0 0 100
J_7465456785 898.61 3.0 0 0 100
J_11438144606 898.40 3.0 0 0 100
J_7465449584 898.93 3.0 0 0 100
J_13152302110 898.03 3.0 0 0 100
J_7465456788 899.38 3.0 0 0 100
J_7465456798 900.57 3.0 0 0 100
J_7465456803 899.69 3.0 0 0 100
J_11021578456 900.36 3.0 0 0 100
J_7465456806 900.67 3.0 0 0 100
J_7465456810 901.58 3.0 0 0 100
J_11409454649 901.06 3.0 0 0 100
J_9700303072 900.24 3.0 0 0 100
J_7465456817 902.79 3.0 0 0 100
J_11021569037 902.59 3.0 0 0 100
J_10687741966 901.68 3.0 0 0 100
J_7465456830 902.36 3.0 0 0 100
J_7465456831 902.05 3.0 0 0 100
J_7465456839 902.72 3.0 0 0 100
J_7465456850 902.18 3.0 0 0 100
J_7465577040 903.51 3.0 0 0 100
J_7465577041 904.23 3.0 0 0 100
J_11409159131 904.72 3.0 0 0 100
J_7465577043 902.58 3.0 0 0 100
J_7465577042 903.90 3.0 0 0 100
J_11409263303 904.53 3.0 0 0 100
J_11409172855 902.50 3.0 0 0 100
J_7465577044 903.28 3.0 0 0 100
J_7465577051 905.66 3.0 0 0 100
J_7465614134 905.79 3.0 0 0 100
J_7465614144 904.62 3.0 0 0 100
J_11409171825 904.70 3.0 0 0 100
J_7465614140 905.26 3.0 0 0 100
J_7465614146 906.50 3.0 0 0 100
J_7465614145 905.73 3.0 0 0 100
J_7465614228 893.00 3.0 0 0 100
J_11002963424 894.49 3.0 0 0 100
J_7465614227 894.46 3.0 0 0 100
J_9700074465 897.19 3.0 0 0 100
J_7465614241 897.52 3.0 0 0 100
J_7465614245 899.12 3.0 0 0 100
J_7465614250 900.00 3.0 0 0 100
J_7465646171 900.77 3.0 0 0 100
J_7465646172 900.45 3.0 0 0 100
J_7465646173 900.72 3.0 0 0 100
J_9880569589 900.86 3.0 0 0 100
J_7465672893 902.75 3.0 0 0 100
J_7466375661 893.28 3.0 0 0 100
J_7466375683 896.59 3.0 0 0 100
J_13807649550 902.79 3.0 0 0 100
J_9928560993 901.41 3.0 0 0 100
J_13807649466 903.35 3.0 0 0 100
J_10017481078 898.99 3.0 0 0 100
J_10017481082 897.94 3.0 0 0 100
J_7466386859 899.94 3.0 0 0 100
J_7466386860 898.04 3.0 0 0 100
J_8935990991 904.46 3.0 0 0 100
J_13802597961 906.33 3.0 0 0 100
J_8935990993 902.20 3.0 0 0 100
J_11197323405 903.30 3.0 0 0 100
J_12161557849 903.14 3.0 0 0 100
J_9645445153 880.74 3.0 0 0 100
J_9645445136 880.42 3.0 0 0 100
J_9645445142 880.97 3.0 0 0 100
J_9645445151 882.56 3.0 0 0 100
J_10991478286 895.47 3.0 0 0 100
J_11015641079 887.00 3.0 0 0 100
J_9839093178 896.27 3.0 0 0 100
J_10695024184 889.31 3.0 0 0 100
J_9841504888 886.23 3.0 0 0 100
J_9841504889 887.46 3.0 0 0 100
J_10695024186 887.95 3.0 0 0 100
J_9841504890 887.86 3.0 0 0 100
J_12918642886 886.96 3.0 0 0 100
J_9866129293 887.14 3.0 0 0 100
J_11002921849 892.19 3.0 0 0 100
J_12180012794 894.65 3.0 0 0 100
J_9870086766 896.99 3.0 0 0 100
J_9870086765 896.72 3.0 0 0 100
J_9873963410 897.76 3.0 0 0 100
J_9870086773 898.56 3.0 0 0 100
J_11002595848 896.43 3.0 0 0 100
J_9880569588 899.95 3.0 0 0 100
J_11409454669 900.99 3.0 0 0 100
J_11409413544 900.05 3.0 0 0 100
J_9897294964 891.85 3.0 0 0 100
J_9899714418 890.23 3.0 0 0 100
J_9900960143 881.65 3.0 0 0 100
J_9900960190 880.73 3.0 0 0 100
J_9900960192 881.81 3.0 0 0 100
J_9900960191 881.86 3.0 0 0 100
J_9900969018 881.40 3.0 0 0 100
J_9900960193 882.76 3.0 0 0 100
J_9900969019 882.18 3.0 0 0 100
J_9901111716 883.22 3.0 0 0 100
J_9910918458 902.66 3.0 0 0 100
J_9910918465 902.48 3.0 0 0 100
J_11197334455 902.39 3.0 0 0 100
J_11197323412 902.76 3.0 0 0 100
J_9928560952 900.45 3.0 0 0 100
J_9928561083 903.19 3.0 0 0 100
J_11885820563 901.32 3.0 0 0 100
J_11397285061 902.56 3.0 0 0 100
J_9990058603 887.49 3.0 0 0 100
J_10017481116 895.00 3.0 0 0 100
J_9992581197 894.28 3.0 0 0 100
J_10017481077 897.97 3.0 0 0 100
J_10017481079 897.63 3.0 0 0 100
J_10017481090 897.90 3.0 0 0 100
J_10017481092 899.30 3.0 0 0 100
J_13041011657 899.50 3.0 0 0 100
J_12155114398 898.96 3.0 0 0 100
J_12155114399 898.36 3.0 0 0 100
J_10578097581 894.22 3.0 0 0 100
J_11003016445 892.76 3.0 0 0 100
J_14066685118 891.43 3.0 0 0 100
J_10038782704 886.65 3.0 0 0 100
J_10038799161 884.40 3.0 0 0 100
J_10168889544 886.40 3.0 0 0 100
J_10038799162 885.95 3.0 0 0 100
J_10038800926 886.21 3.0 0 0 100
J_10038800927 886.25 3.0 0 0 100
J_10044811670 897.67 3.0 0 0 100
J_11002587524 898.08 3.0 0 0 100
J_10209103448 880.20 3.0 0 0 100
J_10209123012 879.51 3.0 0 0 100
J_12696050651 882.01 3.0 0 0 100
J_10222738375 901.35 3.0 0 0 100
J_10222738376 899.13 3.0 0 0 100
J_12210693584 879.76 3.0 0 0 100
J_10266837400 878.65 3.0 0 0 100
J_12210693586 880.23 3.0 0 0 100
J_10266837403 879.27 3.0 0 0 100
J_13830106009 878.06 3.0 0 0 100
J_10266837401 879.56 3.0 0 0 100
J_10266837402 879.85 3.0 0 0 100
J_12157689023 884.21 3.0 0 0 100
J_12157689021 884.43 3.0 0 0 100
J_10277100419 890.15 3.0 0 0 100
J_10277100420 890.35 3.0 0 0 100
J_10277100422 890.23 3.0 0 0 100
J_10277100423 889.31 3.0 0 0 100
J_10284858578 880.54 3.0 0 0 100
J_10312430299 905.11 3.0 0 0 100
J_11028255656 906.04 3.0 0 0 100
J_12078798115 904.98 3.0 0 0 100
J_10574674451 905.57 3.0 0 0 100
J_10593463229 892.87 3.0 0 0 100
J_10593463230 893.40 3.0 0 0 100
J_10593463233 893.53 3.0 0 0 100
J_10593463231 892.23 3.0 0 0 100
J_10731125515 888.68 3.0 0 0 100
J_10687741969 900.00 3.0 0 0 100
J_10687741968 901.02 3.0 0 0 100
J_10687741973 900.24 3.0 0 0 100
J_10687741972 899.44 3.0 0 0 100
J_10687741975 901.26 3.0 0 0 100
J_10687741974 899.99 3.0 0 0 100
J_10687741977 899.19 3.0 0 0 100
J_10687741976 900.47 3.0 0 0 100
J_10687741978 899.29 3.0 0 0 100
J_12918665451 886.30 3.0 0 0 100
J_10695024185 887.54 3.0 0 0 100
J_10695024187 886.39 3.0 0 0 100
J_10716532019 892.01 3.0 0 0 100
J_10731123200 898.69 3.0 0 0 100
J_12185458377 881.44 3.0 0 0 100
J_10760860023 886.55 3.0 0 0 100
J_10760860022 887.65 3.0 0 0 100
J_10760860025 885.45 3.0 0 0 100
J_10760860024 885.22 3.0 0 0 100
J_10760860026 885.61 3.0 0 0 100
J_10820231133 889.92 3.0 0 0 100
J_11021555208 889.57 3.0 0 0 100
J_10820231134 888.92 3.0 0 0 100
J_11021548225 888.86 3.0 0 0 100
J_12187507077 902.35 3.0 0 0 100
J_10978638724 881.10 3.0 0 0 100
J_10978640858 880.20 3.0 0 0 100
J_10991357070 895.89 3.0 0 0 100
J_10991375326 892.06 3.0 0 0 100
J_10991440020 891.45 3.0 0 0 100
J_10991475147 893.66 3.0 0 0 100
J_10991651170 890.35 3.0 0 0 100
J_13717751723 885.19 3.0 0 0 100
J_10991915619 886.74 3.0 0 0 100
J_11001362539 897.16 3.0 0 0 100
J_11002607127 900.37 3.0 0 0 100
J_11002607128 899.49 3.0 0 0 100
J_11002607131 899.75 3.0 0 0 100
J_11002607133 900.45 3.0 0 0 100
J_11002607130 899.71 3.0 0 0 100
J_11002607132 898.74 3.0 0 0 100
J_11002890405 892.15 3.0 0 0 100
J_12180012791 893.23 3.0 0 0 100
J_13130886313 894.40 3.0 0 0 100
J_11002958966 892.97 3.0 0 0 100
J_11003016446 892.13 3.0 0 0 100
J_11003037132 892.62 3.0 0 0 100
J_11003036768 892.68 3.0 0 0 100
J_11006982240 900.96 3.0 0 0 100
J_11007664987 896.87 3.0 0 0 100
J_11015153617 892.53 3.0 0 0 100
J_11015166118 888.36 3.0 0 0 100
J_11015226553 887.15 3.0 0 0 100
J_11015226554 888.00 3.0 0 0 100
J_11017633320 895.85 3.0 0 0 100
J_11021428252 901.27 3.0 0 0 100
J_11399465859 888.35 3.0 0 0 100
J_11021437034 889.36 3.0 0 0 100
J_11021437033 887.90 3.0 0 0 100
J_11399469960 887.68 3.0 0 0 100
J_11021454466 890.02 3.0 0 0 100
J_11021478368 890.60 3.0 0 0 100
J_11021488561 891.77 3.0 0 0 100
J_11021514732 891.35 3.0 0 0 100
J_11021555207 891.04 3.0 0 0 100
J_11021555209 891.27 3.0 0 0 100
J_11021569038 901.63 3.0 0 0 100
J_11409461237 901.13 3.0 0 0 100
J_11021603481 903.35 3.0 0 0 100
J_11021603484 901.20 3.0 0 0 100
J_11826963020 891.58 3.0 0 0 100
J_11021676040 888.55 3.0 0 0 100
J_11021755953 889.91 3.0 0 0 100
J_11074670549 888.22 3.0 0 0 100
J_11021766299 887.73 3.0 0 0 100
J_11074670574 887.16 3.0 0 0 100
J_11025384532 885.84 3.0 0 0 100
J_11027804586 880.23 3.0 0 0 100
J_11027804588 877.80 3.0 0 0 100
J_11329623304 904.62 3.0 0 0 100
J_11028823358 879.26 3.0 0 0 100
J_11028858435 881.74 3.0 0 0 100
J_11033916343 879.09 3.0 0 0 100
J_11124633999 877.69 3.0 0 0 100
J_11033916345 879.66 3.0 0 0 100
J_11121867056 880.09 3.0 0 0 100
J_11397404813 878.71 3.0 0 0 100
J_12151901679 877.17 3.0 0 0 100
J_11397404822 879.20 3.0 0 0 100
J_12918642840 887.49 3.0 0 0 100
J_11077269488 878.49 3.0 0 0 100
J_11121286749 890.13 3.0 0 0 100
J_12997704936 880.14 3.0 0 0 100
J_11182447928 891.17 3.0 0 0 100
J_11397285063 902.05 3.0 0 0 100
J_11397388905 882.05 3.0 0 0 100
J_12151901633 875.70 3.0 0 0 100
J_11397404823 879.47 3.0 0 0 100
J_11397591499 875.70 3.0 0 0 100
J_11397593723 879.09 3.0 0 0 100
J_11397593733 878.23 3.0 0 0 100
J_11397632765 877.99 3.0 0 0 100
J_11397632764 875.59 3.0 0 0 100
J_11397632766 875.71 3.0 0 0 100
J_11409159132 903.69 3.0 0 0 100
J_11409171826 903.40 3.0 0 0 100
J_11409172856 902.93 3.0 0 0 100
J_11409245946 901.93 3.0 0 0 100
J_11409293348 899.53 3.0 0 0 100
J_11409341814 901.10 3.0 0 0 100
J_11409322629 901.25 3.0 0 0 100
J_11409327905 901.09 3.0 0 0 100
J_11409327904 901.88 3.0 0 0 100
J_11409341813 902.56 3.0 0 0 100
J_11409461238 901.46 3.0 0 0 100
J_11414136197 896.37 3.0 0 0 100
J_11419446867 890.34 3.0 0 0 100
J_11419448880 889.97 3.0 0 0 100
J_11434298150 884.08 3.0 0 0 100
J_11434298136 884.85 3.0 0 0 100
J_11434298145 883.68 3.0 0 0 100
J_11434298148 884.45 3.0 0 0 100
J_11434298147 884.14 3.0 0 0 100
J_11434298137 883.97 3.0 0 0 100
J_11434298138 884.71 3.0 0 0 100
J_11434298144 885.14 3.0 0 0 100
J_11434298143 885.96 3.0 0 0 100
J_11434298142 885.77 3.0 0 0 100
J_11434298146 885.55 3.0 0 0 100
J_11434298149 883.16 3.0 0 0 100
J_11434298151 885.54 3.0 0 0 100
J_11434512224 887.15 3.0 0 0 100
J_11434710894 903.27 3.0 0 0 100
J_11436636898 888.38 3.0 0 0 100
J_11438132729 897.61 3.0 0 0 100
J_11438132732 899.26 3.0 0 0 100
J_11438144607 896.40 3.0 0 0 100
J_11438167761 898.21 3.0 0 0 100
J_11438298623 900.44 3.0 0 0 100
J_11438418705 899.12 3.0 0 0 100
J_12196909080 889.04 3.0 0 0 100
J_13076932659 897.26 3.0 0 0 100
J_13076932657 896.98 3.0 0 0 100
J_12765390074 896.60 3.0 0 0 100
J_11826963022 889.45 3.0 0 0 100
J_12961466032 902.66 3.0 0 0 100
J_11934696261 886.36 3.0 0 0 100
J_11934696262 884.30 3.0 0 0 100
J_13715446990 886.67 3.0 0 0 100
J_11934696264 884.10 3.0 0 0 100
J_11934696263 884.37 3.0 0 0 100
J_11944239436 906.25 3.0 0 0 100
J_11944239448 905.32 3.0 0 0 100
J_11944239449 905.88 3.0 0 0 100
J_11944239437 904.96 3.0 0 0 100
J_11944239442 905.01 3.0 0 0 100
J_11944239447 904.46 3.0 0 0 100
J_11944239441 904.10 3.0 0 0 100
J_11944239438 904.96 3.0 0 0 100
J_11944239450 904.29 3.0 0 0 100
J_11944239439 905.47 3.0 0 0 100
J_11944239444 906.17 3.0 0 0 100
J_11944239440 904.08 3.0 0 0 100
J_11944239445 906.48 3.0 0 0 100
J_11944239446 905.76 3.0 0 0 100
J_11944239443 905.23 3.0 0 0 100
J_11951620623 883.89 3.0 0 0 100
J_12078798117 904.53 3.0 0 0 100
J_12151901680 877.15 3.0 0 0 100
J_12155167317 899.96 3.0 0 0 100
J_12155167316 897.85 3.0 0 0 100
J_12157689025 885.77 3.0 0 0 100
J_13086731148 899.74 3.0 0 0 100
J_12180012792 892.97 3.0 0 0 100
J_12180012793 892.35 3.0 0 0 100
J_12185458378 882.60 3.0 0 0 100
J_12186088998 890.94 3.0 0 0 100
J_12187447576 892.56 3.0 0 0 100
J_12196464673 876.87 3.0 0 0 100
J_12196521967 886.18 3.0 0 0 100
J_12206473572 891.87 3.0 0 0 100
J_12210693585 879.08 3.0 0 0 100
J_12393621581 891.63 3.0 0 0 100
J_12604472596 889.29 3.0 0 0 100
J_12696050650 882.30 3.0 0 0 100
J_12697947084 887.34 3.0 0 0 100
J_12698276488 891.04 3.0 0 0 100
J_13645830500 891.08 3.0 0 0 100
J_12732525820 879.94 3.0 0 0 100
J_13787035709 880.21 3.0 0 0 100
J_13787010485 878.37 3.0 0 0 100
J_12918642841 886.39 3.0 0 0 100
J_12961466031 901.49 3.0 0 0 100
J_12997704925 880.78 3.0 0 0 100
J_12997704926 879.26 3.0 0 0 100
J_12997704944 879.97 3.0 0 0 100
J_13787010459 881.61 3.0 0 0 100
J_12999157123 901.65 3.0 0 0 100
J_12999157125 901.46 3.0 0 0 100
J_13041011653 898.88 3.0 0 0 100
J_13041011654 898.50 3.0 0 0 100
J_13041011658 898.96 3.0 0 0 100
J_13041011659 897.38 3.0 0 0 100
J_13041011662 898.83 3.0 0 0 100
J_13041011664 898.78 3.0 0 0 100
J_13041584928 894.58 3.0 0 0 100
J_13064736701 897.34 3.0 0 0 100
J_13098366975 883.56 3.0 0 0 100
J_13127664188 891.77 3.0 0 0 100
J_13127664193 891.19 3.0 0 0 100
J_13127790409 885.82 3.0 0 0 100
J_13127790410 884.42 3.0 0 0 100
J_13127790411 884.99 3.0 0 0 100
J_13130332396 886.03 3.0 0 0 100
J_13149044766 891.79 3.0 0 0 100
J_13149044767 891.54 3.0 0 0 100
J_13152302109 897.40 3.0 0 0 100
J_13360780445 903.80 3.0 0 0 100
J_13607317195 882.55 3.0 0 0 100
J_13645830523 893.65 3.0 0 0 100
J_13645830524 893.41 3.0 0 0 100
J_13645830525 893.17 3.0 0 0 100
J_13645830526 893.34 3.0 0 0 100
J_13654038306 887.76 3.0 0 0 100
J_13654038432 888.19 3.0 0 0 100
J_13655652478 887.47 3.0 0 0 100
J_13655653224 889.30 3.0 0 0 100
J_13667500009 888.76 3.0 0 0 100
J_13787010454 878.06 3.0 0 0 100
J_13787010455 880.03 3.0 0 0 100
J_13787010456 880.90 3.0 0 0 100
J_13787010457 879.68 3.0 0 0 100
J_13787010458 880.25 3.0 0 0 100
J_13787010460 880.92 3.0 0 0 100
J_13807649465 901.51 3.0 0 0 100
J_13807649549 902.67 3.0 0 0 100
J_13811792565 898.03 3.0 0 0 100
J_13830105943 880.12 3.0 0 0 100
J_13830106010 878.54 3.0 0 0 100
J_13830106176 879.95 3.0 0 0 100
J_13830106203 880.70 3.0 0 0 100
J_13830106204 880.51 3.0 0 0 100
J_13830106206 878.97 3.0 0 0 100
J_14072070988 890.79 3.0 0 0 100
J_14074138182 882.75 3.0 0 0 100

[OUTFALLS]
;;Name Elevation Type Stage Data Gated
Outfall_1 874.48 FREE

[CONDUITS]
;;Name FromNode ToNode Length Roughness InOffset OutOffset
C_251104955_1382528609_0 J_251104955 J_1382528609 16.49 0.013 0 0
C_251104955_11028310396_0 J_251104955 J_11028310396 402.16 0.013 0 0
C_1382528609_251104955_0 J_1382528609 J_251104955 16.49 0.013 0 0
C_11028310396_10312430299_0 J_11028310396 J_10312430299 175.89 0.013 0 0
C_11028310396_11028255656_0 J_11028310396 J_11028255656 177.96 0.013 0 0
C_251105277_6132933105_0 J_251105277 J_6132933105 576.07 0.013 0 0
C_251105277_253448544_0 J_251105277 J_253448544 184.54 0.013 0 0
C_6132933105_4204925700_0 J_6132933105 J_4204925700 8.98 0.013 0 0
C_6132933105_1080176721_0 J_6132933105 J_1080176721 111.11 0.013 0 0
C_253448544_253448562_0 J_253448544 J_253448562 98.07 0.013 0 0
C_253448544_251105277_0 J_253448544 J_251105277 184.54 0.013 0 0
C_253448544_253448537_0 J_253448544 J_253448537 113.56 0.013 0 0
C_251105285_10277091600_0 J_251105285 J_10277091600 167.69 0.013 0 0
C_251105285_1016228526_0 J_251105285 J_1016228526 99.97 0.013 0 0
C_10277091600_12157689023_0 J_10277091600 J_12157689023 62.26 0.013 0 0
C_10277091600_12157689021_0 J_10277091600 J_12157689021 131.43 0.013 0 0
C_1016228526_12196582428_0 J_1016228526 J_12196582428 65.54 0.013 0 0
C_1016228526_1016228534_0 J_1016228526 J_1016228534 42.40 0.013 0 0
C_1016228526_251105285_0 J_1016228526 J_251105285 99.97 0.013 0 0
C_251106545_6901363519_0 J_251106545 J_6901363519 66.05 0.013 0 0
C_251106545_251106828_0 J_251106545 J_251106828 458.48 0.013 0 0
C_6901363519_6901363518_0 J_6901363519 J_6901363518 50.28 0.013 0 0
C_6901363519_13360780446_0 J_6901363519 J_13360780446 94.93 0.013 0 0
C_6901363519_251106545_0 J_6901363519 J_251106545 66.05 0.013 0 0
C_251106828_251106717_0 J_251106828 J_251106717 662.42 0.013 0 0
C_251106828_6632652235_0 J_251106828 J_6632652235 216.37 0.013 0 0
C_251106717_13123179217_0 J_251106717 J_13123179217 11.28 0.013 0 0
C_251106717_13360780446_0 J_251106717 J_13360780446 145.33 0.013 0 0
C_251106717_251106828_0 J_251106717 J_251106828 662.42 0.013 0 0
C_13123179217_251106717_0 J_13123179217 J_251106717 11.28 0.013 0 0
C_13123179217_5281691577_0 J_13123179217 J_5281691577 608.50 0.013 0 0
C_13123179217_253447895_0 J_13123179217 J_253447895 155.05 0.013 0 0
C_13360780446_251106717_0 J_13360780446 J_251106717 145.33 0.013 0 0
C_13360780446_13360780445_0 J_13360780446 J_13360780445 38.56 0.013 0 0
C_13360780446_6901363519_0 J_13360780446 J_6901363519 94.93 0.013 0 0
C_6632652235_6632652240_0 J_6632652235 J_6632652240 175.88 0.013 0 0
C_6632652235_6632652240_1 J_6632652235 J_6632652240 187.81 0.013 0 0
C_253447895_9857850176_0 J_253447895 J_9857850176 200.70 0.013 0 0
C_253447895_13123179217_0 J_253447895 J_13123179217 155.05 0.013 0 0
C_253447895_12999157122_0 J_253447895 J_12999157122 61.12 0.013 0 0
C_253447895_10221065289_0 J_253447895 J_10221065289 570.85 0.013 0 0
C_9857850176_1262043909_0 J_9857850176 J_1262043909 50.31 0.013 0 0
C_9857850176_1605954226_0 J_9857850176 J_1605954226 76.60 0.013 0 0
C_9857850176_253447895_0 J_9857850176 J_253447895 200.70 0.013 0 0
C_12999157122_12999157124_0 J_12999157122 J_12999157124 38.75 0.013 0 0
C_12999157122_12999157123_0 J_12999157122 J_12999157123 95.51 0.013 0 0
C_12999157122_253447895_0 J_12999157122 J_253447895 61.12 0.013 0 0
C_10221065289_10221065294_0 J_10221065289 J_10221065294 10.20 0.013 0 0
C_10221065289_10221065294_1 J_10221065289 J_10221065294 356.08 0.013 0 0
C_10221065289_253447895_0 J_10221065289 J_253447895 570.85 0.013 0 0
C_253447898_253447899_0 J_253447898 J_253447899 31.03 0.013 0 0
C_253447898_1605954226_0 J_253447898 J_1605954226 43.86 0.013 0 0
C_253447898_9700106334_0 J_253447898 J_9700106334 139.53 0.013 0 0
C_253447899_1262043911_0 J_253447899 J_1262043911 24.71 0.013 0 0
C_253447899_253447898_0 J_253447899 J_253447898 31.03 0.013 0 0
C_253447899_5281691574_0 J_253447899 J_5281691574 129.32 0.013 0 0
C_1605954226_253447898_0 J_1605954226 J_253447898 43.86 0.013 0 0
C_1605954226_9857850176_0 J_1605954226 J_9857850176 76.60 0.013 0 0
C_1605954226_1605954215_0 J_1605954226 J_1605954215 484.64 0.013 0 0
C_9700106334_253447898_0 J_9700106334 J_253447898 139.53 0.013 0 0
C_1262043911_1262043932_0 J_1262043911 J_1262043932 43.82 0.013 0 0
C_1262043911_253447899_0 J_1262043911 J_253447899 24.71 0.013 0 0
C_1262043911_9928560951_0 J_1262043911 J_9928560951 140.06 0.013 0 0
C_5281691574_253447899_0 J_5281691574 J_253447899 129.32 0.013 0 0
C_253447903_12171179550_0 J_253447903 J_12171179550 10.12 0.013 0 0
C_253447903_9928560951_0 J_253447903 J_9928560951 239.64 0.013 0 0
C_12171179550_6884970118_0 J_12171179550 J_6884970118 144.57 0.013 0 0
C_12171179550_13086731148_0 J_12171179550 J_13086731148 46.76 0.013 0 0
C_9928560951_9928560952_0 J_9928560951 J_9928560952 59.85 0.013 0 0
C_9928560951_253447903_0 J_9928560951 J_253447903 239.64 0.013 0 0
C_9928560951_1262043911_0 J_9928560951 J_1262043911 140.06 0.013 0 0
C_253448523_5281691579_0 J_253448523 J_5281691579 43.40 0.013 0 0
C_253448523_5281842542_0 J_253448523 J_5281842542 93.32 0.013 0 0
C_253448523_253448524_0 J_253448523 J_253448524 194.30 0.013 0 0
C_5281691579_253448523_0 J_5281691579 J_253448523 43.40 0.013 0 0
C_5281691579_5281842544_0 J_5281691579 J_5281842544 33.95 0.013 0 0
C_5281691579_6632636571_0 J_5281691579 J_6632636571 146.19 0.013 0 0
C_5281842542_253448523_0 J_5281842542 J_253448523 93.32 0.013 0 0
C_5281842542_5281842544_0 J_5281842542 J_5281842544 182.97 0.013 0 0
C_5281842542_2048245857_0 J_5281842542 J_2048245857 225.33 0.013 0 0
C_253448524_253448523_0 J_253448524 J_253448523 194.30 0.013 0 0
C_253448524_1470833614_0 J_253448524 J_1470833614 148.44 0.013 0 0
C_253448524_5281842558_0 J_253448524 J_5281842558 273.08 0.013 0 0
C_1470833614_1470833636_0 J_1470833614 J_1470833636 178.27 0.013 0 0
C_1470833614_1470833628_0 J_1470833614 J_1470833628 32.82 0.013 0 0
C_1470833614_253448524_0 J_1470833614 J_253448524 148.44 0.013 0 0
C_5281842558_5281842557_0 J_5281842558 J_5281842557 76.57 0.013 0 0
C_5281842558_253449679_0 J_5281842558 J_253449679 84.04 0.013 0 0
C_5281842558_253448524_0 J_5281842558 J_253448524 273.08 0.013 0 0
C_253448537_1492407638_0 J_253448537 J_1492407638 160.73 0.013 0 0
C_253448537_253448549_0 J_253448537 J_253448549 170.68 0.013 0 0
C_253448537_253448544_0 J_253448537 J_253448544 113.56 0.013 0 0
C_1492407638_1492407651_0 J_1492407638 J_1492407651 44.82 0.013 0 0
C_1492407638_1492407663_0 J_1492407638 J_1492407663 132.39 0.013 0 0
C_1492407638_253448537_0 J_1492407638 J_253448537 160.73 0.013 0 0
C_253448549_253448573_0 J_253448549 J_253448573 102.09 0.013 0 0
C_253448549_253448537_0 J_253448549 J_253448537 170.68 0.013 0 0
C_253448549_1368117314_0 J_253448549 J_1368117314 92.75 0.013 0 0
C_253448562_253448544_0 J_253448562 J_253448544 98.07 0.013 0 0
C_253448562_1368117329_0 J_253448562 J_1368117329 130.45 0.013 0 0
C_253448562_253448573_0 J_253448562 J_253448573 138.24 0.013 0 0
C_253448573_253448562_0 J_253448573 J_253448562 138.24 0.013 0 0
C_253448573_254442569_0 J_253448573 J_254442569 146.03 0.013 0 0
C_253448573_253448549_0 J_253448573 J_253448549 102.09 0.013 0 0
C_1368117314_1368828980_0 J_1368117314 J_1368828980 118.61 0.013 0 0
C_1368117314_253448549_0 J_1368117314 J_253448549 92.75 0.013 0 0
C_1368117314_1368117346_0 J_1368117314 J_1368117346 41.59 0.013 0 0
C_253448561_1367922236_0 J_253448561 J_1367922236 20.32 0.013 0 0
C_253448561_253448582_0 J_253448561 J_253448582 63.06 0.013 0 0
C_1367922236_1694231929_0 J_1367922236 J_1694231929 67.17 0.013 0 0
C_1367922236_1472791625_0 J_1367922236 J_1472791625 96.67 0.013 0 0
C_1367922236_253448561_0 J_1367922236 J_253448561 20.32 0.013 0 0
C_253448582_1694231929_0 J_253448582 J_1694231929 10.37 0.013 0 0
C_253448582_1368117387_0 J_253448582 J_1368117387 62.62 0.013 0 0
C_1368117329_253448566_0 J_1368117329 J_253448566 24.30 0.013 0 0
C_1368117329_253448562_0 J_1368117329 J_253448562 130.45 0.013 0 0
C_1368117329_1368117387_0 J_1368117329 J_1368117387 90.51 0.013 0 0
C_253448566_254442569_0 J_253448566 J_254442569 123.76 0.013 0 0
C_253448566_1368117329_0 J_253448566 J_1368117329 24.30 0.013 0 0
C_253448566_1694231929_0 J_253448566 J_1694231929 84.33 0.013 0 0
C_254442569_254442570_0 J_254442569 J_254442570 104.26 0.013 0 0
C_254442569_253448573_0 J_254442569 J_253448573 146.03 0.013 0 0
C_254442569_253448566_0 J_254442569 J_253448566 123.76 0.013 0 0
C_1694231929_253448582_0 J_1694231929 J_253448582 10.37 0.013 0 0
C_1694231929_253448566_0 J_1694231929 J_253448566 84.33 0.013 0 0
C_1694231929_1367922236_0 J_1694231929 J_1367922236 67.17 0.013 0 0
C_1368117387_251105277_0 J_1368117387 J_251105277 94.64 0.013 0 0
C_1368117387_1368117329_0 J_1368117387 J_1368117329 90.51 0.013 0 0
C_253449679_13811792564_0 J_253449679 J_13811792564 68.29 0.013 0 0
C_253449679_5281842558_0 J_253449679 J_5281842558 84.04 0.013 0 0
C_253449679_2048245857_0 J_253449679 J_2048245857 99.69 0.013 0 0
C_13811792564_13811792565_0 J_13811792564 J_13811792565 105.43 0.013 0 0
C_13811792564_5281842560_0 J_13811792564 J_5281842560 138.65 0.013 0 0
C_13811792564_253449679_0 J_13811792564 J_253449679 68.29 0.013 0 0
C_2048245857_253449679_0 J_2048245857 J_253449679 99.69 0.013 0 0
C_2048245857_5281842542_0 J_2048245857 J_5281842542 225.33 0.013 0 0
C_2048245857_2048245859_0 J_2048245857 J_2048245859 414.64 0.013 0 0
C_253449681_10731123199_0 J_253449681 J_10731123199 45.32 0.013 0 0
C_253449681_7466386855_0 J_253449681 J_7466386855 90.20 0.013 0 0
C_253449681_5281842562_0 J_253449681 J_5281842562 45.12 0.013 0 0
C_10731123199_253449681_0 J_10731123199 J_253449681 45.32 0.013 0 0
C_10731123199_10731123200_0 J_10731123199 J_10731123200 92.63 0.013 0 0
C_10731123199_253449683_0 J_10731123199 J_253449683 69.12 0.013 0 0
C_7466386855_253449681_0 J_7466386855 J_253449681 90.20 0.013 0 0
C_5281842562_5281842560_0 J_5281842562 J_5281842560 14.01 0.013 0 0
C_5281842562_5281842561_0 J_5281842562 J_5281842561 42.81 0.013 0 0
C_5281842562_253449681_0 J_5281842562 J_253449681 45.12 0.013 0 0
C_253449683_1492407642_0 J_253449683 J_1492407642 142.78 0.013 0 0
C_253449683_10731123199_0 J_253449683 J_10731123199 69.12 0.013 0 0
C_253449683_11002574624_0 J_253449683 J_11002574624 40.08 0.013 0 0
C_1492407642_253449686_0 J_1492407642 J_253449686 41.27 0.013 0 0
C_1492407642_253449683_0 J_1492407642 J_253449683 142.78 0.013 0 0
C_1492407642_10017481091_0 J_1492407642 J_10017481091 82.71 0.013 0 0
C_1492407642_1634931733_0 J_1492407642 J_1634931733 128.11 0.013 0 0
C_11002574624_253449683_0 J_11002574624 J_253449683 40.08 0.013 0 0
C_253449686_7466386858_0 J_253449686 J_7466386858 26.83 0.013 0 0
C_253449686_7466386856_0 J_253449686 J_7466386856 67.56 0.013 0 0
C_253449686_9870086764_0 J_253449686 J_9870086764 91.50 0.013 0 0
C_253449686_1492407642_0 J_253449686 J_1492407642 41.27 0.013 0 0
C_7466386858_253449686_0 J_7466386858 J_253449686 26.83 0.013 0 0
C_7466386858_10017481078_0 J_7466386858 J_10017481078 23.20 0.013 0 0
C_7466386858_10017481082_0 J_7466386858 J_10017481082 97.00 0.013 0 0
C_7466386856_253449686_0 J_7466386856 J_253449686 67.56 0.013 0 0
C_9870086764_9870086766_0 J_9870086764 J_9870086766 22.09 0.013 0 0
C_9870086764_5281842564_0 J_9870086764 J_5281842564 41.34 0.013 0 0
C_9870086764_253449686_0 J_9870086764 J_253449686 91.50 0.013 0 0
C_253449692_10044811668_0 J_253449692 J_10044811668 59.39 0.013 0 0
C_253449692_253449698_0 J_253449692 J_253449698 325.84 0.013 0 0
C_253449692_10017481089_0 J_253449692 J_10017481089 63.54 0.013 0 0
C_10044811668_253449692_0 J_10044811668 J_253449692 59.39 0.013 0 0
C_253449698_9992581195_0 J_253449698 J_9992581195 101.63 0.013 0 0
C_253449698_5931305385_0 J_253449698 J_5931305385 160.88 0.013 0 0
C_253449698_253449692_0 J_253449698 J_253449692 325.84 0.013 0 0
C_10017481089_5281842564_0 J_10017481089 J_5281842564 4.84 0.013 0 0
C_10017481089_10017481090_0 J_10017481089 J_10017481090 28.39 0.013 0 0
C_10017481089_253449692_0 J_10017481089 J_253449692 63.54 0.013 0 0
C_9992581195_253449698_0 J_9992581195 J_253449698 101.63 0.013 0 0
C_9992581195_10017481116_0 J_9992581195 J_10017481116 31.18 0.013 0 0
C_9992581195_9992581197_0 J_9992581195 J_9992581197 130.89 0.013 0 0
C_5931305385_253532871_0 J_5931305385 J_253532871 240.86 0.013 0 0
C_5931305385_253449698_0 J_5931305385 J_253449698 160.88 0.013 0 0
C_5931305385_10038712736_0 J_5931305385 J_10038712736 15.88 0.013 0 0
C_253452075_6901407760_0 J_253452075 J_6901407760 8.03 0.013 0 0
C_253452075_1382528655_0 J_253452075 J_1382528655 248.53 0.013 0 0
C_253452075_7137902395_0 J_253452075 J_7137902395 154.82 0.013 0 0
C_6901407760_253452075_0 J_6901407760 J_253452075 8.03 0.013 0 0
C_1382528655_1382528609_0 J_1382528655 J_1382528609 394.23 0.013 0 0
C_7137902395_3957948342_0 J_7137902395 J_3957948342 327.97 0.013 0 0
C_7137902395_253452075_0 J_7137902395 J_253452075 154.82 0.013 0 0
C_7137902395_10719511590_0 J_7137902395 J_10719511590 168.29 0.013 0 0
C_253452077_3957948342_0 J_253452077 J_3957948342 72.32 0.013 0 0
C_253452077_12155167311_0 J_253452077 J_12155167311 23.80 0.013 0 0
C_253452077_7466386863_0 J_253452077 J_7466386863 92.07 0.013 0 0
C_3957948342_253452077_0 J_3957948342 J_253452077 72.32 0.013 0 0
C_3957948342_2048245856_0 J_3957948342 J_2048245856 202.00 0.013 0 0
C_3957948342_7137902395_0 J_3957948342 J_7137902395 327.97 0.013 0 0
C_12155167311_12155167317_0 J_12155167311 J_12155167317 5.83 0.013 0 0
C_12155167311_12155167315_0 J_12155167311 J_12155167315 49.39 0.013 0 0
C_12155167311_253452077_0 J_12155167311 J_253452077 23.80 0.013 0 0
C_7466386863_253452077_0 J_7466386863 J_253452077 92.07 0.013 0 0
C_253532871_253532914_0 J_253532871 J_253532914 70.53 0.013 0 0
C_253532871_5931305385_0 J_253532871 J_5931305385 240.86 0.013 0 0
C_253532871_5281842567_0 J_253532871 J_5281842567 74.75 0.013 0 0
C_253532914_253532871_0 J_253532914 J_253532871 70.53 0.013 0 0
C_253532914_11135547223_0 J_253532914 J_11135547223 15.08 0.013 0 0
C_253532914_3545987055_0 J_253532914 J_3545987055 60.66 0.013 0 0
C_5281842567_5281842568_0 J_5281842567 J_5281842568 69.51 0.013 0 0
C_5281842567_253532871_0 J_5281842567 J_253532871 74.75 0.013 0 0
C_5281842567_1443044904_0 J_5281842567 J_1443044904 43.93 0.013 0 0
C_253532874_3545987055_0 J_253532874 J_3545987055 8.66 0.013 0 0
C_253532874_12206473568_0 J_253532874 J_12206473568 52.77 0.013 0 0
C_253532874_7121386221_0 J_253532874 J_7121386221 51.05 0.013 0 0
C_3545987055_253532874_0 J_3545987055 J_253532874 8.66 0.013 0 0
C_3545987055_253532896_0 J_3545987055 J_253532896 16.53 0.013 0 0
C_3545987055_253532914_0 J_3545987055 J_253532914 60.66 0.013 0 0
C_3545987055_3545987056_0 J_3545987055 J_3545987056 226.23 0.013 0 0
C_12206473568_11003036767_0 J_12206473568 J_11003036767 26.83 0.013 0 0
C_12206473568_253532874_0 J_12206473568 J_253532874 52.77 0.013 0 0
C_12206473568_12206473572_0 J_12206473568 J_12206473572 128.58 0.013 0 0
C_7121386221_1368933536_0 J_7121386221 J_1368933536 124.92 0.013 0 0
C_7121386221_253532874_0 J_7121386221 J_253532874 51.05 0.013 0 0
C_7121386221_7121386231_0 J_7121386221 J_7121386231 72.96 0.013 0 0
C_253532894_11399419950_0 J_253532894 J_11399419950 31.65 0.013 0 0
C_253532894_7101760803_0 J_253532894 J_7101760803 33.89 0.013 0 0
C_253532894_1634932079_0 J_253532894 J_1634932079 130.98 0.013 0 0
C_11399419950_11826963020_0 J_11399419950 J_11826963020 6.28 0.013 0 0
C_11399419950_1505269133_0 J_11399419950 J_1505269133 10.52 0.013 0 0
C_11399419950_253532894_0 J_11399419950 J_253532894 31.65 0.013 0 0
C_7101760803_253532896_0 J_7101760803 J_253532896 23.38 0.013 0 0
C_7101760803_11021627219_0 J_7101760803 J_11021627219 33.03 0.013 0 0
C_7101760803_253532894_0 J_7101760803 J_253532894 33.89 0.013 0 0
C_7101760803_11135547223_0 J_7101760803 J_11135547223 56.73 0.013 0 0
C_1634932079_5281842568_0 J_1634932079 J_5281842568 3.29 0.013 0 0
C_1634932079_253532894_0 J_1634932079 J_253532894 130.98 0.013 0 0
C_1634932079_5281842566_0 J_1634932079 J_5281842566 57.24 0.013 0 0
C_253532896_3545987055_0 J_253532896 J_3545987055 16.53 0.013 0 0
C_253532896_7101760803_0 J_253532896 J_7101760803 23.38 0.013 0 0
C_253532896_11021627219_0 J_253532896 J_11021627219 52.74 0.013 0 0
C_11021627219_7101760803_0 J_11021627219 J_7101760803 33.03 0.013 0 0
C_11021627219_11826963020_0 J_11021627219 J_11826963020 33.90 0.013 0 0
C_11021627219_253532896_0 J_11021627219 J_253532896 52.74 0.013 0 0
C_253532905_7298289272_0 J_253532905 J_7298289272 51.64 0.013 0 0
C_253532905_253532978_0 J_253532905 J_253532978 193.88 0.013 0 0
C_253532905_253532910_0 J_253532905 J_253532910 273.64 0.013 0 0
C_7298289272_253532905_0 J_7298289272 J_253532905 51.64 0.013 0 0
C_7298289272_1634931831_0 J_7298289272 J_1634931831 30.84 0.013 0 0
C_7298289272_7298289269_0 J_7298289272 J_7298289269 141.63 0.013 0 0
C_253532978_331146193_0 J_253532978 J_331146193 244.56 0.013 0 0
C_253532978_253532905_0 J_253532978 J_253532905 193.88 0.013 0 0
C_253532978_253532971_0 J_253532978 J_253532971 240.99 0.013 0 0
C_253532910_11021478367_0 J_253532910 J_11021478367 51.93 0.013 0 0
C_253532910_253532905_0 J_253532910 J_253532905 273.64 0.013 0 0
C_253532910_1103017558_0 J_253532910 J_1103017558 31.32 0.013 0 0
C_11021478367_253532910_0 J_11021478367 J_253532910 51.93 0.013 0 0
C_11021478367_7291147483_0 J_11021478367 J_7291147483 50.47 0.013 0 0
C_11021478367_11021478368_0 J_11021478367 J_11021478368 34.86 0.013 0 0
C_1103017558_253532910_0 J_1103017558 J_253532910 31.32 0.013 0 0
C_1103017558_11021437035_0 J_1103017558 J_11021437035 41.04 0.013 0 0
C_1103017558_11021437031_0 J_1103017558 J_11021437031 84.28 0.013 0 0
C_11135547223_7101760800_0 J_11135547223 J_7101760800 19.64 0.013 0 0
C_11135547223_253532914_0 J_11135547223 J_253532914 15.08 0.013 0 0
C_11135547223_7101760803_0 J_11135547223 J_7101760803 56.73 0.013 0 0
C_253532931_11434296179_0 J_253532931 J_11434296179 697.20 0.013 0 0
C_253532931_253532934_0 J_253532931 J_253532934 35.70 0.013 0 0
C_253532931_1443044870_0 J_253532931 J_1443044870 63.70 0.013 0 0
C_11434296179_12918642840_0 J_11434296179 J_12918642840 50.83 0.013 0 0
C_11434296179_253532931_0 J_11434296179 J_253532931 697.20 0.013 0 0
C_11434296179_10038782704_0 J_11434296179 J_10038782704 122.64 0.013 0 0
C_253532934_3530426108_0 J_253532934 J_3530426108 19.71 0.013 0 0
C_253532934_11002801404_0 J_253532934 J_11002801404 66.64 0.013 0 0
C_253532934_253532931_0 J_253532934 J_253532931 35.70 0.013 0 0
C_1443044870_7298289268_0 J_1443044870 J_7298289268 32.75 0.013 0 0
C_1443044870_253532931_0 J_1443044870 J_253532931 63.70 0.013 0 0
C_1443044870_1443044865_0 J_1443044870 J_1443044865 36.60 0.013 0 0
C_3530426108_253532934_0 J_3530426108 J_253532934 19.71 0.013 0 0
C_3530426108_13130886315_0 J_3530426108 J_13130886315 216.79 0.013 0 0
C_11002801404_11002890405_0 J_11002801404 J_11002890405 19.82 0.013 0 0
C_11002801404_7101760813_0 J_11002801404 J_7101760813 58.41 0.013 0 0
C_11002801404_253532934_0 J_11002801404 J_253532934 66.64 0.013 0 0
C_253532971_11121286748_0 J_253532971 J_11121286748 67.54 0.013 0 0
C_253532971_253532978_0 J_253532971 J_253532978 240.99 0.013 0 0
C_253532971_11002878595_0 J_253532971 J_11002878595 196.58 0.013 0 0
C_11121286748_11021454465_0 J_11121286748 J_11021454465 30.93 0.013 0 0
C_11121286748_11121286749_0 J_11121286748 J_11121286749 47.03 0.013 0 0
C_11121286748_253532971_0 J_11121286748 J_253532971 67.54 0.013 0 0
C_11002878595_253532971_0 J_11002878595 J_253532971 196.58 0.013 0 0
C_331146193_7291167555_0 J_331146193 J_7291167555 114.97 0.013 0 0
C_331146193_253532978_0 J_331146193 J_253532978 244.56 0.013 0 0
C_331146193_1368829030_0 J_331146193 J_1368829030 57.92 0.013 0 0
C_254442570_254442569_0 J_254442570 J_254442569 104.26 0.013 0 0
C_254442570_1590229386_0 J_254442570 J_1590229386 48.05 0.013 0 0
C_254442570_1367922212_0 J_254442570 J_1367922212 165.53 0.013 0 0
C_254442570_1472791625_0 J_254442570 J_1472791625 97.47 0.013 0 0
C_1590229386_1470833642_0 J_1590229386 J_1470833642 41.38 0.013 0 0
C_1590229386_1590229329_0 J_1590229386 J_1590229329 38.45 0.013 0 0
C_1590229386_254442570_0 J_1590229386 J_254442570 48.05 0.013 0 0
C_1367922212_1634931753_0 J_1367922212 J_1634931753 72.62 0.013 0 0
C_1367922212_1368117346_0 J_1367922212 J_1368117346 31.47 0.013 0 0
C_1367922212_254442570_0 J_1367922212 J_254442570 165.53 0.013 0 0
C_1472791625_11182447927_0 J_1472791625 J_11182447927 46.46 0.013 0 0
C_1472791625_254442570_0 J_1472791625 J_254442570 97.47 0.013 0 0
C_1472791625_1367922236_0 J_1472791625 J_1367922236 96.67 0.013 0 0
C_307940137_9645445129_0 J_307940137 J_9645445129 61.58 0.013 0 0
C_307940137_1434089177_0 J_307940137 J_1434089177 36.45 0.013 0 0
C_9645445129_9645445153_0 J_9645445129 J_9645445153 7.34 0.013 0 0
C_1434089177_1585741084_0 J_1434089177 J_1585741084 199.38 0.013 0 0
C_320240652_1371807641_0 J_320240652 J_1371807641 136.28 0.013 0 0
C_320240652_1371807634_0 J_320240652 J_1371807634 31.37 0.013 0 0
C_320240652_9700074489_0 J_320240652 J_9700074489 29.41 0.013 0 0
C_1371807641_1371807645_0 J_1371807641 J_1371807645 18.67 0.013 0 0
C_1371807641_3530277755_0 J_1371807641 J_3530277755 34.47 0.013 0 0
C_1371807641_320240652_0 J_1371807641 J_320240652 136.28 0.013 0 0
C_1371807641_1371807657_0 J_1371807641 J_1371807657 22.92 0.013 0 0
C_1371807634_320240652_0 J_1371807634 J_320240652 31.37 0.013 0 0
C_1371807634_11021417755_0 J_1371807634 J_11021417755 38.46 0.013 0 0
C_1371807634_13654038308_0 J_1371807634 J_13654038308 25.92 0.013 0 0
C_9700074489_320240654_0 J_9700074489 J_320240654 32.93 0.013 0 0
C_9700074489_11015641079_0 J_9700074489 J_11015641079 65.33 0.013 0 0
C_9700074489_320240652_0 J_9700074489 J_320240652 29.41 0.013 0 0
C_320240654_1371807648_0 J_320240654 J_1371807648 97.08 0.013 0 0
C_320240654_320240656_0 J_320240654 J_320240656 77.90 0.013 0 0
C_320240654_9700074489_0 J_320240654 J_9700074489 32.93 0.013 0 0
C_320240654_6193957625_0 J_320240654 J_6193957625 38.01 0.013 0 0
C_1371807648_320240654_0 J_1371807648 J_320240654 97.08 0.013 0 0
C_320240656_12141933091_0 J_320240656 J_12141933091 10.40 0.013 0 0
C_320240656_320240654_0 J_320240656 J_320240654 77.90 0.013 0 0
C_320240656_11027638241_0 J_320240656 J_11027638241 75.63 0.013 0 0
C_6193957625_320240654_0 J_6193957625 J_320240654 38.01 0.013 0 0
C_6193957625_11015706619_0 J_6193957625 J_11015706619 44.35 0.013 0 0
C_6193957625_13130422494_0 J_6193957625 J_13130422494 20.45 0.013 0 0
C_12141933091_1371807542_0 J_12141933091 J_1371807542 13.15 0.013 0 0
C_12141933091_320240656_0 J_12141933091 J_320240656 10.40 0.013 0 0
C_12141933091_12141933090_0 J_12141933091 J_12141933090 29.65 0.013 0 0
C_11027638241_11027638242_0 J_11027638241 J_11027638242 62.65 0.013 0 0
C_11027638241_2376774417_0 J_11027638241 J_2376774417 621.03 0.013 0 0
C_11027638241_320240656_0 J_11027638241 J_320240656 75.63 0.013 0 0
C_320241385_6182692049_0 J_320241385 J_6182692049 49.18 0.013 0 0
C_320241385_11015226548_0 J_320241385 J_11015226548 34.68 0.013 0 0
C_320241385_11021479825_0 J_320241385 J_11021479825 124.07 0.013 0 0
C_6182692049_320241385_0 J_6182692049 J_320241385 49.18 0.013 0 0
C_6182692049_11419448879_0 J_6182692049 J_11419448879 41.90 0.013 0 0
C_6182692049_11021479822_0 J_6182692049 J_11021479822 69.39 0.013 0 0
C_11015226548_2225133167_0 J_11015226548 J_2225133167 16.04 0.013 0 0
C_11015226548_320241385_0 J_11015226548 J_320241385 34.68 0.013 0 0
C_11015226548_11015226553_0 J_11015226548 J_11015226553 104.33 0.013 0 0
C_11021479825_11021479822_0 J_11021479825 J_11021479822 55.26 0.013 0 0
C_11021479825_320241385_0 J_11021479825 J_320241385 124.07 0.013 0 0
C_11021479825_5281842523_0 J_11021479825 J_5281842523 34.11 0.013 0 0
C_320241388_1514989637_0 J_320241388 J_1514989637 73.61 0.013 0 0
C_320241388_7452692543_0 J_320241388 J_7452692543 64.56 0.013 0 0
C_320241388_2225133166_0 J_320241388 J_2225133166 22.52 0.013 0 0
C_1514989637_1514989648_0 J_1514989637 J_1514989648 48.77 0.013 0 0
C_1514989637_320241388_0 J_1514989637 J_320241388 73.61 0.013 0 0
C_1514989637_11015173157_0 J_1514989637 J_11015173157 59.36 0.013 0 0
C_7452692543_320241390_0 J_7452692543 J_320241390 2.98 0.013 0 0
C_7452692543_320241388_0 J_7452692543 J_320241388 64.56 0.013 0 0
C_7452692543_11015166119_0 J_7452692543 J_11015166119 99.26 0.013 0 0
C_2225133166_320241388_0 J_2225133166 J_320241388 22.52 0.013 0 0
C_2225133166_1371807596_0 J_2225133166 J_1371807596 30.27 0.013 0 0
C_2225133166_11434512223_0 J_2225133166 J_11434512223 149.44 0.013 0 0
C_320241390_4458722678_0 J_320241390 J_4458722678 13.85 0.013 0 0
C_320241390_7452692543_0 J_320241390 J_7452692543 2.98 0.013 0 0
C_320241390_6194091031_0 J_320241390 J_6194091031 85.12 0.013 0 0
C_4458722678_320241390_0 J_4458722678 J_320241390 13.85 0.013 0 0
C_6194091031_7452692538_0 J_6194091031 J_7452692538 37.80 0.013 0 0
C_6194091031_4458722689_0 J_6194091031 J_4458722689 34.86 0.013 0 0
C_6194091031_320241390_0 J_6194091031 J_320241390 85.12 0.013 0 0
C_320242565_7453315390_0 J_320242565 J_7453315390 44.23 0.013 0 0
C_320242565_4458722615_0 J_320242565 J_4458722615 65.98 0.013 0 0
C_320242565_4458722596_0 J_320242565 J_4458722596 26.25 0.013 0 0
C_320242565_1514989618_0 J_320242565 J_1514989618 94.72 0.013 0 0
C_7453315390_7453315391_0 J_7453315390 J_7453315391 41.68 0.013 0 0
C_7453315390_4458722572_0 J_7453315390 J_4458722572 85.50 0.013 0 0
C_7453315390_320242565_0 J_7453315390 J_320242565 44.23 0.013 0 0
C_7453315390_7453315387_0 J_7453315390 J_7453315387 30.62 0.013 0 0
C_4458722615_4458722553_0 J_4458722615 J_4458722553 76.54 0.013 0 0
C_4458722615_320242565_0 J_4458722615 J_320242565 65.98 0.013 0 0
C_4458722615_11015153616_0 J_4458722615 J_11015153616 222.92 0.013 0 0
C_4458722596_7138383902_0 J_4458722596 J_7138383902 22.07 0.013 0 0
C_4458722596_320242565_0 J_4458722596 J_320242565 26.25 0.013 0 0
C_4458722596_11419446866_0 J_4458722596 J_11419446866 89.07 0.013 0 0
C_1514989618_4458722643_0 J_1514989618 J_4458722643 23.44 0.013 0 0
C_1514989618_320242565_0 J_1514989618 J_320242565 94.72 0.013 0 0
C_1514989618_4458722689_0 J_1514989618 J_4458722689 20.75 0.013 0 0
C_320242567_4458722572_0 J_320242567 J_4458722572 33.20 0.013 0 0
C_320242567_6177428350_0 J_320242567 J_6177428350 81.78 0.013 0 0
C_320242567_7453315312_0 J_320242567 J_7453315312 202.95 0.013 0 0
C_4458722572_320242567_0 J_4458722572 J_320242567 33.20 0.013 0 0
C_4458722572_7453315390_0 J_4458722572 J_7453315390 85.50 0.013 0 0
C_4458722572_7452673912_0 J_4458722572 J_7452673912 35.04 0.013 0 0
C_6177428350_9899714417_0 J_6177428350 J_9899714417 11.99 0.013 0 0
C_6177428350_6177428349_0 J_6177428350 J_6177428349 114.91 0.013 0 0
C_6177428350_320242567_0 J_6177428350 J_320242567 81.78 0.013 0 0
C_7453315312_6749434106_0 J_7453315312 J_6749434106 79.85 0.013 0 0
C_7453315312_320242567_0 J_7453315312 J_320242567 202.95 0.013 0 0
C_7453315312_7453315313_0 J_7453315312 J_7453315313 77.15 0.013 0 0
C_320242571_7453315398_0 J_320242571 J_7453315398 12.54 0.013 0 0
C_320242571_2225133290_0 J_320242571 J_2225133290 63.07 0.013 0 0
C_320242571_6904168224_0 J_320242571 J_6904168224 172.55 0.013 0 0
C_7453315398_6904168225_0 J_7453315398 J_6904168225 36.11 0.013 0 0
C_7453315398_320242571_0 J_7453315398 J_320242571 12.54 0.013 0 0
C_7453315398_7453315399_0 J_7453315398 J_7453315399 39.29 0.013 0 0
C_2225133290_320242571_0 J_2225133290 J_320242571 63.07 0.013 0 0
C_2225133290_7453315392_0 J_2225133290 J_7453315392 44.38 0.013 0 0
C_2225133290_2225133309_0 J_2225133290 J_2225133309 174.72 0.013 0 0
C_6904168224_320242571_0 J_6904168224 J_320242571 172.55 0.013 0 0
C_320242582_6182547032_0 J_320242582 J_6182547032 36.73 0.013 0 0
C_320242582_6751829037_0 J_320242582 J_6751829037 59.05 0.013 0 0
C_320242582_2225133544_0 J_320242582 J_2225133544 146.97 0.013 0 0
C_6182547032_11021465194_0 J_6182547032 J_11021465194 25.38 0.013 0 0
C_6182547032_320242582_0 J_6182547032 J_320242582 36.73 0.013 0 0
C_6182547032_11021533254_0 J_6182547032 J_11021533254 72.72 0.013 0 0
C_6182547032_1759857345_0 J_6182547032 J_1759857345 62.49 0.013 0 0
C_6751829037_320242582_0 J_6751829037 J_320242582 59.05 0.013 0 0
C_2225133544_7263139539_0 J_2225133544 J_7263139539 26.77 0.013 0 0
C_2225133544_320242582_0 J_2225133544 J_320242582 146.97 0.013 0 0
C_2225133544_2225133551_0 J_2225133544 J_2225133551 60.08 0.013 0 0
C_320242587_1347565272_0 J_320242587 J_1347565272 23.31 0.013 0 0
C_320242587_7465456804_0 J_320242587 J_7465456804 16.03 0.013 0 0
C_320242587_7138383916_0 J_320242587 J_7138383916 44.23 0.013 0 0
C_1347565272_320242587_0 J_1347565272 J_320242587 23.31 0.013 0 0
C_1347565272_7465456816_0 J_1347565272 J_7465456816 93.08 0.013 0 0
C_1347565272_11021533254_0 J_1347565272 J_11021533254 104.77 0.013 0 0
C_7465456804_11021578456_0 J_7465456804 J_11021578456 32.61 0.013 0 0
C_7465456804_320242587_0 J_7465456804 J_320242587 16.03 0.013 0 0
C_7465456804_7465456803_0 J_7465456804 J_7465456803 71.96 0.013 0 0
C_7138383916_1759857345_0 J_7138383916 J_1759857345 33.81 0.013 0 0
C_7138383916_7138383912_0 J_7138383916 J_7138383912 70.15 0.013 0 0
C_7138383916_320242587_0 J_7138383916 J_320242587 44.23 0.013 0 0
C_320242814_6901280942_0 J_320242814 J_6901280942 7.41 0.013 0 0
C_320242814_1371816433_0 J_320242814 J_1371816433 109.89 0.013 0 0
C_320242814_6758593405_0 J_320242814 J_6758593405 43.50 0.013 0 0
C_6901280942_320242814_0 J_6901280942 J_320242814 7.41 0.013 0 0
C_6901280942_11944239451_0 J_6901280942 J_11944239451 567.66 0.013 0 0
C_6901280942_12187502877_0 J_6901280942 J_12187502877 209.86 0.013 0 0
C_1371816433_4730103812_0 J_1371816433 J_4730103812 197.58 0.013 0 0
C_1371816433_320242814_0 J_1371816433 J_320242814 109.89 0.013 0 0
C_1371816433_1371816435_0 J_1371816433 J_1371816435 141.89 0.013 0 0
C_6758593405_6758593404_0 J_6758593405 J_6758593404 180.34 0.013 0 0
C_6758593405_6902150001_0 J_6758593405 J_6902150001 238.44 0.013 0 0
C_320242815_1371816389_0 J_320242815 J_1371816389 80.94 0.013 0 0
C_320242815_11885729668_0 J_320242815 J_11885729668 6.80 0.013 0 0
C_320242815_1371816411_0 J_320242815 J_1371816411 32.42 0.013 0 0
C_1371816389_1371816450_0 J_1371816389 J_1371816450 126.02 0.013 0 0
C_1371816389_320242815_0 J_1371816389 J_320242815 80.94 0.013 0 0
C_1371816389_1371816422_0 J_1371816389 J_1371816422 31.18 0.013 0 0
C_1371816389_1371816419_0 J_1371816389 J_1371816419 31.97 0.013 0 0
C_11885729668_320242815_0 J_11885729668 J_320242815 6.80 0.013 0 0
C_11885729668_6901280956_0 J_11885729668 J_6901280956 70.14 0.013 0 0
C_1371816411_1371816419_0 J_1371816411 J_1371816419 73.94 0.013 0 0
C_1371816411_11885696210_0 J_1371816411 J_11885696210 5.82 0.013 0 0
C_1371816411_1177705626_0 J_1371816411 J_1177705626 128.68 0.013 0 0
C_320242819_6748996048_0 J_320242819 J_6748996048 51.10 0.013 0 0
C_320242819_11021428239_0 J_320242819 J_11021428239 10.80 0.013 0 0
C_320242819_2225133701_0 J_320242819 J_2225133701 38.51 0.013 0 0
C_6748996048_6748996047_0 J_6748996048 J_6748996047 167.90 0.013 0 0
C_6748996048_6748996075_0 J_6748996048 J_6748996075 32.11 0.013 0 0
C_6748996048_320242819_0 J_6748996048 J_320242819 51.10 0.013 0 0
C_11021428239_320242819_0 J_11021428239 J_320242819 10.80 0.013 0 0
C_11021428239_1384732709_0 J_11021428239 J_1384732709 38.78 0.013 0 0
C_11021428239_11021428252_0 J_11021428239 J_11021428252 256.28 0.013 0 0
C_2225133701_9982048431_0 J_2225133701 J_9982048431 7.34 0.013 0 0
C_2225133701_6748996026_0 J_2225133701 J_6748996026 121.81 0.013 0 0
C_2225133701_11846741326_0 J_2225133701 J_11846741326 68.26 0.013 0 0
C_7291167555_331146193_0 J_7291167555 J_331146193 114.97 0.013 0 0
C_7291167555_1589223971_0 J_7291167555 J_1589223971 111.04 0.013 0 0
C_7291167555_10991796882_0 J_7291167555 J_10991796882 130.89 0.013 0 0
C_1368829030_1368828996_0 J_1368829030 J_1368828996 69.61 0.013 0 0
C_1368829030_331146193_0 J_1368829030 J_331146193 57.92 0.013 0 0
C_1368829030_2066388564_0 J_1368829030 J_2066388564 48.10 0.013 0 0
C_331146194_14072070989_0 J_331146194 J_14072070989 50.03 0.013 0 0
C_331146194_331146195_0 J_331146194 J_331146195 30.47 0.013 0 0
C_331146194_12998590069_0 J_331146194 J_12998590069 124.66 0.013 0 0
C_14072070989_12393621582_0 J_14072070989 J_12393621582 19.26 0.013 0 0
C_14072070989_331146194_0 J_14072070989 J_331146194 50.03 0.013 0 0
C_14072070989_14072070988_0 J_14072070989 J_14072070988 88.67 0.013 0 0
C_331146195_331146194_0 J_331146195 J_331146194 30.47 0.013 0 0
C_331146195_10991651169_0 J_331146195 J_10991651169 5.47 0.013 0 0
C_331146195_4315977113_0 J_331146195 J_4315977113 237.52 0.013 0 0
C_12998590069_331146194_0 J_12998590069 J_331146194 124.66 0.013 0 0
C_10991651169_331146195_0 J_10991651169 J_331146195 5.47 0.013 0 0
C_10991651169_331146196_0 J_10991651169 J_331146196 36.16 0.013 0 0
C_10991651169_10991651170_0 J_10991651169 J_10991651170 81.12 0.013 0 0
C_4315977113_331146196_0 J_4315977113 J_331146196 37.56 0.013 0 0
C_4315977113_3649031394_0 J_4315977113 J_3649031394 34.05 0.013 0 0
C_4315977113_331146195_0 J_4315977113 J_331146195 237.52 0.013 0 0
C_331146196_10991651169_0 J_331146196 J_10991651169 36.16 0.013 0 0
C_331146196_4315977113_0 J_331146196 J_4315977113 37.56 0.013 0 0
C_331146196_1016228579_0 J_331146196 J_1016228579 155.15 0.013 0 0
C_1016228579_331146196_0 J_1016228579 J_331146196 155.15 0.013 0 0
C_1016228579_1368828999_0 J_1016228579 J_1368828999 84.53 0.013 0 0
C_1016228579_1016228610_0 J_1016228579 J_1016228610 154.57 0.013 0 0
C_331146200_1470833642_0 J_331146200 J_1470833642 57.95 0.013 0 0
C_331146200_1718789013_0 J_331146200 J_1718789013 104.30 0.013 0 0
C_331146200_331146203_0 J_331146200 J_331146203 189.78 0.013 0 0
C_1470833642_1590229386_0 J_1470833642 J_1590229386 41.38 0.013 0 0
C_1470833642_331146200_0 J_1470833642 J_331146200 57.95 0.013 0 0
C_1470833642_10716532018_0 J_1470833642 J_10716532018 67.48 0.013 0 0
C_1718789013_1718788929_0 J_1718789013 J_1718788929 52.48 0.013 0 0
C_1718789013_3649031394_0 J_1718789013 J_3649031394 148.25 0.013 0 0
C_1718789013_331146200_0 J_1718789013 J_331146200 104.30 0.013 0 0
C_331146203_10056189410_0 J_331146203 J_10056189410 84.89 0.013 0 0
C_331146203_331146200_0 J_331146203 J_331146200 189.78 0.013 0 0
C_10056189410_10056189411_0 J_10056189410 J_10056189411 7.81 0.013 0 0
C_10056189410_331147702_0 J_10056189410 J_331147702 150.66 0.013 0 0
C_331147616_7298289287_0 J_331147616 J_7298289287 231.33 0.013 0 0
C_7298289287_7298289290_0 J_7298289287 J_7298289290 24.55 0.013 0 0
C_7298289287_11381136612_0 J_7298289287 J_11381136612 55.09 0.013 0 0
C_7298289287_331147616_0 J_7298289287 J_331147616 231.33 0.013 0 0
C_331147621_11381136612_0 J_331147621 J_11381136612 249.47 0.013 0 0
C_11381136612_7298289289_0 J_11381136612 J_7298289289 27.45 0.013 0 0
C_11381136612_7298289287_0 J_11381136612 J_7298289287 55.09 0.013 0 0
C_11381136612_331147621_0 J_11381136612 J_331147621 249.47 0.013 0 0
C_331147627_1374396082_0 J_331147627 J_1374396082 61.80 0.013 0 0
C_331147627_1368814490_0 J_331147627 J_1368814490 10.39 0.013 0 0
C_331147627_7298289289_0 J_331147627 J_7298289289 125.08 0.013 0 0
C_1374396082_331146203_0 J_1374396082 J_331146203 97.88 0.013 0 0
C_1374396082_7298289290_0 J_1374396082 J_7298289290 145.09 0.013 0 0
C_1368814490_331147627_0 J_1368814490 J_331147627 10.39 0.013 0 0
C_1368814490_1376905664_0 J_1368814490 J_1376905664 29.33 0.013 0 0
C_7298289289_11381136612_0 J_7298289289 J_11381136612 27.45 0.013 0 0
C_7298289289_7298289290_0 J_7298289289 J_7298289290 58.29 0.013 0 0
C_7298289289_331147627_0 J_7298289289 J_331147627 125.08 0.013 0 0
C_331147702_1104250513_0 J_331147702 J_1104250513 8.37 0.013 0 0
C_331147702_253448561_0 J_331147702 J_253448561 50.19 0.013 0 0
C_1104250513_331147702_0 J_1104250513 J_331147702 8.37 0.013 0 0
C_1104250513_1590229362_0 J_1104250513 J_1590229362 89.67 0.013 0 0
C_1104250513_10056189411_0 J_1104250513 J_10056189411 151.46 0.013 0 0
C_331147771_1371814186_0 J_331147771 J_1371814186 47.61 0.013 0 0
C_331147771_1371814178_0 J_331147771 J_1371814178 20.27 0.013 0 0
C_331147771_1371807570_0 J_331147771 J_1371807570 148.94 0.013 0 0
C_1371814186_10991440018_0 J_1371814186 J_10991440018 56.75 0.013 0 0
C_1371814186_5281842533_0 J_1371814186 J_5281842533 17.46 0.013 0 0
C_1371814186_331147771_0 J_1371814186 J_331147771 47.61 0.013 0 0
C_1371814178_1371814331_0 J_1371814178 J_1371814331 75.51 0.013 0 0
C_1371814178_331147771_0 J_1371814178 J_331147771 20.27 0.013 0 0
C_1371814178_1371814332_0 J_1371814178 J_1371814332 126.05 0.013 0 0
C_1371807570_7453315740_0 J_1371807570 J_7453315740 39.63 0.013 0 0
C_1371807570_1371807549_0 J_1371807570 J_1371807549 77.36 0.013 0 0
C_1371807570_331147771_0 J_1371807570 J_331147771 148.94 0.013 0 0
C_331147773_1371807583_0 J_331147773 J_1371807583 38.06 0.013 0 0
C_331147773_2225133203_0 J_331147773 J_2225133203 7.02 0.013 0 0
C_331147773_1371807553_0 J_331147773 J_1371807553 106.70 0.013 0 0
C_1371807583_1371807528_0 J_1371807583 J_1371807528 76.06 0.013 0 0
C_1371807583_7147042929_0 J_1371807583 J_7147042929 12.11 0.013 0 0
C_1371807583_331147773_0 J_1371807583 J_331147773 38.06 0.013 0 0
C_2225133203_331147773_0 J_2225133203 J_331147773 7.02 0.013 0 0
C_2225133203_11021676037_0 J_2225133203 J_11021676037 9.91 0.013 0 0
C_2225133203_13645830539_0 J_2225133203 J_13645830539 354.65 0.013 0 0
C_1371807553_331147773_0 J_1371807553 J_331147773 106.70 0.013 0 0
C_331150815_1103017563_0 J_331150815 J_1103017563 199.11 0.013 0 0
C_331150815_956958701_0 J_331150815 J_956958701 29.76 0.013 0 0
C_331150815_11074670551_0 J_331150815 J_11074670551 83.72 0.013 0 0
C_1103017563_10637202311_0 J_1103017563 J_10637202311 156.30 0.013 0 0
C_1103017563_331150815_0 J_1103017563 J_331150815 199.11 0.013 0 0
C_1103017563_9841504887_0 J_1103017563 J_9841504887 72.37 0.013 0 0
C_956958701_12918665449_0 J_956958701 J_12918665449 97.47 0.013 0 0
C_956958701_331150815_0 J_956958701 J_331150815 29.76 0.013 0 0
C_956958701_1078253085_0 J_956958701 J_1078253085 399.70 0.013 0 0
C_11074670551_1066041427_0 J_11074670551 J_1066041427 6.84 0.013 0 0
C_11074670551_1066041419_0 J_11074670551 J_1066041419 133.38 0.013 0 0
C_11074670551_331150815_0 J_11074670551 J_331150815 83.72 0.013 0 0
C_331150822_7298268883_0 J_331150822 J_7298268883 33.77 0.013 0 0
C_331150822_10637202311_0 J_331150822 J_10637202311 129.04 0.013 0 0
C_331150822_10038766779_0 J_331150822 J_10038766779 72.83 0.013 0 0
C_7298268883_7298268882_0 J_7298268883 J_7298268882 65.66 0.013 0 0
C_7298268883_11640782969_0 J_7298268883 J_11640782969 23.16 0.013 0 0
C_7298268883_331150822_0 J_7298268883 J_331150822 33.77 0.013 0 0
C_10637202311_10731125515_0 J_10637202311 J_10731125515 54.74 0.013 0 0
C_10637202311_331150822_0 J_10637202311 J_331150822 129.04 0.013 0 0
C_10637202311_1103017563_0 J_10637202311 J_1103017563 156.30 0.013 0 0
C_10038766779_331150822_0 J_10038766779 J_331150822 72.83 0.013 0 0
C_574872968_11885834679_0 J_574872968 J_11885834679 6.35 0.013 0 0
C_574872968_12961466033_0 J_574872968 J_12961466033 23.27 0.013 0 0
C_574872968_7465456821_0 J_574872968 J_7465456821 63.50 0.013 0 0
C_11885834679_574872968_0 J_11885834679 J_574872968 6.35 0.013 0 0
C_11885834679_11885834678_0 J_11885834679 J_11885834678 50.13 0.013 0 0
C_12961466033_12961466031_0 J_12961466033 J_12961466031 7.03 0.013 0 0
C_7465456821_11021569037_0 J_7465456821 J_11021569037 77.33 0.013 0 0
C_7465456821_574872968_0 J_7465456821 J_574872968 63.50 0.013 0 0
C_7465456821_7465456817_0 J_7465456821 J_7465456817 46.98 0.013 0 0
C_594600161_2376774439_0 J_594600161 J_2376774439 372.93 0.013 0 0
C_594600161_7452692549_0 J_594600161 J_7452692549 41.72 0.013 0 0
C_594600161_2225133157_0 J_594600161 J_2225133157 88.79 0.013 0 0
C_2376774439_2376774417_0 J_2376774439 J_2376774417 260.37 0.013 0 0
C_2376774439_594600161_0 J_2376774439 J_594600161 372.93 0.013 0 0
C_2376774439_7453315632_0 J_2376774439 J_7453315632 320.03 0.013 0 0
C_7452692549_594600161_0 J_7452692549 J_594600161 41.72 0.013 0 0
C_7452692549_9700074501_0 J_7452692549 J_9700074501 122.02 0.013 0 0
C_7452692549_2225133157_0 J_7452692549 J_2225133157 119.83 0.013 0 0
C_2225133157_2376774391_0 J_2225133157 J_2376774391 53.78 0.013 0 0
C_2225133157_594600161_0 J_2225133157 J_594600161 88.79 0.013 0 0
C_2225133157_7452692549_0 J_2225133157 J_7452692549 119.83 0.013 0 0
C_594600189_594600191_0 J_594600189 J_594600191 25.02 0.013 0 0
C_594600189_7453315573_0 J_594600189 J_7453315573 44.26 0.013 0 0
C_594600191_594600189_0 J_594600191 J_594600189 25.02 0.013 0 0
C_594600191_7453315574_0 J_594600191 J_7453315574 86.53 0.013 0 0
C_594600191_594600200_0 J_594600191 J_594600200 130.48 0.013 0 0
C_7453315573_594600189_0 J_7453315573 J_594600189 44.26 0.013 0 0
C_7453315574_594600191_0 J_7453315574 J_594600191 86.53 0.013 0 0
C_7453315574_832572431_0 J_7453315574 J_832572431 275.46 0.013 0 0
C_7453315574_594600200_0 J_7453315574 J_594600200 81.20 0.013 0 0
C_594600200_7452692544_0 J_594600200 J_7452692544 372.05 0.013 0 0
C_594600200_594600191_0 J_594600200 J_594600191 130.48 0.013 0 0
C_594600200_7453315574_0 J_594600200 J_7453315574 81.20 0.013 0 0
C_7452692544_9700074501_0 J_7452692544 J_9700074501 210.71 0.013 0 0
C_7452692544_594600200_0 J_7452692544 J_594600200 372.05 0.013 0 0
C_7452692544_12697947081_0 J_7452692544 J_12697947081 47.43 0.013 0 0
C_809461728_5485647354_0 J_809461728 J_5485647354 15.36 0.013 0 0
C_5485647354_809461728_0 J_5485647354 J_809461728 15.36 0.013 0 0
C_5485647354_809461787_0 J_5485647354 J_809461787 44.23 0.013 0 0
C_5485647354_7334211452_0 J_5485647354 J_7334211452 43.42 0.013 0 0
C_809461787_3713858821_0 J_809461787 J_3713858821 829.95 0.013 0 0
C_809461787_1104250512_0 J_809461787 J_1104250512 112.23 0.013 0 0
C_809461787_5485647354_0 J_809461787 J_5485647354 44.23 0.013 0 0
C_3713858821_7147090917_0 J_3713858821 J_7147090917 67.77 0.013 0 0
C_3713858821_809461787_0 J_3713858821 J_809461787 829.95 0.013 0 0
C_3713858821_13715446989_0 J_3713858821 J_13715446989 451.70 0.013 0 0
C_1104250512_9645445144_0 J_1104250512 J_9645445144 215.96 0.013 0 0
C_832572431_7453315574_0 J_832572431 J_7453315574 275.46 0.013 0 0
C_832572431_12604472593_0 J_832572431 J_12604472593 211.23 0.013 0 0
C_832572431_1633904753_0 J_832572431 J_1633904753 223.58 0.013 0 0
C_12604472593_7453315581_0 J_12604472593 J_7453315581 33.07 0.013 0 0
C_12604472593_832572431_0 J_12604472593 J_832572431 211.23 0.013 0 0
C_12604472593_12604472596_0 J_12604472593 J_12604472596 69.46 0.013 0 0
C_1633904753_832572431_0 J_1633904753 J_832572431 223.58 0.013 0 0
C_1633904753_10232936572_0 J_1633904753 J_10232936572 70.16 0.013 0 0
C_955696066_9937603726_0 J_955696066 J_9937603726 377.84 0.013 0 0
C_9937603726_6632652201_0 J_9937603726 J_6632652201 176.61 0.013 0 0
C_9937603726_6632652201_1 J_9937603726 J_6632652201 187.04 0.013 0 0
C_12918665449_9866129292_0 J_12918665449 J_9866129292 34.34 0.013 0 0
C_12918665449_956958701_0 J_12918665449 J_956958701 97.47 0.013 0 0
C_12918665449_10695024185_0 J_12918665449 J_10695024185 152.95 0.013 0 0
C_1078253085_956958701_0 J_1078253085 J_956958701 399.70 0.013 0 0
C_1078253085_7261406108_0 J_1078253085 J_7261406108 266.67 0.013 0 0
C_1078253085_14074138183_0 J_1078253085 J_14074138183 87.80 0.013 0 0
C_956975072_1104250537_0 J_956975072 J_1104250537 7.63 0.013 0 0
C_956975072_1078253094_0 J_956975072 J_1078253094 293.48 0.013 0 0
C_1104250537_956975072_0 J_1104250537 J_956975072 7.63 0.013 0 0
C_1104250537_5281842535_0 J_1104250537 J_5281842535 183.70 0.013 0 0
C_1104250537_10284858598_0 J_1104250537 J_10284858598 345.52 0.013 0 0
C_1078253094_2623251185_0 J_1078253094 J_2623251185 31.54 0.013 0 0
C_1078253094_1104250488_0 J_1078253094 J_1104250488 7.00 0.013 0 0
C_1014648217_10760860021_0 J_1014648217 J_10760860021 10.26 0.013 0 0
C_1014648217_2066388579_0 J_1014648217 J_2066388579 601.99 0.013 0 0
C_1014648217_6043189067_0 J_1014648217 J_6043189067 165.84 0.013 0 0
C_10760860021_1014648217_0 J_10760860021 J_1014648217 10.26 0.013 0 0
C_10760860021_10760860023_0 J_10760860021 J_10760860023 33.55 0.013 0 0
C_10760860021_10991832380_0 J_10760860021 J_10991832380 100.42 0.013 0 0
C_2066388579_11056570933_0 J_2066388579 J_11056570933 84.75 0.013 0 0
C_2066388579_2066388564_0 J_2066388579 J_2066388564 188.30 0.013 0 0
C_2066388579_1014648217_0 J_2066388579 J_1014648217 601.99 0.013 0 0
C_6043189067_1014648217_0 J_6043189067 J_1014648217 165.84 0.013 0 0
C_6043189067_12196521966_0 J_6043189067 J_12196521966 45.50 0.013 0 0
C_6043189067_2623258606_0 J_6043189067 J_2623258606 10.99 0.013 0 0
C_1014707800_1371828536_0 J_1014707800 J_1371828536 21.54 0.013 0 0
C_1014707800_1371828541_0 J_1014707800 J_1371828541 16.69 0.013 0 0
C_1014707800_1014707856_0 J_1014707800 J_1014707856 76.66 0.013 0 0
C_1371828536_1014707907_0 J_1371828536 J_1014707907 109.34 0.013 0 0
C_1371828536_1014707800_0 J_1371828536 J_1014707800 21.54 0.013 0 0
C_1371828536_1066108534_0 J_1371828536 J_1066108534 62.43 0.013 0 0
C_1371828541_1371828544_0 J_1371828541 J_1371828544 102.37 0.013 0 0
C_1371828541_1014707800_0 J_1371828541 J_1014707800 16.69 0.013 0 0
C_1371828541_7140718121_0 J_1371828541 J_7140718121 27.44 0.013 0 0
C_1014707856_7298289244_0 J_1014707856 J_7298289244 24.08 0.013 0 0
C_1014707856_1014707800_0 J_1014707856 J_1014707800 76.66 0.013 0 0
C_1014707856_7298289236_0 J_1014707856 J_7298289236 71.64 0.013 0 0
C_1014707848_1371828527_0 J_1014707848 J_1371828527 25.26 0.013 0 0
C_1014707848_13830086493_0 J_1014707848 J_13830086493 9.53 0.013 0 0
C_1014707848_7298289213_0 J_1014707848 J_7298289213 48.25 0.013 0 0
C_1371828527_1371828528_0 J_1371828527 J_1371828528 60.80 0.013 0 0
C_1371828527_1014707848_0 J_1371828527 J_1014707848 25.26 0.013 0 0
C_1371828527_1371828545_0 J_1371828527 J_1371828545 21.91 0.013 0 0
C_13830086493_1371828543_0 J_13830086493 J_1371828543 26.86 0.013 0 0
C_13830086493_1014707848_0 J_13830086493 J_1014707848 9.53 0.013 0 0
C_13830086493_7298289303_0 J_13830086493 J_7298289303 91.50 0.013 0 0
C_7298289213_13830105941_0 J_7298289213 J_13830105941 13.66 0.013 0 0
C_7298289213_1014707848_0 J_7298289213 J_1014707848 48.25 0.013 0 0
C_7298289213_7298289223_0 J_7298289213 J_7298289223 97.89 0.013 0 0
C_7298289244_1014707856_0 J_7298289244 J_1014707856 24.08 0.013 0 0
C_7298289244_7298289189_0 J_7298289244 J_7298289189 461.35 0.013 0 0
C_7298289244_7298289246_0 J_7298289244 J_7298289246 98.63 0.013 0 0
C_7298289236_7298289198_0 J_7298289236 J_7298289198 40.76 0.013 0 0
C_7298289236_1014707856_0 J_7298289236 J_1014707856 71.64 0.013 0 0
C_7298289236_7298289241_0 J_7298289236 J_7298289241 57.57 0.013 0 0
C_1014707872_13830105941_0 J_1014707872 J_13830105941 29.95 0.013 0 0
C_1014707872_7298289211_0 J_1014707872 J_7298289211 24.61 0.013 0 0
C_1014707872_1371828542_0 J_1014707872 J_1371828542 74.49 0.013 0 0
C_13830105941_1014707872_0 J_13830105941 J_1014707872 29.95 0.013 0 0
C_13830105941_7298289213_0 J_13830105941 J_7298289213 13.66 0.013 0 0
C_13830105941_13830105943_0 J_13830105941 J_13830105943 90.35 0.013 0 0
C_7298289211_7298289212_0 J_7298289211 J_7298289212 48.57 0.013 0 0
C_7298289211_1014707872_0 J_7298289211 J_1014707872 24.61 0.013 0 0
C_7298289211_7140718132_0 J_7298289211 J_7140718132 38.26 0.013 0 0
C_1371828542_1371828545_0 J_1371828542 J_1371828545 94.80 0.013 0 0
C_1371828542_7140718121_0 J_1371828542 J_7140718121 19.59 0.013 0 0
C_1371828542_1014707872_0 J_1371828542 J_1014707872 74.49 0.013 0 0
C_1014707907_1371828544_0 J_1014707907 J_1371828544 32.21 0.013 0 0
C_1014707907_1371828530_0 J_1014707907 J_1371828530 60.57 0.013 0 0
C_1014707907_1371828536_0 J_1014707907 J_1371828536 109.34 0.013 0 0
C_1014707907_1066108522_0 J_1014707907 J_1066108522 66.17 0.013 0 0
C_1371828544_7140718123_0 J_1371828544 J_7140718123 26.63 0.013 0 0
C_1371828544_1014707907_0 J_1371828544 J_1014707907 32.21 0.013 0 0
C_1371828544_1371828541_0 J_1371828544 J_1371828541 102.37 0.013 0 0
C_1371828544_1371828539_0 J_1371828544 J_1371828539 61.41 0.013 0 0
C_1371828530_1014707907_0 J_1371828530 J_1014707907 60.57 0.013 0 0
C_1371828530_7298289227_0 J_1371828530 J_7298289227 35.07 0.013 0 0
C_1371828530_1371828539_0 J_1371828530 J_1371828539 31.66 0.013 0 0
C_1066108522_1368801653_0 J_1066108522 J_1368801653 7.32 0.013 0 0
C_1066108522_1014707907_0 J_1066108522 J_1014707907 66.17 0.013 0 0
C_1066108522_1066108534_0 J_1066108522 J_1066108534 120.44 0.013 0 0
C_1016228504_1104250503_0 J_1016228504 J_1104250503 189.67 0.013 0 0
C_1104250503_1558993952_0 J_1104250503 J_1558993952 39.08 0.013 0 0
C_1104250503_1016228504_0 J_1104250503 J_1016228504 189.67 0.013 0 0
C_1016228517_1368117344_0 J_1016228517 J_1368117344 43.18 0.013 0 0
C_1016228517_1368828980_0 J_1016228517 J_1368828980 173.38 0.013 0 0
C_1016228517_1368829000_0 J_1016228517 J_1368829000 72.70 0.013 0 0
C_1368117344_1368828999_0 J_1368117344 J_1368828999 42.89 0.013 0 0
C_1368117344_1016228517_0 J_1368117344 J_1016228517 43.18 0.013 0 0
C_1368117344_1368828980_0 J_1368117344 J_1368828980 48.13 0.013 0 0
C_1368828980_1368117314_0 J_1368828980 J_1368117314 118.61 0.013 0 0
C_1368828980_1368117344_0 J_1368828980 J_1368117344 48.13 0.013 0 0
C_1368828980_1016228517_0 J_1368828980 J_1016228517 173.38 0.013 0 0
C_1368829000_1368828999_0 J_1368829000 J_1368828999 102.68 0.013 0 0
C_1368829000_1016228517_0 J_1368829000 J_1016228517 72.70 0.013 0 0
C_1368829000_1016228610_0 J_1368829000 J_1016228610 106.61 0.013 0 0
C_12196582428_1016228526_0 J_12196582428 J_1016228526 65.54 0.013 0 0
C_12196582428_1016228596_0 J_12196582428 J_1016228596 52.69 0.013 0 0
C_12196582428_11951620623_0 J_12196582428 J_11951620623 122.52 0.013 0 0
C_1016228534_1683088958_0 J_1016228534 J_1683088958 11.31 0.013 0 0
C_1016228534_1016228526_0 J_1016228534 J_1016228526 42.40 0.013 0 0
C_1016228534_10991813477_0 J_1016228534 J_10991813477 56.26 0.013 0 0
C_1683088958_1016228534_0 J_1683088958 J_1016228534 11.31 0.013 0 0
C_10991813477_1016228534_0 J_10991813477 J_1016228534 56.26 0.013 0 0
C_1016228556_1016228610_0 J_1016228556 J_1016228610 72.28 0.013 0 0
C_1016228556_1634931711_0 J_1016228556 J_1634931711 38.91 0.013 0 0
C_1016228556_1368828996_0 J_1016228556 J_1368828996 89.44 0.013 0 0
C_1016228556_2066388589_0 J_1016228556 J_2066388589 64.08 0.013 0 0
C_1016228610_1016228556_0 J_1016228610 J_1016228556 72.28 0.013 0 0
C_1016228610_1368829000_0 J_1016228610 J_1368829000 106.61 0.013 0 0
C_1016228610_1016228579_0 J_1016228610 J_1016228579 154.57 0.013 0 0
C_1634931711_1016228556_0 J_1634931711 J_1016228556 38.91 0.013 0 0
C_1634931711_7298289286_0 J_1634931711 J_7298289286 18.89 0.013 0 0
C_1634931711_7298289285_0 J_1634931711 J_7298289285 72.83 0.013 0 0
C_1368828996_7298289285_0 J_1368828996 J_7298289285 16.02 0.013 0 0
C_1368828996_1016228556_0 J_1368828996 J_1016228556 89.44 0.013 0 0
C_1368828996_1368829030_0 J_1368828996 J_1368829030 69.61 0.013 0 0
C_2066388589_1016228556_0 J_2066388589 J_1016228556 64.08 0.013 0 0
C_1368828999_1368117344_0 J_1368828999 J_1368117344 42.89 0.013 0 0
C_1368828999_7291167549_0 J_1368828999 J_7291167549 34.33 0.013 0 0
C_1368828999_1368829000_0 J_1368828999 J_1368829000 102.68 0.013 0 0
C_1368828999_1016228579_0 J_1368828999 J_1016228579 84.53 0.013 0 0
C_1016228596_12196582428_0 J_1016228596 J_12196582428 52.69 0.013 0 0
C_1066041419_11074670551_0 J_1066041419 J_11074670551 133.38 0.013 0 0
C_1066041427_11074670551_0 J_1066041427 J_11074670551 6.84 0.013 0 0
C_1066041427_11021766298_0 J_1066041427 J_11021766298 30.54 0.013 0 0
C_1066041427_11074670573_0 J_1066041427 J_11074670573 70.84 0.013 0 0
C_11021766298_1066041427_0 J_11021766298 J_1066041427 30.54 0.013 0 0
C_11021766298_11074670549_0 J_11021766298 J_11074670549 85.93 0.013 0 0
C_11021766298_11021766299_0 J_11021766298 J_11021766299 70.13 0.013 0 0
C_11074670573_11021766299_0 J_11074670573 J_11021766299 31.98 0.013 0 0
C_11074670573_1066041427_0 J_11074670573 J_1066041427 70.84 0.013 0 0
C_11074670573_12918642840_0 J_11074670573 J_12918642840 37.58 0.013 0 0
C_1368801653_1066108522_0 J_1368801653 J_1066108522 7.32 0.013 0 0
C_1368801653_7298295670_0 J_1368801653 J_7298295670 43.89 0.013 0 0
C_1066108534_1368801668_0 J_1066108534 J_1368801668 8.80 0.013 0 0
C_1066108534_1103012306_0 J_1066108534 J_1103012306 303.89 0.013 0 0
C_1066108534_1371828536_0 J_1066108534 J_1371828536 62.43 0.013 0 0
C_1368801668_1558993902_0 J_1368801668 J_1558993902 10.97 0.013 0 0
C_1368801668_1066108534_0 J_1368801668 J_1066108534 8.80 0.013 0 0
C_1103012306_1368117384_0 J_1103012306 J_1368117384 8.19 0.013 0 0
C_1103012306_1502865751_0 J_1103012306 J_1502865751 441.45 0.013 0 0
C_7261406108_7261406107_0 J_7261406108 J_7261406107 142.71 0.013 0 0
C_7261406108_1078253085_0 J_7261406108 J_1078253085 266.67 0.013 0 0
C_7261406108_1368117350_0 J_7261406108 J_1368117350 153.59 0.013 0 0
C_14074138183_1078253103_0 J_14074138183 J_1078253103 10.25 0.013 0 0
C_14074138183_14074138182_0 J_14074138183 J_14074138182 33.44 0.013 0 0
C_14074138183_1078253085_0 J_14074138183 J_1078253085 87.80 0.013 0 0
C_2623251185_1507064149_0 J_2623251185 J_1507064149 7.37 0.013 0 0
C_2623251185_6194047462_0 J_2623251185 J_6194047462 140.11 0.013 0 0
C_1104250488_1078253094_0 J_1104250488 J_1078253094 7.00 0.013 0 0
C_1104250488_1078253167_0 J_1104250488 J_1078253167 157.01 0.013 0 0
C_1104250488_1104250501_0 J_1104250488 J_1104250501 40.51 0.013 0 0
C_1078253103_14074138183_0 J_1078253103 J_14074138183 10.25 0.013 0 0
C_1078253103_11434298134_0 J_1078253103 J_11434298134 23.82 0.013 0 0
C_1078253103_14074138200_0 J_1078253103 J_14074138200 46.18 0.013 0 0
C_11434298134_1078253103_0 J_11434298134 J_1078253103 23.82 0.013 0 0
C_11434298134_11434298150_0 J_11434298134 J_11434298150 55.26 0.013 0 0
C_14074138200_1078253103_0 J_14074138200 J_1078253103 46.18 0.013 0 0
C_1078253167_1104250488_0 J_1078253167 J_1104250488 157.01 0.013 0 0
C_1080176720_5281842556_0 J_1080176720 J_5281842556 56.77 0.013 0 0
C_1080176720_1437330565_0 J_1080176720 J_1437330565 69.52 0.013 0 0
C_5281842556_1605954178_0 J_5281842556 J_1605954178 7.12 0.013 0 0
C_5281842556_1080176720_0 J_5281842556 J_1080176720 56.77 0.013 0 0
C_5281842556_11375356861_0 J_5281842556 J_11375356861 128.19 0.013 0 0
C_1437330565_1327387692_0 J_1437330565 J_1327387692 6.62 0.013 0 0
C_1437330565_11006982239_0 J_1437330565 J_11006982239 58.33 0.013 0 0
C_1437330565_1605954141_0 J_1437330565 J_1605954141 135.65 0.013 0 0
C_1080176721_1080176720_0 J_1080176721 J_1080176720 131.81 0.013 0 0
C_1080176721_1605954184_0 J_1080176721 J_1605954184 111.02 0.013 0 0
C_1605954184_1605954179_0 J_1605954184 J_1605954179 92.05 0.013 0 0
C_1605954184_1605954206_0 J_1605954184 J_1605954206 131.14 0.013 0 0
C_1605954184_1080176721_0 J_1605954184 J_1080176721 111.02 0.013 0 0
C_1103012303_13535865211_0 J_1103012303 J_13535865211 47.07 0.013 0 0
C_1103012303_1103012305_0 J_1103012303 J_1103012305 181.57 0.013 0 0
C_1103012303_1368117382_0 J_1103012303 J_1368117382 833.96 0.013 0 0
C_13535865211_1103012303_0 J_13535865211 J_1103012303 47.07 0.013 0 0
C_13535865211_13535853200_0 J_13535865211 J_13535853200 9.33 0.013 0 0
C_1103012305_1103012303_0 J_1103012305 J_1103012303 181.57 0.013 0 0
C_1368117382_1368117325_0 J_1368117382 J_1368117325 35.24 0.013 0 0
C_1368117382_1103012303_0 J_1368117382 J_1103012303 833.96 0.013 0 0
C_1368117384_1103012306_0 J_1368117384 J_1103012306 8.19 0.013 0 0
C_1368117384_11434400637_0 J_1368117384 J_11434400637 8.74 0.013 0 0
C_1368117384_11926574593_0 J_1368117384 J_11926574593 129.37 0.013 0 0
C_1502865751_1502865753_0 J_1502865751 J_1502865753 8.03 0.013 0 0
C_1502865751_1368672364_0 J_1502865751 J_1368672364 103.90 0.013 0 0
C_1502865751_7298289308_0 J_1502865751 J_7298289308 15.19 0.013 0 0
C_11021437035_11021437034_0 J_11021437035 J_11021437034 84.33 0.013 0 0
C_11021437035_1103017558_0 J_11021437035 J_1103017558 41.04 0.013 0 0
C_11021437035_6137413125_0 J_11021437035 J_6137413125 131.58 0.013 0 0
C_11021437031_11399465859_0 J_11021437031 J_11399465859 42.00 0.013 0 0
C_11021437031_11021437034_0 J_11021437031 J_11021437034 46.87 0.013 0 0
C_11021437031_1103017558_0 J_11021437031 J_1103017558 84.28 0.013 0 0
C_9841504887_10695024184_0 J_9841504887 J_10695024184 36.51 0.013 0 0
C_9841504887_9841504888_0 J_9841504887 J_9841504888 90.81 0.013 0 0
C_9841504887_1103017563_0 J_9841504887 J_1103017563 72.37 0.013 0 0
C_1104241031_1104241056_0 J_1104241031 J_1104241056 180.33 0.013 0 0
C_1104241031_1104241056_1 J_1104241031 J_1104241056 190.84 0.013 0 0
C_1104241056_11197334454_0 J_1104241056 J_11197334454 328.77 0.013 0 0
C_11197334454_11197334457_0 J_11197334454 J_11197334457 9.38 0.013 0 0
C_11197334454_1497326586_0 J_11197334454 J_1497326586 235.48 0.013 0 0
C_1104250501_1507064152_0 J_1104250501 J_1507064152 21.42 0.013 0 0
C_1104250501_3649025396_0 J_1104250501 J_3649025396 210.62 0.013 0 0
C_1104250495_6194047462_0 J_1104250495 J_6194047462 10.05 0.013 0 0
C_1104250495_6759139268_0 J_1104250495 J_6759139268 154.56 0.013 0 0
C_1104250495_1507064149_0 J_1104250495 J_1507064149 138.92 0.013 0 0
C_6194047462_1104250495_0 J_6194047462 J_1104250495 10.05 0.013 0 0
C_6194047462_331147627_0 J_6194047462 J_331147627 116.72 0.013 0 0
C_6759139268_1104250495_0 J_6759139268 J_1104250495 154.56 0.013 0 0
C_1507064149_2623251185_0 J_1507064149 J_2623251185 7.37 0.013 0 0
C_1507064149_1104250488_0 J_1507064149 J_1104250488 32.68 0.013 0 0
C_1507064149_1507064166_0 J_1507064149 J_1507064166 152.31 0.013 0 0
C_1507064152_1104250503_0 J_1507064152 J_1104250503 20.94 0.013 0 0
C_1507064152_13655652829_0 J_1507064152 J_13655652829 183.45 0.013 0 0
C_3649025396_3649025375_0 J_3649025396 J_3649025375 28.00 0.013 0 0
C_3649025396_3649025393_0 J_3649025396 J_3649025393 46.19 0.013 0 0
C_3649025396_1104250501_0 J_3649025396 J_1104250501 210.62 0.013 0 0
C_1558993952_10991915618_0 J_1558993952 J_10991915618 73.36 0.013 0 0
C_1558993952_1104250537_0 J_1558993952 J_1104250537 168.26 0.013 0 0
C_9645445144_9645445142_0 J_9645445144 J_9645445142 7.40 0.013 0 0
C_1590229362_1590229489_0 J_1590229362 J_1590229489 30.31 0.013 0 0
C_1590229362_1590229523_0 J_1590229362 J_1590229523 77.05 0.013 0 0
C_1590229362_1104250513_0 J_1590229362 J_1104250513 89.67 0.013 0 0
C_10056189411_10056189410_0 J_10056189411 J_10056189410 7.81 0.013 0 0
C_10056189411_1368814490_0 J_10056189411 J_1368814490 244.42 0.013 0 0
C_1104250524_12187447575_0 J_1104250524 J_12187447575 26.13 0.013 0 0
C_1104250524_12098136116_0 J_1104250524 J_12098136116 5.69 0.013 0 0
C_12187447575_1368117316_0 J_12187447575 J_1368117316 58.25 0.013 0 0
C_12187447575_12187447576_0 J_12187447575 J_12187447576 10.55 0.013 0 0
C_12098136116_1104250524_0 J_12098136116 J_1104250524 5.69 0.013 0 0
C_5281842535_5281842534_0 J_5281842535 J_5281842534 29.49 0.013 0 0
C_5281842535_5281842537_0 J_5281842535 J_5281842537 22.21 0.013 0 0
C_5281842535_1104250537_0 J_5281842535 J_1104250537 183.70 0.013 0 0
C_10284858598_1104250512_0 J_10284858598 J_1104250512 4.65 0.013 0 0
C_10284858598_809461787_0 J_10284858598 J_809461787 113.19 0.013 0 0
C_1177705626_6901276163_0 J_1177705626 J_6901276163 78.69 0.013 0 0
C_1177705626_12187502877_0 J_1177705626 J_12187502877 7.42 0.013 0 0
C_6901276163_6901276162_0 J_6901276163 J_6901276162 83.14 0.013 0 0
C_6901276163_320242814_0 J_6901276163 J_320242814 133.63 0.013 0 0
C_12187502877_1177705626_0 J_12187502877 J_1177705626 7.42 0.013 0 0
C_12187502877_11885696210_0 J_12187502877 J_11885696210 129.21 0.013 0 0
C_1177705914_11434710893_0 J_1177705914 J_11434710893 18.17 0.013 0 0
C_1177705914_12961466034_0 J_1177705914 J_12961466034 38.85 0.013 0 0
C_11434710893_11434710894_0 J_11434710893 J_11434710894 60.70 0.013 0 0
C_11434710893_3528034343_0 J_11434710893 J_3528034343 131.04 0.013 0 0
C_11434710893_1177705914_0 J_11434710893 J_1177705914 18.17 0.013 0 0
C_12961466034_12961466033_0 J_12961466034 J_12961466033 6.35 0.013 0 0
C_12961466034_11885834679_0 J_12961466034 J_11885834679 24.47 0.013 0 0
C_1198163774_1374397406_0 J_1198163774 J_1374397406 13.87 0.013 0 0
C_1198163774_12161557850_0 J_1198163774 J_12161557850 287.72 0.013 0 0
C_1198163774_13802597960_0 J_1198163774 J_13802597960 422.28 0.013 0 0
C_1374397406_1511238410_0 J_1374397406 J_1511238410 178.29 0.013 0 0
C_1374397406_1511238410_1 J_1374397406 J_1511238410 190.11 0.013 0 0
C_1374397406_1198163774_0 J_1374397406 J_1198163774 13.87 0.013 0 0
C_12161557850_8935990993_0 J_12161557850 J_8935990993 15.73 0.013 0 0
C_12161557850_12161557849_0 J_12161557850 J_12161557849 11.66 0.013 0 0
C_13802597960_13802597961_0 J_13802597960 J_13802597961 6.69 0.013 0 0
C_13802597960_8935990991_0 J_13802597960 J_8935990991 11.69 0.013 0 0
C_1198169318_7465393503_0 J_1198169318 J_7465393503 98.81 0.013 0 0
C_1198169318_7465393502_0 J_1198169318 J_7465393502 12.23 0.013 0 0
C_1198169318_12362900668_0 J_1198169318 J_12362900668 83.92 0.013 0 0
C_7465393503_6617328973_0 J_7465393503 J_6617328973 23.54 0.013 0 0
C_7465393503_1371814145_0 J_7465393503 J_1371814145 77.86 0.013 0 0
C_7465393503_1198169318_0 J_7465393503 J_1198169318 98.81 0.013 0 0
C_7465393502_4204925697_0 J_7465393502 J_4204925697 100.62 0.013 0 0
C_7465393502_1327387669_0 J_7465393502 J_1327387669 48.90 0.013 0 0
C_7465393502_1198169318_0 J_7465393502 J_1198169318 12.23 0.013 0 0
C_12362900668_5281840014_0 J_12362900668 J_5281840014 204.04 0.013 0 0
C_12362900668_1923819587_0 J_12362900668 J_1923819587 55.86 0.013 0 0
C_12362900668_1198169318_0 J_12362900668 J_1198169318 83.92 0.013 0 0
C_1198169359_5281840014_0 J_1198169359 J_5281840014 71.82 0.013 0 0
C_1198169359_7465393504_0 J_1198169359 J_7465393504 32.93 0.013 0 0
C_1198169359_4458722757_0 J_1198169359 J_4458722757 17.17 0.013 0 0
C_1198169359_11812221695_0 J_1198169359 J_11812221695 39.65 0.013 0 0
C_5281840014_1198169359_0 J_5281840014 J_1198169359 71.82 0.013 0 0
C_5281840014_5281842548_0 J_5281840014 J_5281842548 245.30 0.013 0 0
C_5281840014_12362900668_0 J_5281840014 J_12362900668 204.04 0.013 0 0
C_7465393504_1198169359_0 J_7465393504 J_1198169359 32.93 0.013 0 0
C_7465393504_6617328973_0 J_7465393504 J_6617328973 27.93 0.013 0 0
C_7465393504_7465393498_0 J_7465393504 J_7465393498 76.31 0.013 0 0
C_4458722757_4458722675_0 J_4458722757 J_4458722675 31.82 0.013 0 0
C_4458722757_1198169359_0 J_4458722757 J_1198169359 17.17 0.013 0 0
C_4458722757_6617329692_0 J_4458722757 J_6617329692 87.55 0.013 0 0
C_11812221695_1198169359_0 J_11812221695 J_1198169359 39.65 0.013 0 0
C_11812221695_6620856859_0 J_11812221695 J_6620856859 120.89 0.013 0 0
C_1262043907_1262043930_0 J_1262043907 J_1262043930 14.98 0.013 0 0
C_1262043907_1770465756_0 J_1262043907 J_1770465756 46.27 0.013 0 0
C_1262043907_1262043929_0 J_1262043907 J_1262043929 43.96 0.013 0 0
C_1262043907_1262043916_0 J_1262043907 J_1262043916 74.75 0.013 0 0
C_1262043930_1966466667_0 J_1262043930 J_1966466667 26.05 0.013 0 0
C_1262043930_1262043907_0 J_1262043930 J_1262043907 14.98 0.013 0 0
C_1262043930_1262043923_0 J_1262043930 J_1262043923 44.62 0.013 0 0
C_1770465756_1262043907_0 J_1770465756 J_1262043907 46.27 0.013 0 0
C_1770465756_1262043914_0 J_1770465756 J_1262043914 41.06 0.013 0 0
C_1770465756_1262043938_0 J_1770465756 J_1262043938 91.73 0.013 0 0
C_1770465756_1770465751_0 J_1770465756 J_1770465751 44.86 0.013 0 0
C_1262043929_1262043907_0 J_1262043929 J_1262043907 43.96 0.013 0 0
C_1262043916_1262043907_0 J_1262043916 J_1262043907 74.75 0.013 0 0
C_1262043916_1262043931_0 J_1262043916 J_1262043931 26.17 0.013 0 0
C_1262043909_9928560958_0 J_1262043909 J_9928560958 54.69 0.013 0 0
C_1262043909_13105830030_0 J_1262043909 J_13105830030 84.11 0.013 0 0
C_1262043909_9857850176_0 J_1262043909 J_9857850176 50.31 0.013 0 0
C_1262043909_1262043934_0 J_1262043909 J_1262043934 32.91 0.013 0 0
C_9928560958_1262043909_0 J_9928560958 J_1262043909 54.69 0.013 0 0
C_13105830030_1262043909_0 J_13105830030 J_1262043909 84.11 0.013 0 0
C_13105830030_1262043932_0 J_13105830030 J_1262043932 92.56 0.013 0 0
C_13105830030_6144436485_0 J_13105830030 J_6144436485 32.67 0.013 0 0
C_1262043934_9928560957_0 J_1262043934 J_9928560957 59.15 0.013 0 0
C_1262043934_6144436485_0 J_1262043934 J_6144436485 83.22 0.013 0 0
C_1262043934_1262043909_0 J_1262043934 J_1262043909 32.91 0.013 0 0
C_1262043934_7466386825_0 J_1262043934 J_7466386825 34.10 0.013 0 0
C_1262043910_1262043922_0 J_1262043910 J_1262043922 58.32 0.013 0 0
C_1262043910_7466386826_0 J_1262043910 J_7466386826 174.94 0.013 0 0
C_1262043922_1262043914_0 J_1262043922 J_1262043914 91.78 0.013 0 0
C_1262043922_7466386830_0 J_1262043922 J_7466386830 96.48 0.013 0 0
C_1262043922_1262043938_0 J_1262043922 J_1262043938 40.86 0.013 0 0
C_1262043922_1262043910_0 J_1262043922 J_1262043910 58.32 0.013 0 0
C_7466386826_1374397406_0 J_7466386826 J_1374397406 13.44 0.013 0 0
C_7466386826_13807649466_0 J_7466386826 J_13807649466 93.22 0.013 0 0
C_1262043932_13105830030_0 J_1262043932 J_13105830030 92.56 0.013 0 0
C_1262043932_1262043919_0 J_1262043932 J_1262043919 32.81 0.013 0 0
C_1262043932_1262043911_0 J_1262043932 J_1262043911 43.82 0.013 0 0
C_1262043932_1966466667_0 J_1262043932 J_1966466667 125.68 0.013 0 0
C_1262043912_1262043947_0 J_1262043912 J_1262043947 20.87 0.013 0 0
C_1262043912_1262043933_0 J_1262043912 J_1262043933 21.90 0.013 0 0
C_1262043912_7466386827_0 J_1262043912 J_7466386827 78.24 0.013 0 0
C_1262043947_1262043912_0 J_1262043947 J_1262043912 20.87 0.013 0 0
C_1262043947_13807649806_0 J_1262043947 J_13807649806 79.25 0.013 0 0
C_1262043947_1770465743_0 J_1262043947 J_1770465743 10.39 0.013 0 0
C_1262043933_1262043938_0 J_1262043933 J_1262043938 96.00 0.013 0 0
C_1262043933_1262043912_0 J_1262043933 J_1262043912 21.90 0.013 0 0
C_1262043933_1770465746_0 J_1262043933 J_1770465746 7.60 0.013 0 0
C_7466386827_1770465746_0 J_7466386827 J_1770465746 55.84 0.013 0 0
C_7466386827_13807649466_0 J_7466386827 J_13807649466 4.41 0.013 0 0
C_7466386827_1262043912_0 J_7466386827 J_1262043912 78.24 0.013 0 0
C_1262043914_1770465756_0 J_1262043914 J_1770465756 41.06 0.013 0 0
C_1262043914_1262043936_0 J_1262043914 J_1262043936 52.03 0.013 0 0
C_1262043914_1262043922_0 J_1262043914 J_1262043922 91.78 0.013 0 0
C_1262043936_1262043914_0 J_1262043936 J_1262043914 52.03 0.013 0 0
C_1262043931_1262043919_0 J_1262043931 J_1262043919 27.34 0.013 0 0
C_1262043931_13807649806_0 J_1262043931 J_13807649806 25.74 0.013 0 0
C_1262043919_1262043931_0 J_1262043919 J_1262043931 27.34 0.013 0 0
C_1262043919_1262043932_0 J_1262043919 J_1262043932 32.81 0.013 0 0
C_1262043919_6144436485_0 J_1262043919 J_6144436485 94.36 0.013 0 0
C_1262043919_1966466667_0 J_1262043919 J_1966466667 92.33 0.013 0 0
C_6144436485_1262043934_0 J_6144436485 J_1262043934 83.22 0.013 0 0
C_6144436485_1262043919_0 J_6144436485 J_1262043919 94.36 0.013 0 0
C_6144436485_13105830030_0 J_6144436485 J_13105830030 32.67 0.013 0 0
C_6144436485_1770465743_0 J_6144436485 J_1770465743 34.59 0.013 0 0
C_1966466667_1262043930_0 J_1966466667 J_1262043930 26.05 0.013 0 0
C_1966466667_1262043919_0 J_1966466667 J_1262043919 92.33 0.013 0 0
C_1966466667_1262043932_0 J_1966466667 J_1262043932 125.68 0.013 0 0
C_1262043920_1262043938_0 J_1262043920 J_1262043938 26.87 0.013 0 0
C_1262043920_1262043916_0 J_1262043920 J_1262043916 27.01 0.013 0 0
C_1262043938_1262043933_0 J_1262043938 J_1262043933 96.00 0.013 0 0
C_1262043938_1770465756_0 J_1262043938 J_1770465756 91.73 0.013 0 0
C_1262043938_1262043922_0 J_1262043938 J_1262043922 40.86 0.013 0 0
C_1262043938_1262043920_0 J_1262043938 J_1262043920 26.87 0.013 0 0
C_7466386830_1262043922_0 J_7466386830 J_1262043922 96.48 0.013 0 0
C_7466386830_1770465753_0 J_7466386830 J_1770465753 52.53 0.013 0 0
C_7466386830_1770465746_0 J_7466386830 J_1770465746 34.12 0.013 0 0
C_1262043923_1262043930_0 J_1262043923 J_1262043930 44.62 0.013 0 0
C_13807649806_1262043947_0 J_13807649806 J_1262043947 79.25 0.013 0 0
C_13807649806_1262043920_0 J_13807649806 J_1262043920 25.81 0.013 0 0
C_1770465746_7466386827_0 J_1770465746 J_7466386827 55.84 0.013 0 0
C_1770465746_1262043933_0 J_1770465746 J_1262043933 7.60 0.013 0 0
C_1770465746_7466386830_0 J_1770465746 J_7466386830 34.12 0.013 0 0
C_9928560957_1262043934_0 J_9928560957 J_1262043934 59.15 0.013 0 0
C_7466386825_1770465743_0 J_7466386825 J_1770465743 82.89 0.013 0 0
C_7466386825_13807649550_0 J_7466386825 J_13807649550 33.42 0.013 0 0
C_7466386825_1262043934_0 J_7466386825 J_1262043934 34.10 0.013 0 0
C_7466386825_9928560993_0 J_7466386825 J_9928560993 30.65 0.013 0 0
C_1770465743_1262043947_0 J_1770465743 J_1262043947 10.39 0.013 0 0
C_1770465743_7466386825_0 J_1770465743 J_7466386825 82.89 0.013 0 0
C_1770465743_6144436485_0 J_1770465743 J_6144436485 34.59 0.013 0 0
C_1327387669_1371814296_0 J_1327387669 J_1371814296 116.27 0.013 0 0
C_1327387669_7465393502_0 J_1327387669 J_7465393502 48.90 0.013 0 0
C_1327387669_1371814145_0 J_1327387669 J_1371814145 107.95 0.013 0 0
C_1327387669_4204925697_0 J_1327387669 J_4204925697 99.07 0.013 0 0
C_1371814296_1371814191_0 J_1371814296 J_1371814191 36.75 0.013 0 0
C_1371814296_1327387669_0 J_1371814296 J_1327387669 116.27 0.013 0 0
C_1371814296_7465393486_0 J_1371814296 J_7465393486 121.38 0.013 0 0
C_1371814145_7465393503_0 J_1371814145 J_7465393503 77.86 0.013 0 0
C_1371814145_1371814316_0 J_1371814145 J_1371814316 126.35 0.013 0 0
C_1371814145_1327387669_0 J_1371814145 J_1327387669 107.95 0.013 0 0
C_4204925697_7465393502_0 J_4204925697 J_7465393502 100.62 0.013 0 0
C_4204925697_4204925699_0 J_4204925697 J_4204925699 141.61 0.013 0 0
C_4204925697_1327387669_0 J_4204925697 J_1327387669 99.07 0.013 0 0
C_1327387674_1371814201_0 J_1327387674 J_1371814201 14.45 0.013 0 0
C_1327387674_1371814219_0 J_1327387674 J_1371814219 29.91 0.013 0 0
C_1327387674_1923819587_0 J_1327387674 J_1923819587 230.94 0.013 0 0
C_1371814201_4204925699_0 J_1371814201 J_4204925699 91.91 0.013 0 0
C_1371814201_1327387674_0 J_1371814201 J_1327387674 14.45 0.013 0 0
C_1371814201_1371814327_0 J_1371814201 J_1371814327 47.18 0.013 0 0
C_1371814219_1327387674_0 J_1371814219 J_1327387674 29.91 0.013 0 0
C_1371814219_1327387675_0 J_1371814219 J_1327387675 4.03 0.013 0 0
C_1371814219_11395452270_0 J_1371814219 J_11395452270 80.85 0.013 0 0
C_1923819587_7465614235_0 J_1923819587 J_7465614235 47.66 0.013 0 0
C_1923819587_1327387674_0 J_1923819587 J_1327387674 230.94 0.013 0 0
C_1923819587_12362900668_0 J_1923819587 J_12362900668 55.86 0.013 0 0
C_1327387675_1371814219_0 J_1327387675 J_1371814219 4.03 0.013 0 0
C_1327387675_1327387677_0 J_1327387675 J_1327387677 50.33 0.013 0 0
C_1327387675_1327387676_0 J_1327387675 J_1327387676 195.52 0.013 0 0
C_1327387677_1327387675_0 J_1327387677 J_1327387675 50.33 0.013 0 0
C_1327387677_1327387682_0 J_1327387677 J_1327387682 38.85 0.013 0 0
C_1327387677_6194157441_0 J_1327387677 J_6194157441 87.10 0.013 0 0
C_1327387677_1371814252_0 J_1327387677 J_1371814252 37.20 0.013 0 0
C_1327387676_1371814282_0 J_1327387676 J_1371814282 22.79 0.013 0 0
C_1327387676_7465614235_0 J_1327387676 J_7465614235 107.35 0.013 0 0
C_1327387676_1327387675_0 J_1327387676 J_1327387675 195.52 0.013 0 0
C_1371814282_6194157441_0 J_1371814282 J_6194157441 103.74 0.013 0 0
C_1371814282_1327387676_0 J_1371814282 J_1327387676 22.79 0.013 0 0
C_1371814282_1371814205_0 J_1371814282 J_1371814205 8.76 0.013 0 0
C_7465614235_1923819587_0 J_7465614235 J_1923819587 47.66 0.013 0 0
C_7465614235_9700074465_0 J_7465614235 J_9700074465 61.91 0.013 0 0
C_7465614235_1327387676_0 J_7465614235 J_1327387676 107.35 0.013 0 0
C_1327387682_1327387677_0 J_1327387682 J_1327387677 38.85 0.013 0 0
C_1327387682_1327387685_0 J_1327387682 J_1327387685 42.90 0.013 0 0
C_1327387682_1327387681_0 J_1327387682 J_1327387681 89.29 0.013 0 0
C_1327387682_1371814312_0 J_1327387682 J_1371814312 33.82 0.013 0 0
C_6194157441_1371814282_0 J_6194157441 J_1371814282 103.74 0.013 0 0
C_6194157441_1327387677_0 J_6194157441 J_1327387677 87.10 0.013 0 0
C_6194157441_1327387681_0 J_6194157441 J_1327387681 39.08 0.013 0 0
C_1371814252_1327387677_0 J_1371814252 J_1327387677 37.20 0.013 0 0
C_1327387679_1327387681_0 J_1327387679 J_1327387681 101.24 0.013 0 0
C_1327387679_1371814205_0 J_1327387679 J_1371814205 35.62 0.013 0 0
C_1327387679_1327387683_0 J_1327387679 J_1327387683 38.86 0.013 0 0
C_1327387679_7465614240_0 J_1327387679 J_7465614240 92.15 0.013 0 0
C_1327387681_1327387679_0 J_1327387681 J_1327387679 101.24 0.013 0 0
C_1327387681_1327387682_0 J_1327387681 J_1327387682 89.29 0.013 0 0
C_1327387681_1327387684_0 J_1327387681 J_1327387684 42.13 0.013 0 0
C_1327387681_6194157441_0 J_1327387681 J_6194157441 39.08 0.013 0 0
C_1371814205_1371814282_0 J_1371814205 J_1371814282 8.76 0.013 0 0
C_1371814205_1327387679_0 J_1371814205 J_1327387679 35.62 0.013 0 0
C_1371814205_7465614239_0 J_1371814205 J_7465614239 120.49 0.013 0 0
C_1327387683_7465614246_0 J_1327387683 J_7465614246 29.90 0.013 0 0
C_1327387683_1327387684_0 J_1327387683 J_1327387684 101.55 0.013 0 0
C_1327387683_1327387679_0 J_1327387683 J_1327387679 38.86 0.013 0 0
C_1327387683_11009508675_0 J_1327387683 J_11009508675 22.35 0.013 0 0
C_7465614240_1327387679_0 J_7465614240 J_1327387679 92.15 0.013 0 0
C_1327387684_1327387683_0 J_1327387684 J_1327387683 101.55 0.013 0 0
C_1327387684_1327387685_0 J_1327387684 J_1327387685 89.25 0.013 0 0
C_1327387684_1327387681_0 J_1327387684 J_1327387681 42.13 0.013 0 0
C_1327387684_1327387687_0 J_1327387684 J_1327387687 46.26 0.013 0 0
C_1327387685_1327387682_0 J_1327387685 J_1327387682 42.90 0.013 0 0
C_1327387685_1327387689_0 J_1327387685 J_1327387689 39.99 0.013 0 0
C_1327387685_1327387684_0 J_1327387685 J_1327387684 89.25 0.013 0 0
C_1327387685_1371814209_0 J_1327387685 J_1371814209 39.47 0.013 0 0
C_1371814312_1327387682_0 J_1371814312 J_1327387682 33.82 0.013 0 0
C_7465614246_1371816462_0 J_7465614246 J_1371816462 74.68 0.013 0 0
C_7465614246_1327387683_0 J_7465614246 J_1327387683 29.90 0.013 0 0
C_7465614246_7465614245_0 J_7465614246 J_7465614245 20.74 0.013 0 0
C_11009508675_1327387683_0 J_11009508675 J_1327387683 22.35 0.013 0 0
C_11009508675_1327387686_0 J_11009508675 J_1327387686 22.89 0.013 0 0
C_11009508675_7465614245_0 J_11009508675 J_7465614245 34.72 0.013 0 0
C_1327387687_1327387684_0 J_1327387687 J_1327387684 46.26 0.013 0 0
C_1327387687_1327387694_0 J_1327387687 J_1327387694 44.09 0.013 0 0
C_1327387687_1327387686_0 J_1327387687 J_1327387686 97.06 0.013 0 0
C_1327387687_1327387689_0 J_1327387687 J_1327387689 90.10 0.013 0 0
C_1327387689_1327387685_0 J_1327387689 J_1327387685 39.99 0.013 0 0
C_1327387689_1327387695_0 J_1327387689 J_1327387695 45.92 0.013 0 0
C_1327387689_1327387687_0 J_1327387689 J_1327387687 90.10 0.013 0 0
C_1327387689_1371814298_0 J_1327387689 J_1371814298 82.06 0.013 0 0
C_1371814209_1327387685_0 J_1371814209 J_1327387685 39.47 0.013 0 0
C_1327387686_1371816431_0 J_1327387686 J_1371816431 85.94 0.013 0 0
C_1327387686_11009508675_0 J_1327387686 J_11009508675 22.89 0.013 0 0
C_1327387686_1327387687_0 J_1327387686 J_1327387687 97.06 0.013 0 0
C_1371816431_1327387686_0 J_1371816431 J_1327387686 85.94 0.013 0 0
C_1371816431_1371816413_0 J_1371816431 J_1371816413 40.14 0.013 0 0
C_1371816431_5281842548_0 J_1371816431 J_5281842548 181.42 0.013 0 0
C_1327387694_1371816413_0 J_1327387694 J_1371816413 188.66 0.013 0 0
C_1327387694_1327387695_0 J_1327387694 J_1327387695 89.47 0.013 0 0
C_1327387694_1327387687_0 J_1327387694 J_1327387687 44.09 0.013 0 0
C_1327387694_1327387697_0 J_1327387694 J_1327387697 42.19 0.013 0 0
C_1327387695_1327387689_0 J_1327387695 J_1327387689 45.92 0.013 0 0
C_1327387695_1327387698_0 J_1327387695 J_1327387698 39.78 0.013 0 0
C_1327387695_1327387694_0 J_1327387695 J_1327387694 89.47 0.013 0 0
C_1327387695_11395452271_0 J_1327387695 J_11395452271 30.30 0.013 0 0
C_1371814298_1327387689_0 J_1371814298 J_1327387689 82.06 0.013 0 0
C_1371814298_1327387690_0 J_1371814298 J_1327387690 17.25 0.013 0 0
C_1371814298_9700074460_0 J_1371814298 J_9700074460 172.82 0.013 0 0
C_1327387690_6152762851_0 J_1327387690 J_6152762851 97.44 0.013 0 0
C_1327387690_1371814298_0 J_1327387690 J_1371814298 17.25 0.013 0 0
C_1327387690_1327387692_0 J_1327387690 J_1327387692 92.83 0.013 0 0
C_6152762851_1327387690_0 J_6152762851 J_1327387690 97.44 0.013 0 0
C_6152762851_5281727083_0 J_6152762851 J_5281727083 55.92 0.013 0 0
C_6152762851_1327387698_0 J_6152762851 J_1327387698 72.33 0.013 0 0
C_1327387692_1437330565_0 J_1327387692 J_1437330565 6.62 0.013 0 0
C_1327387692_1327387690_0 J_1327387692 J_1327387690 92.83 0.013 0 0
C_1327387692_4204925700_0 J_1327387692 J_4204925700 310.76 0.013 0 0
C_4204925700_6132933105_0 J_4204925700 J_6132933105 8.98 0.013 0 0
C_4204925700_13064733100_0 J_4204925700 J_13064733100 121.64 0.013 0 0
C_4204925700_1485730751_0 J_4204925700 J_1485730751 388.36 0.013 0 0
C_1371816413_1327387694_0 J_1371816413 J_1327387694 188.66 0.013 0 0
C_1371816413_1371816431_0 J_1371816413 J_1371816431 40.14 0.013 0 0
C_1371816413_1327387701_0 J_1371816413 J_1327387701 145.27 0.013 0 0
C_1327387697_1327387694_0 J_1327387697 J_1327387694 42.19 0.013 0 0
C_1327387697_1327387702_0 J_1327387697 J_1327387702 69.54 0.013 0 0
C_1327387697_1327387696_0 J_1327387697 J_1327387696 93.42 0.013 0 0
C_1327387697_1327387698_0 J_1327387697 J_1327387698 90.84 0.013 0 0
C_1327387698_1327387695_0 J_1327387698 J_1327387695 39.78 0.013 0 0
C_1327387698_5281727082_0 J_1327387698 J_5281727082 39.73 0.013 0 0
C_1327387698_1327387697_0 J_1327387698 J_1327387697 90.84 0.013 0 0
C_1327387698_6152762851_0 J_1327387698 J_6152762851 72.33 0.013 0 0
C_11395452271_1327387695_0 J_11395452271 J_1327387695 30.30 0.013 0 0
C_1327387696_1371816442_0 J_1327387696 J_1371816442 15.62 0.013 0 0
C_1327387696_1371816427_0 J_1327387696 J_1371816427 92.34 0.013 0 0
C_1327387696_1327387697_0 J_1327387696 J_1327387697 93.42 0.013 0 0
C_1371816442_1371816427_0 J_1371816442 J_1371816427 73.76 0.013 0 0
C_1371816442_1371816401_0 J_1371816442 J_1371816401 20.46 0.013 0 0
C_1371816442_1327387696_0 J_1371816442 J_1327387696 15.62 0.013 0 0
C_1371816427_1371816442_0 J_1371816427 J_1371816442 73.76 0.013 0 0
C_1371816427_1371816463_0 J_1371816427 J_1371816463 18.61 0.013 0 0
C_1371816427_1327387696_0 J_1371816427 J_1327387696 92.34 0.013 0 0
C_1327387702_1327387697_0 J_1327387702 J_1327387697 69.54 0.013 0 0
C_1327387702_7465614251_0 J_1327387702 J_7465614251 34.32 0.013 0 0
C_1327387702_1371816459_0 J_1327387702 J_1371816459 102.50 0.013 0 0
C_1327387702_7465614249_0 J_1327387702 J_7465614249 54.14 0.013 0 0
C_5281727082_1327387698_0 J_5281727082 J_1327387698 39.73 0.013 0 0
C_5281727082_1327387704_0 J_5281727082 J_1327387704 36.88 0.013 0 0
C_5281727082_5281727083_0 J_5281727082 J_5281727083 56.26 0.013 0 0
C_1327387699_1327387701_0 J_1327387699 J_1327387701 30.46 0.013 0 0
C_1327387699_1371816463_0 J_1327387699 J_1371816463 22.48 0.013 0 0
C_1327387699_1371816459_0 J_1327387699 J_1371816459 67.60 0.013 0 0
C_1327387701_7465614249_0 J_1327387701 J_7465614249 167.80 0.013 0 0
C_1327387701_1327387699_0 J_1327387701 J_1327387699 30.46 0.013 0 0
C_1327387701_1371816413_0 J_1327387701 J_1371816413 145.27 0.013 0 0
C_1371816463_1371816401_0 J_1371816463 J_1371816401 69.46 0.013 0 0
C_1371816463_1327387699_0 J_1371816463 J_1327387699 22.48 0.013 0 0
C_1371816463_1371816427_0 J_1371816463 J_1371816427 18.61 0.013 0 0
C_1371816459_1371816401_0 J_1371816459 J_1371816401 26.80 0.013 0 0
C_1371816459_1327387702_0 J_1371816459 J_1327387702 102.50 0.013 0 0
C_1371816459_1327387699_0 J_1371816459 J_1327387699 67.60 0.013 0 0
C_7465614249_1327387701_0 J_7465614249 J_1327387701 167.80 0.013 0 0
C_7465614249_7465614250_0 J_7465614249 J_7465614250 33.37 0.013 0 0
C_7465614249_1327387702_0 J_7465614249 J_1327387702 54.14 0.013 0 0
C_7465614251_7465614253_0 J_7465614251 J_7465614253 26.01 0.013 0 0
C_7465614251_1327387702_0 J_7465614251 J_1327387702 34.32 0.013 0 0
C_7465614251_7465614250_0 J_7465614251 J_7465614250 61.31 0.013 0 0
C_1327387704_5281727082_0 J_1327387704 J_5281727082 36.88 0.013 0 0
C_1327387704_7465614253_0 J_1327387704 J_7465614253 29.19 0.013 0 0
C_1327387704_7465614254_0 J_1327387704 J_7465614254 62.17 0.013 0 0
C_7465614253_1327387704_0 J_7465614253 J_1327387704 29.19 0.013 0 0
C_7465614253_7465614251_0 J_7465614253 J_7465614251 26.01 0.013 0 0
C_7465614253_7465614252_0 J_7465614253 J_7465614252 66.29 0.013 0 0
C_7465614254_1327387704_0 J_7465614254 J_1327387704 62.17 0.013 0 0
C_1347565267_7465646179_0 J_1347565267 J_7465646179 33.84 0.013 0 0
C_1347565267_6620856876_0 J_1347565267 J_6620856876 464.40 0.013 0 0
C_1347565267_2225133603_0 J_1347565267 J_2225133603 144.84 0.013 0 0
C_1347565267_7465646180_0 J_1347565267 J_7465646180 53.72 0.013 0 0
C_7465646179_7465646171_0 J_7465646179 J_7465646171 95.18 0.013 0 0
C_7465646179_1347565267_0 J_7465646179 J_1347565267 33.84 0.013 0 0
C_7465646179_7465646173_0 J_7465646179 J_7465646173 118.15 0.013 0 0
C_6620856876_12635196524_0 J_6620856876 J_12635196524 97.59 0.013 0 0
C_6620856876_1347565267_0 J_6620856876 J_1347565267 464.40 0.013 0 0
C_6620856876_1633904682_0 J_6620856876 J_1633904682 192.44 0.013 0 0
C_2225133603_1347565269_0 J_2225133603 J_1347565269 11.83 0.013 0 0
C_2225133603_1347565267_0 J_2225133603 J_1347565267 144.84 0.013 0 0
C_2225133603_7465456797_0 J_2225133603 J_7465456797 70.53 0.013 0 0
C_7465646180_1347565267_0 J_7465646180 J_1347565267 53.72 0.013 0 0
C_1347565269_2225133603_0 J_1347565269 J_2225133603 11.83 0.013 0 0
C_1347565269_1347565270_0 J_1347565269 J_1347565270 64.28 0.013 0 0
C_1347565269_11021533254_0 J_1347565269 J_11021533254 184.08 0.013 0 0
C_1347565270_1347565269_0 J_1347565270 J_1347565269 64.28 0.013 0 0
C_1347565270_7465456816_0 J_1347565270 J_7465456816 41.20 0.013 0 0
C_1347565270_7465672901_0 J_1347565270 J_7465672901 58.95 0.013 0 0
C_11021533254_1347565269_0 J_11021533254 J_1347565269 184.08 0.013 0 0
C_11021533254_6182547032_0 J_11021533254 J_6182547032 72.72 0.013 0 0
C_11021533254_1347565272_0 J_11021533254 J_1347565272 104.77 0.013 0 0
C_7465456816_1347565270_0 J_7465456816 J_1347565270 41.20 0.013 0 0
C_7465456816_9700303072_0 J_7465456816 J_9700303072 29.41 0.013 0 0
C_7465456816_1347565272_0 J_7465456816 J_1347565272 93.08 0.013 0 0
C_7465672901_1347565270_0 J_7465672901 J_1347565270 58.95 0.013 0 0
C_1634931753_1367922212_0 J_1634931753 J_1367922212 72.62 0.013 0 0
C_1368117346_1368117304_0 J_1368117346 J_1368117304 113.23 0.013 0 0
C_1368117346_1368117314_0 J_1368117346 J_1368117314 41.59 0.013 0 0
C_1368117346_1367922212_0 J_1368117346 J_1367922212 31.47 0.013 0 0
C_1368117304_1368117346_0 J_1368117304 J_1368117346 113.23 0.013 0 0
C_1368117316_1371814142_0 J_1368117316 J_1371814142 37.67 0.013 0 0
C_1368117316_9700074482_0 J_1368117316 J_9700074482 20.08 0.013 0 0
C_1371814142_9897294963_0 J_1371814142 J_9897294963 126.63 0.013 0 0
C_1371814142_1104250513_0 J_1371814142 J_1104250513 135.37 0.013 0 0
C_9700074482_1368117316_0 J_9700074482 J_1368117316 20.08 0.013 0 0
C_1368117325_1368801668_0 J_1368117325 J_1368801668 20.52 0.013 0 0
C_1368117325_9900960189_0 J_1368117325 J_9900960189 44.12 0.013 0 0
C_9900960189_1368117325_0 J_9900960189 J_1368117325 44.12 0.013 0 0
C_1368117350_1502865753_0 J_1368117350 J_1502865753 99.81 0.013 0 0
C_1368117350_7261406108_0 J_1368117350 J_7261406108 153.59 0.013 0 0
C_1502865753_1502865751_0 J_1502865753 J_1502865751 8.03 0.013 0 0
C_1502865753_1368117384_0 J_1502865753 J_1368117384 440.92 0.013 0 0
C_1368117363_5281842539_0 J_1368117363 J_5281842539 302.84 0.013 0 0
C_1368117363_9645445154_0 J_1368117363 J_9645445154 356.72 0.013 0 0
C_5281842539_5281842538_0 J_5281842539 J_5281842538 48.41 0.013 0 0
C_5281842539_10991832380_0 J_5281842539 J_10991832380 239.00 0.013 0 0
C_5281842539_1368117363_0 J_5281842539 J_1368117363 302.84 0.013 0 0
C_9645445154_9645445151_0 J_9645445154 J_9645445151 12.73 0.013 0 0
C_9645445154_3300742565_0 J_9645445154 J_3300742565 68.09 0.013 0 0
C_11434400637_1368117384_0 J_11434400637 J_1368117384 8.74 0.013 0 0
C_11926574593_9900960190_0 J_11926574593 J_9900960190 29.37 0.013 0 0
C_11926574593_11028858435_0 J_11926574593 J_11028858435 37.74 0.013 0 0
C_1368672364_1701004552_0 J_1368672364 J_1701004552 166.70 0.013 0 0
C_1368672364_1558993987_0 J_1368672364 J_1558993987 170.49 0.013 0 0
C_1701004552_1701004555_0 J_1701004552 J_1701004555 8.83 0.013 0 0
C_1558993987_1558994048_0 J_1558993987 J_1558994048 28.29 0.013 0 0
C_1558993987_1368672364_0 J_1558993987 J_1368672364 170.49 0.013 0 0
C_1558993987_1852671167_0 J_1558993987 J_1852671167 67.42 0.013 0 0
C_7298295670_10284858574_0 J_7298295670 J_10284858574 9.94 0.013 0 0
C_7298295670_10084814543_0 J_7298295670 J_10084814543 7.10 0.013 0 0
C_1368801655_6182817159_0 J_1368801655 J_6182817159 90.54 0.013 0 0
C_1368801655_7101732711_0 J_1368801655 J_7101732711 75.27 0.013 0 0
C_6182817159_1368801655_0 J_6182817159 J_1368801655 90.54 0.013 0 0
C_6182817159_10185513621_0 J_6182817159 J_10185513621 28.11 0.013 0 0
C_7101732711_1368801655_0 J_7101732711 J_1368801655 75.27 0.013 0 0
C_7101732711_7101732723_0 J_7101732711 J_7101732723 161.49 0.013 0 0
C_7101732711_11027804587_0 J_7101732711 J_11027804587 33.88 0.013 0 0
C_1368801659_1368801669_0 J_1368801659 J_1368801669 41.63 0.013 0 0
C_1368801659_11027804585_0 J_1368801659 J_11027804585 10.95 0.013 0 0
C_1368801659_11077269487_0 J_1368801659 J_11077269487 188.51 0.013 0 0
C_1368801669_1558994002_0 J_1368801669 J_1558994002 29.76 0.013 0 0
C_1368801669_1368801659_0 J_1368801669 J_1368801659 41.63 0.013 0 0
C_1368801669_11397593720_0 J_1368801669 J_11397593720 145.41 0.013 0 0
C_11027804585_1368801659_0 J_11027804585 J_1368801659 10.95 0.013 0 0
C_11027804585_11027804587_0 J_11027804585 J_11027804587 26.20 0.013 0 0
C_11027804585_11027804586_0 J_11027804585 J_11027804586 25.90 0.013 0 0
C_11077269487_7175614342_0 J_11077269487 J_7175614342 18.26 0.013 0 0
C_11077269487_11077269488_0 J_11077269487 J_11077269488 37.00 0.013 0 0
C_11077269487_1368801659_0 J_11077269487 J_1368801659 188.51 0.013 0 0
C_1558993902_9901111715_0 J_1558993902 J_9901111715 93.11 0.013 0 0
C_1558993902_1558993988_0 J_1558993902 J_1558993988 47.75 0.013 0 0
C_1558994002_7101732723_0 J_1558994002 J_7101732723 8.74 0.013 0 0
C_1558994002_1368801669_0 J_1558994002 J_1368801669 29.76 0.013 0 0
C_1558994002_7298289310_0 J_1558994002 J_7298289310 52.17 0.013 0 0
C_11397593720_11176392352_0 J_11397593720 J_11176392352 37.91 0.013 0 0
C_11397593720_10209123011_0 J_11397593720 J_10209123011 71.66 0.013 0 0
C_11397593720_11397593723_0 J_11397593720 J_11397593723 148.13 0.013 0 0
C_11397593720_1368801669_0 J_11397593720 J_1368801669 145.41 0.013 0 0
C_1368801673_1371828535_0 J_1368801673 J_1371828535 14.14 0.013 0 0
C_1368801673_10738521350_0 J_1368801673 J_10738521350 7.94 0.013 0 0
C_1371828535_10084814543_0 J_1371828535 J_10084814543 26.03 0.013 0 0
C_1371828535_7298289227_0 J_1371828535 J_7298289227 37.06 0.013 0 0
C_10738521350_1368801692_0 J_10738521350 J_1368801692 2.49 0.013 0 0
C_10738521350_12185458377_0 J_10738521350 J_12185458377 4.14 0.013 0 0
C_1368801692_9681688971_0 J_1368801692 J_9681688971 8.07 0.013 0 0
C_1368801692_1368117363_0 J_1368801692 J_1368117363 151.33 0.013 0 0
C_9681688971_1368801673_0 J_9681688971 J_1368801673 2.52 0.013 0 0
C_1376905664_1104250495_0 J_1376905664 J_1104250495 88.50 0.013 0 0
C_1376905664_1376905673_0 J_1376905664 J_1376905673 117.16 0.013 0 0
C_1368828978_7298289285_0 J_1368828978 J_7298289285 29.07 0.013 0 0
C_7298289285_1368828996_0 J_7298289285 J_1368828996 16.02 0.013 0 0
C_7298289285_1368828978_0 J_7298289285 J_1368828978 29.07 0.013 0 0
C_7298289285_1634931711_0 J_7298289285 J_1634931711 72.83 0.013 0 0
C_7291167549_1368828999_0 J_7291167549 J_1368828999 34.33 0.013 0 0
C_2066388564_2066388579_0 J_2066388564 J_2066388579 188.30 0.013 0 0
C_2066388564_1634931847_0 J_2066388564 J_1634931847 28.54 0.013 0 0
C_2066388564_1368829030_0 J_2066388564 J_1368829030 48.10 0.013 0 0
C_1368933533_11640782969_0 J_1368933533 J_11640782969 12.66 0.013 0 0
C_1368933533_1368933536_0 J_1368933533 J_1368933536 33.01 0.013 0 0
C_1368933533_14066684544_0 J_1368933533 J_14066684544 64.66 0.013 0 0
C_11640782969_1368933533_0 J_11640782969 J_1368933533 12.66 0.013 0 0
C_11640782969_7298268883_0 J_11640782969 J_7298268883 23.16 0.013 0 0
C_11640782969_12196909080_0 J_11640782969 J_12196909080 15.57 0.013 0 0
C_1368933536_1368933533_0 J_1368933536 J_1368933533 33.01 0.013 0 0
C_1368933536_7121386221_0 J_1368933536 J_7121386221 124.92 0.013 0 0
C_1368933536_7298268884_0 J_1368933536 J_7298268884 42.33 0.013 0 0
C_14066684544_1368933533_0 J_14066684544 J_1368933533 64.66 0.013 0 0
C_7298268884_1368933536_0 J_7298268884 J_1368933536 42.33 0.013 0 0
C_1371807527_1371807599_0 J_1371807527 J_1371807599 59.48 0.013 0 0
C_1371807527_1371807607_0 J_1371807527 J_1371807607 10.27 0.013 0 0
C_1371807527_5281839991_0 J_1371807527 J_5281839991 12.94 0.013 0 0
C_1371807599_1371807527_0 J_1371807599 J_1371807527 59.48 0.013 0 0
C_1371807607_1371807559_0 J_1371807607 J_1371807559 65.19 0.013 0 0
C_1371807607_1371807533_0 J_1371807607 J_1371807533 20.74 0.013 0 0
C_1371807607_1371807527_0 J_1371807607 J_1371807527 10.27 0.013 0 0
C_5281839991_5281839990_0 J_5281839991 J_5281839990 95.03 0.013 0 0
C_5281839991_1371807527_0 J_5281839991 J_1371807527 12.94 0.013 0 0
C_5281839991_1371807540_0 J_5281839991 J_1371807540 20.72 0.013 0 0
C_1371807528_1371807583_0 J_1371807528 J_1371807583 76.06 0.013 0 0
C_1371807530_13654038141_0 J_1371807530 J_13654038141 71.20 0.013 0 0
C_13654038141_1371807602_0 J_13654038141 J_1371807602 26.64 0.013 0 0
C_13654038141_9700074492_0 J_13654038141 J_9700074492 25.40 0.013 0 0
C_13654038141_1371807530_0 J_13654038141 J_1371807530 71.20 0.013 0 0
C_1371807531_1371807645_0 J_1371807531 J_1371807645 97.17 0.013 0 0
C_1371807645_1371807641_0 J_1371807645 J_1371807641 18.67 0.013 0 0
C_1371807645_1371807602_0 J_1371807645 J_1371807602 21.52 0.013 0 0
C_1371807645_1371807531_0 J_1371807645 J_1371807531 97.17 0.013 0 0
C_1371807533_1371807607_0 J_1371807533 J_1371807607 20.74 0.013 0 0
C_1371807533_13654038123_0 J_1371807533 J_13654038123 56.17 0.013 0 0
C_1371807533_1371807573_0 J_1371807533 J_1371807573 21.15 0.013 0 0
C_13654038123_1371807533_0 J_13654038123 J_1371807533 56.17 0.013 0 0
C_1371807573_9700074494_0 J_1371807573 J_9700074494 24.81 0.013 0 0
C_1371807573_11021806270_0 J_1371807573 J_11021806270 102.67 0.013 0 0
C_1371807573_9700074492_0 J_1371807573 J_9700074492 31.21 0.013 0 0
C_1371807573_1371807533_0 J_1371807573 J_1371807533 21.15 0.013 0 0
C_1371807534_1371807587_0 J_1371807534 J_1371807587 118.23 0.013 0 0
C_1371807587_1371807534_0 J_1371807587 J_1371807534 118.23 0.013 0 0
C_1371807587_5281842526_0 J_1371807587 J_5281842526 46.37 0.013 0 0
C_1371807587_5283547061_0 J_1371807587 J_5283547061 6.14 0.013 0 0
C_1371807535_1371807649_0 J_1371807535 J_1371807649 26.16 0.013 0 0
C_1371807649_1371807586_0 J_1371807649 J_1371807586 25.03 0.013 0 0
C_1371807649_1371807598_0 J_1371807649 J_1371807598 8.72 0.013 0 0
C_1371807649_1371807535_0 J_1371807649 J_1371807535 26.16 0.013 0 0
C_1371807537_2486617762_0 J_1371807537 J_2486617762 19.32 0.013 0 0
C_1371807537_9884546155_0 J_1371807537 J_9884546155 12.76 0.013 0 0
C_1371807537_7453315722_0 J_1371807537 J_7453315722 40.03 0.013 0 0
C_2486617762_1371807537_0 J_2486617762 J_1371807537 19.32 0.013 0 0
C_2486617762_13656305932_0 J_2486617762 J_13656305932 10.67 0.013 0 0
C_2486617762_1371807572_0 J_2486617762 J_1371807572 25.93 0.013 0 0
C_9884546155_1371807537_0 J_9884546155 J_1371807537 12.76 0.013 0 0
C_7453315722_1371807551_0 J_7453315722 J_1371807551 24.74 0.013 0 0
C_7453315722_1371807537_0 J_7453315722 J_1371807537 40.03 0.013 0 0
C_7453315722_13667500433_0 J_7453315722 J_13667500433 70.03 0.013 0 0
C_1371807538_13667500256_0 J_1371807538 J_13667500256 90.13 0.013 0 0
C_13667500256_1371807592_0 J_13667500256 J_1371807592 5.92 0.013 0 0
C_13667500256_1371807538_0 J_13667500256 J_1371807538 90.13 0.013 0 0
C_13667500256_1371807644_0 J_13667500256 J_1371807644 24.29 0.013 0 0
C_1371807540_1371807651_0 J_1371807540 J_1371807651 78.82 0.013 0 0
C_1371807540_5281839991_0 J_1371807540 J_5281839991 20.72 0.013 0 0
C_1371807540_1371807595_0 J_1371807540 J_1371807595 102.25 0.013 0 0
C_1371807540_13654030352_0 J_1371807540 J_13654030352 72.91 0.013 0 0
C_1371807651_1371807540_0 J_1371807651 J_1371807540 78.82 0.013 0 0
C_1371807651_1371807620_0 J_1371807651 J_1371807620 34.32 0.013 0 0
C_1371807651_13654030378_0 J_1371807651 J_13654030378 85.19 0.013 0 0
C_1371807595_1371807540_0 J_1371807595 J_1371807540 102.25 0.013 0 0
C_13654030352_7453315612_0 J_13654030352 J_7453315612 5.54 0.013 0 0
C_13654030352_7453315613_0 J_13654030352 J_7453315613 198.42 0.013 0 0
C_13654030352_1371807540_0 J_13654030352 J_1371807540 72.91 0.013 0 0
C_1371807542_12141933091_0 J_1371807542 J_12141933091 13.15 0.013 0 0
C_1371807542_11027638242_0 J_1371807542 J_11027638242 15.79 0.013 0 0
C_11027638242_11027638241_0 J_11027638242 J_11027638241 62.65 0.013 0 0
C_11027638242_13656305937_0 J_11027638242 J_13656305937 8.21 0.013 0 0
C_11027638242_1371807542_0 J_11027638242 J_1371807542 15.79 0.013 0 0
C_1371807544_1371807598_0 J_1371807544 J_1371807598 110.17 0.013 0 0
C_1371807544_1371807657_0 J_1371807544 J_1371807657 25.93 0.013 0 0
C_1371807544_3649025393_0 J_1371807544 J_3649025393 382.64 0.013 0 0
C_1371807598_1371807649_0 J_1371807598 J_1371807649 8.72 0.013 0 0
C_1371807598_1371807544_0 J_1371807598 J_1371807544 110.17 0.013 0 0
C_1371807598_7453315652_0 J_1371807598 J_7453315652 94.35 0.013 0 0
C_1371807657_1371807641_0 J_1371807657 J_1371807641 22.92 0.013 0 0
C_1371807657_1371807544_0 J_1371807657 J_1371807544 25.93 0.013 0 0
C_1371807657_1371807586_0 J_1371807657 J_1371807586 93.95 0.013 0 0
C_3649025393_3649025396_0 J_3649025393 J_3649025396 46.19 0.013 0 0
C_3649025393_1371807544_0 J_3649025393 J_1371807544 382.64 0.013 0 0
C_3649025393_13655652480_0 J_3649025393 J_13655652480 103.17 0.013 0 0
C_1371807546_1371807616_0 J_1371807546 J_1371807616 29.73 0.013 0 0
C_1371807546_13130350871_0 J_1371807546 J_13130350871 110.30 0.013 0 0
C_1371807546_13654038433_0 J_1371807546 J_13654038433 31.28 0.013 0 0
C_1371807616_1371807546_0 J_1371807616 J_1371807546 29.73 0.013 0 0
C_1371807616_13654038308_0 J_1371807616 J_13654038308 25.33 0.013 0 0
C_1371807616_1371807558_0 J_1371807616 J_1371807558 126.53 0.013 0 0
C_13130350871_1371807546_0 J_13130350871 J_1371807546 110.30 0.013 0 0
C_13654038433_13654038432_0 J_13654038433 J_13654038432 33.88 0.013 0 0
C_13654038433_6194238914_0 J_13654038433 J_6194238914 154.94 0.013 0 0
C_13654038433_1371807546_0 J_13654038433 J_1371807546 31.28 0.013 0 0
C_1371807549_1371807564_0 J_1371807549 J_1371807564 25.54 0.013 0 0
C_1371807549_1371807666_0 J_1371807549 J_1371807666 75.99 0.013 0 0
C_1371807549_1371807570_0 J_1371807549 J_1371807570 77.36 0.013 0 0
C_1371807564_1371807549_0 J_1371807564 J_1371807549 25.54 0.013 0 0
C_1371807564_1371807612_0 J_1371807564 J_1371807612 227.58 0.013 0 0
C_1371807564_7453315612_0 J_1371807564 J_7453315612 60.62 0.013 0 0
C_1371807666_1371807549_0 J_1371807666 J_1371807549 75.99 0.013 0 0
C_1371807551_5281840020_0 J_1371807551 J_5281840020 19.21 0.013 0 0
C_1371807551_7453315722_0 J_1371807551 J_7453315722 24.74 0.013 0 0
C_1371807551_13503417936_0 J_1371807551 J_13503417936 47.69 0.013 0 0
C_5281840020_1371807551_0 J_5281840020 J_1371807551 19.21 0.013 0 0
C_5281840020_5281842521_0 J_5281840020 J_5281842521 90.68 0.013 0 0
C_5281840020_6168910216_0 J_5281840020 J_6168910216 109.18 0.013 0 0
C_13503417936_1371807551_0 J_13503417936 J_1371807551 47.69 0.013 0 0
C_1371807558_1371807616_0 J_1371807558 J_1371807616 126.53 0.013 0 0
C_1371807559_1371807607_0 J_1371807559 J_1371807607 65.19 0.013 0 0
C_1371807561_1371807620_0 J_1371807561 J_1371807620 33.81 0.013 0 0
C_1371807620_1371807561_0 J_1371807620 J_1371807561 33.81 0.013 0 0
C_1371807620_1371807651_0 J_1371807620 J_1371807651 34.32 0.013 0 0
C_1371807620_11397275311_0 J_1371807620 J_11397275311 56.52 0.013 0 0
C_1371807563_13667500010_0 J_1371807563 J_13667500010 52.00 0.013 0 0
C_1371807563_1371807631_0 J_1371807563 J_1371807631 87.23 0.013 0 0
C_1371807563_1578236015_0 J_1371807563 J_1578236015 41.31 0.013 0 0
C_13667500010_1371807606_0 J_13667500010 J_1371807606 10.01 0.013 0 0
C_13667500010_1371807563_0 J_13667500010 J_1371807563 52.00 0.013 0 0
C_13667500010_13667500009_0 J_13667500010 J_13667500009 43.29 0.013 0 0
C_1371807631_1371807563_0 J_1371807631 J_1371807563 87.23 0.013 0 0
C_1371807631_1371814339_0 J_1371807631 J_1371814339 25.66 0.013 0 0
C_1371807631_2225133216_0 J_1371807631 J_2225133216 17.35 0.013 0 0
C_1578236015_1371807563_0 J_1578236015 J_1371807563 41.31 0.013 0 0
C_1578236015_1371807626_0 J_1578236015 J_1371807626 38.59 0.013 0 0
C_1578236015_1371807593_0 J_1578236015 J_1371807593 76.22 0.013 0 0
C_1578236015_1371807660_0 J_1578236015 J_1371807660 61.65 0.013 0 0
C_1371807612_1371807606_0 J_1371807612 J_1371807606 20.97 0.013 0 0
C_1371807612_1371807661_0 J_1371807612 J_1371807661 99.99 0.013 0 0
C_1371807612_1371807564_0 J_1371807612 J_1371807564 227.58 0.013 0 0
C_7453315612_7453315735_0 J_7453315612 J_7453315735 78.40 0.013 0 0
C_7453315612_13654030352_0 J_7453315612 J_13654030352 5.54 0.013 0 0
C_7453315612_1371807564_0 J_7453315612 J_1371807564 60.62 0.013 0 0
C_7453315740_1371807570_0 J_7453315740 J_1371807570 39.63 0.013 0 0
C_1371807571_1371807652_0 J_1371807571 J_1371807652 51.13 0.013 0 0
C_1371807571_7452673911_0 J_1371807571 J_7452673911 81.02 0.013 0 0
C_1371807571_5283343749_0 J_1371807571 J_5283343749 20.41 0.013 0 0
C_1371807571_11021488563_0 J_1371807571 J_11021488563 16.73 0.013 0 0
C_1371807652_7452673919_0 J_1371807652 J_7452673919 31.30 0.013 0 0
C_1371807652_1371807571_0 J_1371807652 J_1371807571 51.13 0.013 0 0
C_1371807652_11021648174_0 J_1371807652 J_11021648174 41.06 0.013 0 0
C_7452673911_1514989685_0 J_7452673911 J_1514989685 97.32 0.013 0 0
C_7452673911_1371807571_0 J_7452673911 J_1371807571 81.02 0.013 0 0
C_7452673911_11021488560_0 J_7452673911 J_11021488560 25.28 0.013 0 0
C_5283343749_5283343748_0 J_5283343749 J_5283343748 59.68 0.013 0 0
C_5283343749_13127664189_0 J_5283343749 J_13127664189 10.59 0.013 0 0
C_5283343749_1371807571_0 J_5283343749 J_1371807571 20.41 0.013 0 0
C_11021488563_11021488560_0 J_11021488563 J_11021488560 78.81 0.013 0 0
C_11021488563_1371807571_0 J_11021488563 J_1371807571 16.73 0.013 0 0
C_11021488563_1371807644_0 J_11021488563 J_1371807644 23.24 0.013 0 0
C_1371807572_1371807661_0 J_1371807572 J_1371807661 65.79 0.013 0 0
C_1371807572_2486617762_0 J_1371807572 J_2486617762 25.93 0.013 0 0
C_1371807572_13667500433_0 J_1371807572 J_13667500433 82.18 0.013 0 0
C_1371807661_1371807572_0 J_1371807661 J_1371807572 65.79 0.013 0 0
C_1371807661_2486617761_0 J_1371807661 J_2486617761 76.63 0.013 0 0
C_1371807661_1371807612_0 J_1371807661 J_1371807612 99.99 0.013 0 0
C_13667500433_7453315731_0 J_13667500433 J_7453315731 21.57 0.013 0 0
C_13667500433_7453315722_0 J_13667500433 J_7453315722 70.03 0.013 0 0
C_13667500433_1371807572_0 J_13667500433 J_1371807572 82.18 0.013 0 0
C_9700074494_1371807573_0 J_9700074494 J_1371807573 24.81 0.013 0 0
C_11021806270_1371807573_0 J_11021806270 J_1371807573 102.67 0.013 0 0
C_9700074492_1371807658_0 J_9700074492 J_1371807658 70.30 0.013 0 0
C_9700074492_13654038141_0 J_9700074492 J_13654038141 25.40 0.013 0 0
C_9700074492_1371807633_0 J_9700074492 J_1371807633 82.01 0.013 0 0
C_9700074492_1371807573_0 J_9700074492 J_1371807573 31.21 0.013 0 0
C_1371807575_1371807639_0 J_1371807575 J_1371807639 53.65 0.013 0 0
C_1371807639_1371807637_0 J_1371807639 J_1371807637 30.69 0.013 0 0
C_1371807639_1371807586_0 J_1371807639 J_1371807586 7.34 0.013 0 0
C_1371807639_1371807575_0 J_1371807639 J_1371807575 53.65 0.013 0 0
C_1371807578_1371807627_0 J_1371807578 J_1371807627 39.55 0.013 0 0
C_1371807578_1371807637_0 J_1371807578 J_1371807637 37.16 0.013 0 0
C_1371807578_1371807659_0 J_1371807578 J_1371807659 95.66 0.013 0 0
C_1371807627_11021417755_0 J_1371807627 J_11021417755 16.90 0.013 0 0
C_1371807627_1371807578_0 J_1371807627 J_1371807578 39.55 0.013 0 0
C_1371807627_1371807646_0 J_1371807627 J_1371807646 120.77 0.013 0 0
C_1371807637_1371807578_0 J_1371807637 J_1371807578 37.16 0.013 0 0
C_1371807637_1371807639_0 J_1371807637 J_1371807639 30.69 0.013 0 0
C_1371807637_3530277755_0 J_1371807637 J_3530277755 41.68 0.013 0 0
C_1371807637_1371807655_0 J_1371807637 J_1371807655 72.93 0.013 0 0
C_1371807659_1371807578_0 J_1371807659 J_1371807578 95.66 0.013 0 0
C_7147042929_7147042927_0 J_7147042929 J_7147042927 110.31 0.013 0 0
C_7147042929_2225133199_0 J_7147042929 J_2225133199 29.67 0.013 0 0
C_7147042929_1371807583_0 J_7147042929 J_1371807583 12.11 0.013 0 0
C_1371807586_1371807639_0 J_1371807586 J_1371807639 7.34 0.013 0 0
C_1371807586_1371807649_0 J_1371807586 J_1371807649 25.03 0.013 0 0
C_1371807586_1371807657_0 J_1371807586 J_1371807657 93.95 0.013 0 0
C_5281842526_5283547058_0 J_5281842526 J_5283547058 54.33 0.013 0 0
C_5281842526_5283547059_0 J_5281842526 J_5283547059 31.61 0.013 0 0
C_5281842526_1371807587_0 J_5281842526 J_1371807587 46.37 0.013 0 0
C_5281842526_13667500182_0 J_5281842526 J_13667500182 117.04 0.013 0 0
C_5283547061_1371807587_0 J_5283547061 J_1371807587 6.14 0.013 0 0
C_5283547061_2225133195_0 J_5283547061 J_2225133195 40.32 0.013 0 0
C_5283547061_7147063884_0 J_5283547061 J_7147063884 274.20 0.013 0 0
C_1371807592_5283547056_0 J_1371807592 J_5283547056 56.31 0.013 0 0
C_1371807592_13667500256_0 J_1371807592 J_13667500256 5.92 0.013 0 0
C_1371807592_1371807642_0 J_1371807592 J_1371807642 17.54 0.013 0 0
C_5283547056_1371807592_0 J_5283547056 J_1371807592 56.31 0.013 0 0
C_1371807642_1371807665_0 J_1371807642 J_1371807665 103.58 0.013 0 0
C_1371807642_1371807592_0 J_1371807642 J_1371807592 17.54 0.013 0 0
C_1371807642_5283547059_0 J_1371807642 J_5283547059 10.18 0.013 0 0
C_1371807593_1578236015_0 J_1371807593 J_1578236015 76.22 0.013 0 0
C_1371807593_1371807654_0 J_1371807593 J_1371807654 44.00 0.013 0 0
C_1371807593_2225133216_0 J_1371807593 J_2225133216 20.13 0.013 0 0
C_1371807654_1371807626_0 J_1371807654 J_1371807626 66.63 0.013 0 0
C_1371807654_2225133206_0 J_1371807654 J_2225133206 15.46 0.013 0 0
C_1371807654_1371807593_0 J_1371807654 J_1371807593 44.00 0.013 0 0
C_2225133216_1371807593_0 J_2225133216 J_1371807593 20.13 0.013 0 0
C_2225133216_2225133295_0 J_2225133216 J_2225133295 195.62 0.013 0 0
C_2225133216_1371807631_0 J_2225133216 J_1371807631 17.35 0.013 0 0
C_1371807596_1514989648_0 J_1371807596 J_1514989648 71.33 0.013 0 0
C_1371807596_2225133166_0 J_1371807596 J_2225133166 30.27 0.013 0 0
C_1371807596_11015226552_0 J_1371807596 J_11015226552 24.11 0.013 0 0
C_1514989648_1371807596_0 J_1514989648 J_1371807596 71.33 0.013 0 0
C_1514989648_1514989637_0 J_1514989648 J_1514989637 48.77 0.013 0 0
C_1514989648_1371807608_0 J_1514989648 J_1371807608 35.78 0.013 0 0
C_11015226552_1371807596_0 J_11015226552 J_1371807596 24.11 0.013 0 0
C_11015226552_11015226553_0 J_11015226552 J_11015226553 35.78 0.013 0 0
C_11015226552_2225133167_0 J_11015226552 J_2225133167 75.17 0.013 0 0
C_7453315652_7453315654_0 J_7453315652 J_7453315654 46.01 0.013 0 0
C_7453315652_7453315653_0 J_7453315652 J_7453315653 174.09 0.013 0 0
C_7453315652_1371807598_0 J_7453315652 J_1371807598 94.35 0.013 0 0
C_1371807602_1371807645_0 J_1371807602 J_1371807645 21.52 0.013 0 0
C_1371807602_1371807630_0 J_1371807602 J_1371807630 87.54 0.013 0 0
C_1371807602_13654038141_0 J_1371807602 J_13654038141 26.64 0.013 0 0
C_1371807630_1371807602_0 J_1371807630 J_1371807602 87.54 0.013 0 0
C_1371807630_11015643600_0 J_1371807630 J_11015643600 67.58 0.013 0 0
C_1371807630_13654030332_0 J_1371807630 J_13654030332 66.61 0.013 0 0
C_1371807606_1371807660_0 J_1371807606 J_1371807660 39.82 0.013 0 0
C_1371807606_1371807612_0 J_1371807606 J_1371807612 20.97 0.013 0 0
C_1371807606_13667500010_0 J_1371807606 J_13667500010 10.01 0.013 0 0
C_1371807660_1371807606_0 J_1371807660 J_1371807606 39.82 0.013 0 0
C_1371807660_1578236015_0 J_1371807660 J_1578236015 61.65 0.013 0 0
C_1371807660_1371807626_0 J_1371807660 J_1371807626 101.46 0.013 0 0
C_1371807608_1514989684_0 J_1371807608 J_1514989684 22.07 0.013 0 0
C_1371807608_1514989648_0 J_1371807608 J_1514989648 35.78 0.013 0 0
C_1371807608_7453315436_0 J_1371807608 J_7453315436 28.19 0.013 0 0
C_1514989684_7452673917_0 J_1514989684 J_7452673917 35.60 0.013 0 0
C_1514989684_1371807608_0 J_1514989684 J_1371807608 22.07 0.013 0 0
C_1514989684_11015173157_0 J_1514989684 J_11015173157 71.71 0.013 0 0
C_7453315436_1371807608_0 J_7453315436 J_1371807608 28.19 0.013 0 0
C_1371807614_1590229489_0 J_1371807614 J_1590229489 69.88 0.013 0 0
C_1371807614_1371814159_0 J_1371807614 J_1371814159 51.71 0.013 0 0
C_1590229489_1590229591_0 J_1590229489 J_1590229591 82.50 0.013 0 0
C_1590229489_1371807614_0 J_1590229489 J_1371807614 69.88 0.013 0 0
C_1590229489_1590229362_0 J_1590229489 J_1590229362 30.31 0.013 0 0
C_1371814159_1371814265_0 J_1371814159 J_1371814265 104.51 0.013 0 0
C_1371814159_1371807625_0 J_1371814159 J_1371807625 10.54 0.013 0 0
C_1371814159_1371807614_0 J_1371814159 J_1371807614 51.71 0.013 0 0
C_13654038308_1371807616_0 J_13654038308 J_1371807616 25.33 0.013 0 0
C_13654038308_1371807634_0 J_13654038308 J_1371807634 25.92 0.013 0 0
C_13654038308_13654038306_0 J_13654038308 J_13654038306 40.05 0.013 0 0
C_11397275311_1371807620_0 J_11397275311 J_1371807620 56.52 0.013 0 0
C_1371807625_1371814174_0 J_1371807625 J_1371814174 9.47 0.013 0 0
C_1371807625_1371814159_0 J_1371807625 J_1371814159 10.54 0.013 0 0
C_1371807625_12186088999_0 J_1371807625 J_12186088999 18.32 0.013 0 0
C_1371814174_1371814156_0 J_1371814174 J_1371814156 104.32 0.013 0 0
C_1371814174_1371807625_0 J_1371814174 J_1371807625 9.47 0.013 0 0
C_1371814174_1371814332_0 J_1371814174 J_1371814332 40.87 0.013 0 0
C_1371807626_1371807654_0 J_1371807626 J_1371807654 66.63 0.013 0 0
C_1371807626_1578236015_0 J_1371807626 J_1578236015 38.59 0.013 0 0
C_1371807626_5281842527_0 J_1371807626 J_5281842527 18.24 0.013 0 0
C_1371807626_1371807660_0 J_1371807626 J_1371807660 101.46 0.013 0 0
C_5281842527_1371807626_0 J_5281842527 J_1371807626 18.24 0.013 0 0
C_11021417755_1371807627_0 J_11021417755 J_1371807627 16.90 0.013 0 0
C_11021417755_1371807634_0 J_11021417755 J_1371807634 38.46 0.013 0 0
C_11021417755_3530277755_0 J_11021417755 J_3530277755 80.67 0.013 0 0
C_1371807646_1371807627_0 J_1371807646 J_1371807627 120.77 0.013 0 0
C_11015643600_1371807630_0 J_11015643600 J_1371807630 67.58 0.013 0 0
C_13654030332_1371807630_0 J_13654030332 J_1371807630 66.61 0.013 0 0
C_1371814339_5281840019_0 J_1371814339 J_5281840019 70.84 0.013 0 0
C_1371814339_1371807631_0 J_1371814339 J_1371807631 25.66 0.013 0 0
C_1371814339_5283343739_0 J_1371814339 J_5283343739 54.26 0.013 0 0
C_1371814339_1371814130_0 J_1371814339 J_1371814130 198.42 0.013 0 0
C_1371807633_9700074492_0 J_1371807633 J_9700074492 82.01 0.013 0 0
C_1371807636_5283343745_0 J_1371807636 J_5283343745 39.43 0.013 0 0
C_1371807636_7138383879_0 J_1371807636 J_7138383879 5.18 0.013 0 0
C_1371807636_7453315624_0 J_1371807636 J_7453315624 34.33 0.013 0 0
C_5283343745_1371807636_0 J_5283343745 J_1371807636 39.43 0.013 0 0
C_5283343745_7452673917_0 J_5283343745 J_7452673917 32.86 0.013 0 0
C_5283343745_5283343744_0 J_5283343745 J_5283343744 35.68 0.013 0 0
C_7138383879_1371807636_0 J_7138383879 J_1371807636 5.18 0.013 0 0
C_7138383879_7138383883_0 J_7138383879 J_7138383883 58.93 0.013 0 0
C_7138383879_11419446866_0 J_7138383879 J_11419446866 46.79 0.013 0 0
C_7453315624_1371807636_0 J_7453315624 J_1371807636 34.33 0.013 0 0
C_7453315624_5283343753_0 J_7453315624 J_5283343753 5.71 0.013 0 0
C_7453315624_7453315627_0 J_7453315624 J_7453315627 53.42 0.013 0 0
C_3530277755_1371807641_0 J_3530277755 J_1371807641 34.47 0.013 0 0
C_3530277755_1371807637_0 J_3530277755 J_1371807637 41.68 0.013 0 0
C_3530277755_11021417755_0 J_3530277755 J_11021417755 80.67 0.013 0 0
C_1371807655_1371807637_0 J_1371807655 J_1371807637 72.93 0.013 0 0
C_1371807665_1371807642_0 J_1371807665 J_1371807642 103.58 0.013 0 0
C_5283547059_1371807642_0 J_5283547059 J_1371807642 10.18 0.013 0 0
C_5283547059_5281842526_0 J_5283547059 J_5281842526 31.61 0.013 0 0
C_5283547059_10687414876_0 J_5283547059 J_10687414876 202.66 0.013 0 0
C_1371807644_12598616677_0 J_1371807644 J_12598616677 115.45 0.013 0 0
C_1371807644_11021488563_0 J_1371807644 J_11021488563 23.24 0.013 0 0
C_1371807644_13667500256_0 J_1371807644 J_13667500256 24.29 0.013 0 0
C_12598616677_7452673919_0 J_12598616677 J_7452673919 25.33 0.013 0 0
C_12598616677_1371807644_0 J_12598616677 J_1371807644 115.45 0.013 0 0
C_12598616677_7453315301_0 J_12598616677 J_7453315301 83.76 0.013 0 0
C_13654030378_1371807651_0 J_13654030378 J_1371807651 85.19 0.013 0 0
C_7452673919_1371807652_0 J_7452673919 J_1371807652 31.30 0.013 0 0
C_7452673919_7452673916_0 J_7452673919 J_7452673916 44.41 0.013 0 0
C_7452673919_12598616677_0 J_7452673919 J_12598616677 25.33 0.013 0 0
C_11021648174_1371807652_0 J_11021648174 J_1371807652 41.06 0.013 0 0
C_2225133206_7453315614_0 J_2225133206 J_7453315614 50.10 0.013 0 0
C_2225133206_11021676037_0 J_2225133206 J_11021676037 48.21 0.013 0 0
C_2225133206_1371807654_0 J_2225133206 J_1371807654 15.46 0.013 0 0
C_1371807658_9700074492_0 J_1371807658 J_9700074492 70.30 0.013 0 0
C_2486617761_12141933090_0 J_2486617761 J_12141933090 28.21 0.013 0 0
C_2486617761_1371807661_0 J_2486617761 J_1371807661 76.63 0.013 0 0
C_2486617761_13656305932_0 J_2486617761 J_13656305932 49.54 0.013 0 0
C_1371814115_1371814269_0 J_1371814115 J_1371814269 35.20 0.013 0 0
C_1371814115_1371814238_0 J_1371814115 J_1371814238 52.81 0.013 0 0
C_1371814115_1371814161_0 J_1371814115 J_1371814161 49.36 0.013 0 0
C_1371814269_1371814115_0 J_1371814269 J_1371814115 35.20 0.013 0 0
C_1371814269_1371814158_0 J_1371814269 J_1371814158 100.55 0.013 0 0
C_1371814269_1371814308_0 J_1371814269 J_1371814308 133.35 0.013 0 0
C_1371814238_1371814115_0 J_1371814238 J_1371814115 52.81 0.013 0 0
C_1371814161_1371814115_0 J_1371814161 J_1371814115 49.36 0.013 0 0
C_1371814117_1371814138_0 J_1371814117 J_1371814138 16.70 0.013 0 0
C_1371814117_3324726802_0 J_1371814117 J_3324726802 16.19 0.013 0 0
C_1371814117_1371814248_0 J_1371814117 J_1371814248 83.00 0.013 0 0
C_1371814138_1371814162_0 J_1371814138 J_1371814162 48.86 0.013 0 0
C_1371814138_1598804290_0 J_1371814138 J_1598804290 18.73 0.013 0 0
C_1371814138_1371814117_0 J_1371814138 J_1371814117 16.70 0.013 0 0
C_3324726802_1371814117_0 J_3324726802 J_1371814117 16.19 0.013 0 0
C_3324726802_9897294963_0 J_3324726802 J_9897294963 31.44 0.013 0 0
C_3324726802_3324730976_0 J_3324726802 J_3324730976 50.91 0.013 0 0
C_1371814248_1371814117_0 J_1371814248 J_1371814117 83.00 0.013 0 0
C_1371814124_1371814175_0 J_1371814124 J_1371814175 26.78 0.013 0 0
C_1371814124_1371814188_0 J_1371814124 J_1371814188 38.97 0.013 0 0
C_1371814124_1371814251_0 J_1371814124 J_1371814251 64.43 0.013 0 0
C_1371814124_1371814172_0 J_1371814124 J_1371814172 154.80 0.013 0 0
C_1371814175_1371814124_0 J_1371814175 J_1371814124 26.78 0.013 0 0
C_1371814188_1371814124_0 J_1371814188 J_1371814124 38.97 0.013 0 0
C_1371814188_1371814294_0 J_1371814188 J_1371814294 36.04 0.013 0 0
C_1371814188_1371814310_0 J_1371814188 J_1371814310 87.46 0.013 0 0
C_1371814188_1371814194_0 J_1371814188 J_1371814194 159.08 0.013 0 0
C_1371814251_1371814176_0 J_1371814251 J_1371814176 34.83 0.013 0 0
C_1371814251_1371814148_0 J_1371814251 J_1371814148 36.98 0.013 0 0
C_1371814251_1371814124_0 J_1371814251 J_1371814124 64.43 0.013 0 0
C_1371814172_7465393489_0 J_1371814172 J_7465393489 27.00 0.013 0 0
C_1371814172_1371814194_0 J_1371814172 J_1371814194 39.32 0.013 0 0
C_1371814172_1371814124_0 J_1371814172 J_1371814124 154.80 0.013 0 0
C_1371814128_1371814230_0 J_1371814128 J_1371814230 34.73 0.013 0 0
C_1371814128_9700074467_0 J_1371814128 J_9700074467 96.96 0.013 0 0
C_1371814128_1578238465_0 J_1371814128 J_1578238465 127.37 0.013 0 0
C_1371814128_6617329692_0 J_1371814128 J_6617329692 131.46 0.013 0 0
C_1371814230_1371814281_0 J_1371814230 J_1371814281 96.27 0.013 0 0
C_1371814230_1371814128_0 J_1371814230 J_1371814128 34.73 0.013 0 0
C_1371814230_1371814316_0 J_1371814230 J_1371814316 34.33 0.013 0 0
C_1371814230_6617328973_0 J_1371814230 J_6617328973 210.99 0.013 0 0
C_9700074467_1578238465_0 J_9700074467 J_1578238465 34.54 0.013 0 0
C_9700074467_1371814281_0 J_9700074467 J_1371814281 33.75 0.013 0 0
C_9700074467_1371814128_0 J_9700074467 J_1371814128 96.96 0.013 0 0
C_9700074467_10991478286_0 J_9700074467 J_10991478286 54.24 0.013 0 0
C_1578238465_1371814132_0 J_1578238465 J_1371814132 27.45 0.013 0 0
C_1578238465_9700074467_0 J_1578238465 J_9700074467 34.54 0.013 0 0
C_1578238465_1371814239_0 J_1578238465 J_1371814239 50.26 0.013 0 0
C_1578238465_1371814128_0 J_1578238465 J_1371814128 127.37 0.013 0 0
C_6617329692_1371814128_0 J_6617329692 J_1371814128 131.46 0.013 0 0
C_6617329692_6617329698_0 J_6617329692 J_6617329698 17.77 0.013 0 0
C_6617329692_4458722757_0 J_6617329692 J_4458722757 87.55 0.013 0 0
C_1371814129_1371814193_0 J_1371814129 J_1371814193 59.41 0.013 0 0
C_1371814193_1371814316_0 J_1371814193 J_1371814316 33.76 0.013 0 0
C_1371814193_1371814191_0 J_1371814193 J_1371814191 31.30 0.013 0 0
C_1371814193_1371814129_0 J_1371814193 J_1371814129 59.41 0.013 0 0
C_1371814193_7465393486_0 J_1371814193 J_7465393486 170.82 0.013 0 0
C_1371814130_1371814339_0 J_1371814130 J_1371814339 198.42 0.013 0 0
C_1371814132_1371814194_0 J_1371814132 J_1371814194 27.14 0.013 0 0
C_1371814132_1578238465_0 J_1371814132 J_1578238465 27.45 0.013 0 0
C_1371814132_1371814294_0 J_1371814132 J_1371814294 169.48 0.013 0 0
C_1371814194_1371814172_0 J_1371814194 J_1371814172 39.32 0.013 0 0
C_1371814194_1371814132_0 J_1371814194 J_1371814132 27.14 0.013 0 0
C_1371814194_1371814188_0 J_1371814194 J_1371814188 159.08 0.013 0 0
C_1371814294_1371814188_0 J_1371814294 J_1371814188 36.04 0.013 0 0
C_1371814294_1371814267_0 J_1371814294 J_1371814267 40.17 0.013 0 0
C_1371814294_1371814314_0 J_1371814294 J_1371814314 129.01 0.013 0 0
C_1371814294_1371814132_0 J_1371814294 J_1371814132 169.48 0.013 0 0
C_1371814162_1371814138_0 J_1371814162 J_1371814138 48.86 0.013 0 0
C_1598804290_5281840018_0 J_1598804290 J_5281840018 12.39 0.013 0 0
C_1598804290_1371814138_0 J_1598804290 J_1371814138 18.73 0.013 0 0
C_1598804290_1598804288_0 J_1598804290 J_1598804288 84.35 0.013 0 0
C_1371814140_1578237528_0 J_1371814140 J_1578237528 34.22 0.013 0 0
C_1371814140_1371814297_0 J_1371814140 J_1371814297 36.09 0.013 0 0
C_1371814140_1371814255_0 J_1371814140 J_1371814255 81.96 0.013 0 0
C_1371814140_1371814237_0 J_1371814140 J_1371814237 126.84 0.013 0 0
C_1578237528_1371814280_0 J_1578237528 J_1371814280 38.64 0.013 0 0
C_1578237528_1371814140_0 J_1578237528 J_1371814140 34.22 0.013 0 0
C_1578237528_1371814316_0 J_1578237528 J_1371814316 283.19 0.013 0 0
C_1578237528_1371814331_0 J_1578237528 J_1371814331 305.20 0.013 0 0
C_1371814297_1371814140_0 J_1371814297 J_1371814140 36.09 0.013 0 0
C_1371814297_1371814285_0 J_1371814297 J_1371814285 40.81 0.013 0 0
C_1371814297_7097657282_0 J_1371814297 J_7097657282 147.80 0.013 0 0
C_1371814297_7465393486_0 J_1371814297 J_7465393486 181.24 0.013 0 0
C_1371814255_1371814140_0 J_1371814255 J_1371814140 81.96 0.013 0 0
C_1371814237_1371814140_0 J_1371814237 J_1371814140 126.84 0.013 0 0
C_9897294963_3324726802_0 J_9897294963 J_3324726802 31.44 0.013 0 0
C_9897294963_9897294964_0 J_9897294963 J_9897294964 38.34 0.013 0 0
C_9897294963_1371814142_0 J_9897294963 J_1371814142 126.63 0.013 0 0
C_1371814316_1371814230_0 J_1371814316 J_1371814230 34.33 0.013 0 0
C_1371814316_1371814193_0 J_1371814316 J_1371814193 33.76 0.013 0 0
C_1371814316_1371814145_0 J_1371814316 J_1371814145 126.35 0.013 0 0
C_1371814316_1578237528_0 J_1371814316 J_1578237528 283.19 0.013 0 0
C_1371814146_1371814246_0 J_1371814146 J_1371814246 96.36 0.013 0 0
C_1371814246_1371814331_0 J_1371814246 J_1371814331 38.55 0.013 0 0
C_1371814246_1371814223_0 J_1371814246 J_1371814223 52.21 0.013 0 0
C_1371814246_1371814146_0 J_1371814246 J_1371814146 96.36 0.013 0 0
C_1371814148_1371814251_0 J_1371814148 J_1371814251 36.98 0.013 0 0
C_1371814154_1371814281_0 J_1371814154 J_1371814281 46.37 0.013 0 0
C_1371814281_9700074467_0 J_1371814281 J_9700074467 33.75 0.013 0 0
C_1371814281_1371814230_0 J_1371814281 J_1371814230 96.27 0.013 0 0
C_1371814281_1371814154_0 J_1371814281 J_1371814154 46.37 0.013 0 0
C_1371814156_1371814265_0 J_1371814156 J_1371814265 23.39 0.013 0 0
C_1371814156_1371814174_0 J_1371814156 J_1371814174 104.32 0.013 0 0
C_1371814156_1457451923_0 J_1371814156 J_1457451923 84.60 0.013 0 0
C_1371814265_1371814159_0 J_1371814265 J_1371814159 104.51 0.013 0 0
C_1371814265_1371814156_0 J_1371814265 J_1371814156 23.39 0.013 0 0
C_1371814265_5281840018_0 J_1371814265 J_5281840018 18.66 0.013 0 0
C_1371814265_5281840016_0 J_1371814265 J_5281840016 80.85 0.013 0 0
C_1457451923_5281840016_0 J_1457451923 J_5281840016 28.94 0.013 0 0
C_1457451923_1371814156_0 J_1457451923 J_1371814156 84.60 0.013 0 0
C_1457451923_1457451930_0 J_1457451923 J_1457451930 47.64 0.013 0 0
C_1371814158_1371814269_0 J_1371814158 J_1371814269 100.55 0.013 0 0
C_1371814160_1371814267_0 J_1371814160 J_1371814267 117.77 0.013 0 0
C_1371814267_1371814294_0 J_1371814267 J_1371814294 40.17 0.013 0 0
C_1371814267_1371814280_0 J_1371814267 J_1371814280 43.99 0.013 0 0
C_1371814267_1371814160_0 J_1371814267 J_1371814160 117.77 0.013 0 0
C_1371814267_5281842545_0 J_1371814267 J_5281842545 56.21 0.013 0 0
C_7465393489_1371814284_0 J_7465393489 J_1371814284 63.53 0.013 0 0
C_7465393489_1371814172_0 J_7465393489 J_1371814172 27.00 0.013 0 0
C_7465393489_7465393488_0 J_7465393489 J_7465393488 73.13 0.013 0 0
C_1371814332_1371814206_0 J_1371814332 J_1371814206 52.73 0.013 0 0
C_1371814332_1371814178_0 J_1371814332 J_1371814178 126.05 0.013 0 0
C_1371814332_1371814174_0 J_1371814332 J_1371814174 40.87 0.013 0 0
C_1371814176_1371814300_0 J_1371814176 J_1371814300 16.62 0.013 0 0
C_1371814176_1371814251_0 J_1371814176 J_1371814251 34.83 0.013 0 0
C_1371814176_1371814326_0 J_1371814176 J_1371814326 85.64 0.013 0 0
C_1371814300_1371814176_0 J_1371814300 J_1371814176 16.62 0.013 0 0
C_1371814326_1371814176_0 J_1371814326 J_1371814176 85.64 0.013 0 0
C_1371814331_1371814246_0 J_1371814331 J_1371814246 38.55 0.013 0 0
C_1371814331_1371814178_0 J_1371814331 J_1371814178 75.51 0.013 0 0
C_1371814331_1371814324_0 J_1371814331 J_1371814324 63.39 0.013 0 0
C_1371814331_1578237528_0 J_1371814331 J_1578237528 305.20 0.013 0 0
C_10991440018_5281842528_0 J_10991440018 J_5281842528 42.09 0.013 0 0
C_10991440018_1371814186_0 J_10991440018 J_1371814186 56.75 0.013 0 0
C_10991440018_10991440020_0 J_10991440018 J_10991440020 58.96 0.013 0 0
C_5281842533_5281842532_0 J_5281842533 J_5281842532 55.16 0.013 0 0
C_5281842533_5283343737_0 J_5281842533 J_5283343737 15.58 0.013 0 0
C_5281842533_1371814186_0 J_5281842533 J_1371814186 17.46 0.013 0 0
C_1371814310_1371814188_0 J_1371814310 J_1371814188 87.46 0.013 0 0
C_1371814191_1371814193_0 J_1371814191 J_1371814193 31.30 0.013 0 0
C_1371814191_1371814296_0 J_1371814191 J_1371814296 36.75 0.013 0 0
C_1371814191_1371814254_0 J_1371814191 J_1371814254 56.85 0.013 0 0
C_1371814191_1371814222_0 J_1371814191 J_1371814222 56.77 0.013 0 0
C_1371814254_1371814191_0 J_1371814254 J_1371814191 56.85 0.013 0 0
C_1371814222_1371814191_0 J_1371814222 J_1371814191 56.77 0.013 0 0
C_7465393486_1371814297_0 J_7465393486 J_1371814297 181.24 0.013 0 0
C_7465393486_1371814296_0 J_7465393486 J_1371814296 121.38 0.013 0 0
C_7465393486_1371814193_0 J_7465393486 J_1371814193 170.82 0.013 0 0
C_4204925699_1371814201_0 J_4204925699 J_1371814201 91.91 0.013 0 0
C_4204925699_4204925697_0 J_4204925699 J_4204925697 141.61 0.013 0 0
C_4204925699_13064733100_0 J_4204925699 J_13064733100 83.60 0.013 0 0
C_1371814327_1371814201_0 J_1371814327 J_1371814201 47.18 0.013 0 0
C_7465614239_1371814205_0 J_7465614239 J_1371814205 120.49 0.013 0 0
C_1371814206_1371814223_0 J_1371814206 J_1371814223 34.96 0.013 0 0
C_1371814206_5281842546_0 J_1371814206 J_5281842546 29.88 0.013 0 0
C_1371814206_1371814332_0 J_1371814206 J_1371814332 52.73 0.013 0 0
C_1371814206_5281839988_0 J_1371814206 J_5281839988 167.17 0.013 0 0
C_1371814223_1371814246_0 J_1371814223 J_1371814246 52.21 0.013 0 0
C_1371814223_1371814206_0 J_1371814223 J_1371814206 34.96 0.013 0 0
C_1371814223_12765426026_0 J_1371814223 J_12765426026 134.40 0.013 0 0
C_5281842546_1371814206_0 J_5281842546 J_1371814206 29.88 0.013 0 0
C_5281839988_1371814285_0 J_5281839988 J_1371814285 152.16 0.013 0 0
C_5281839988_5281839987_0 J_5281839988 J_5281839987 22.07 0.013 0 0
C_5281839988_1371814206_0 J_5281839988 J_1371814206 167.17 0.013 0 0
C_1371814207_1371814280_0 J_1371814207 J_1371814280 88.41 0.013 0 0
C_1371814280_1371814267_0 J_1371814280 J_1371814267 43.99 0.013 0 0
C_1371814280_1578237528_0 J_1371814280 J_1578237528 38.64 0.013 0 0
C_1371814280_1371814207_0 J_1371814280 J_1371814207 88.41 0.013 0 0
C_1371814280_10991475142_0 J_1371814280 J_10991475142 183.23 0.013 0 0
C_11395452270_1371814219_0 J_11395452270 J_1371814219 80.85 0.013 0 0
C_12765426026_1371814223_0 J_12765426026 J_1371814223 134.40 0.013 0 0
C_6617328973_7465393504_0 J_6617328973 J_7465393504 27.93 0.013 0 0
C_6617328973_7465393503_0 J_6617328973 J_7465393503 23.54 0.013 0 0
C_6617328973_1371814230_0 J_6617328973 J_1371814230 210.99 0.013 0 0
C_1371814232_1371814285_0 J_1371814232 J_1371814285 89.93 0.013 0 0
C_1371814285_1371814297_0 J_1371814285 J_1371814297 40.81 0.013 0 0
C_1371814285_5281839988_0 J_1371814285 J_5281839988 152.16 0.013 0 0
C_1371814285_1371814232_0 J_1371814285 J_1371814232 89.93 0.013 0 0
C_1371814239_1578238465_0 J_1371814239 J_1578238465 50.26 0.013 0 0
C_5281840018_1371814265_0 J_5281840018 J_1371814265 18.66 0.013 0 0
C_5281840018_1598804290_0 J_5281840018 J_1598804290 12.39 0.013 0 0
C_5281840018_5281840017_0 J_5281840018 J_5281840017 25.09 0.013 0 0
C_5281840016_1371814265_0 J_5281840016 J_1371814265 80.85 0.013 0 0
C_5281840016_1598804288_0 J_5281840016 J_1598804288 30.65 0.013 0 0
C_5281840016_1457451923_0 J_5281840016 J_1457451923 28.94 0.013 0 0
C_5281842545_1371814267_0 J_5281842545 J_1371814267 56.21 0.013 0 0
C_1371814308_1371814324_0 J_1371814308 J_1371814324 38.37 0.013 0 0
C_1371814308_7452673893_0 J_1371814308 J_7452673893 103.82 0.013 0 0
C_1371814308_1371814269_0 J_1371814308 J_1371814269 133.35 0.013 0 0
C_10991475142_1371814280_0 J_10991475142 J_1371814280 183.23 0.013 0 0
C_10991475142_1371814324_0 J_10991475142 J_1371814324 97.03 0.013 0 0
C_10991475142_10991475147_0 J_10991475142 J_10991475147 103.65 0.013 0 0
C_1371814284_7465393489_0 J_1371814284 J_7465393489 63.53 0.013 0 0
C_1371814314_1371814294_0 J_1371814314 J_1371814294 129.01 0.013 0 0
C_7097657282_7097657283_0 J_7097657282 J_7097657283 32.30 0.013 0 0
C_7097657282_7465393495_0 J_7097657282 J_7465393495 37.01 0.013 0 0
C_7097657282_1371814297_0 J_7097657282 J_1371814297 147.80 0.013 0 0
C_9700074460_1371814298_0 J_9700074460 J_1371814298 172.82 0.013 0 0
C_1371814324_1371814308_0 J_1371814324 J_1371814308 38.37 0.013 0 0
C_1371814324_10991475142_0 J_1371814324 J_10991475142 97.03 0.013 0 0
C_1371814324_1371814331_0 J_1371814324 J_1371814331 63.39 0.013 0 0
C_7452673893_1371814308_0 J_7452673893 J_1371814308 103.82 0.013 0 0
C_5281840019_1371814339_0 J_5281840019 J_1371814339 70.84 0.013 0 0
C_5283343739_1371814339_0 J_5283343739 J_1371814339 54.26 0.013 0 0
C_5283343739_5281842531_0 J_5283343739 J_5281842531 51.74 0.013 0 0
C_5283343739_11395872426_0 J_5283343739 J_11395872426 154.97 0.013 0 0
C_1371816450_1371816389_0 J_1371816450 J_1371816389 126.02 0.013 0 0
C_1371816422_1371816446_0 J_1371816422 J_1371816446 111.75 0.013 0 0
C_1371816422_1371816391_0 J_1371816422 J_1371816391 81.65 0.013 0 0
C_1371816422_1371816400_0 J_1371816422 J_1371816400 30.96 0.013 0 0
C_1371816422_1371816389_0 J_1371816422 J_1371816389 31.18 0.013 0 0
C_1371816419_1371816389_0 J_1371816419 J_1371816389 31.97 0.013 0 0
C_1371816419_1371816411_0 J_1371816419 J_1371816411 73.94 0.013 0 0
C_1371816419_1371816417_0 J_1371816419 J_1371816417 170.41 0.013 0 0
C_1371816391_1371816422_0 J_1371816391 J_1371816422 81.65 0.013 0 0
C_1371816391_320242815_0 J_1371816391 J_320242815 34.13 0.013 0 0
C_1371816400_1371816415_0 J_1371816400 J_1371816415 103.70 0.013 0 0
C_1371816400_1371816443_0 J_1371816400 J_1371816443 75.18 0.013 0 0
C_1371816400_1371816460_0 J_1371816400 J_1371816460 29.22 0.013 0 0
C_1371816400_1371816422_0 J_1371816400 J_1371816422 30.96 0.013 0 0
C_1371816415_1371816400_0 J_1371816415 J_1371816400 103.70 0.013 0 0
C_1371816443_1371816400_0 J_1371816443 J_1371816400 75.18 0.013 0 0
C_1371816443_6901280956_0 J_1371816443 J_6901280956 8.01 0.013 0 0
C_1371816443_1371816391_0 J_1371816443 J_1371816391 34.53 0.013 0 0
C_1371816460_1371816400_0 J_1371816460 J_1371816400 29.22 0.013 0 0
C_1371816460_1371816402_0 J_1371816460 J_1371816402 25.88 0.013 0 0
C_1371816460_1371816441_0 J_1371816460 J_1371816441 72.14 0.013 0 0
C_1371816460_7465456827_0 J_1371816460 J_7465456827 137.48 0.013 0 0
C_1371816401_1371816463_0 J_1371816401 J_1371816463 69.46 0.013 0 0
C_1371816401_1371816459_0 J_1371816401 J_1371816459 26.80 0.013 0 0
C_1371816401_1371816442_0 J_1371816401 J_1371816442 20.46 0.013 0 0
C_1371816402_1371816464_0 J_1371816402 J_1371816464 12.35 0.013 0 0
C_1371816402_1371816425_0 J_1371816402 J_1371816425 12.44 0.013 0 0
C_1371816402_1371816460_0 J_1371816402 J_1371816460 25.88 0.013 0 0
C_1371816464_1371816402_0 J_1371816464 J_1371816402 12.35 0.013 0 0
C_1371816425_1371816402_0 J_1371816425 J_1371816402 12.44 0.013 0 0
C_1371816407_1371816435_0 J_1371816407 J_1371816435 39.33 0.013 0 0
C_1371816407_11438418704_0 J_1371816407 J_11438418704 42.19 0.013 0 0
C_1371816407_1371816440_0 J_1371816407 J_1371816440 111.02 0.013 0 0
C_1371816435_1371816407_0 J_1371816435 J_1371816407 39.33 0.013 0 0
C_1371816435_1371816433_0 J_1371816435 J_1371816433 141.89 0.013 0 0
C_1371816435_1371816440_0 J_1371816435 J_1371816440 106.94 0.013 0 0
C_11438418704_11438418705_0 J_11438418704 J_11438418705 21.00 0.013 0 0
C_11438418704_1371816417_0 J_11438418704 J_1371816417 184.28 0.013 0 0
C_11438418704_1371816407_0 J_11438418704 J_1371816407 42.19 0.013 0 0
C_1371816440_1371816407_0 J_1371816440 J_1371816407 111.02 0.013 0 0
C_1371816440_1371816435_0 J_1371816440 J_1371816435 106.94 0.013 0 0
C_1371816440_1371816417_0 J_1371816440 J_1371816417 84.12 0.013 0 0
C_11885696210_1371816411_0 J_11885696210 J_1371816411 5.82 0.013 0 0
C_11885696210_11885729668_0 J_11885696210 J_11885729668 32.73 0.013 0 0
C_1371816417_11438418704_0 J_1371816417 J_11438418704 184.28 0.013 0 0
C_1371816417_1371816440_0 J_1371816417 J_1371816440 84.12 0.013 0 0
C_1371816417_1371816419_0 J_1371816417 J_1371816419 170.41 0.013 0 0
C_1371816446_1371816422_0 J_1371816446 J_1371816422 111.75 0.013 0 0
C_5281842548_5281840014_0 J_5281842548 J_5281840014 245.30 0.013 0 0
C_5281842548_4730103812_0 J_5281842548 J_4730103812 23.52 0.013 0 0
C_5281842548_1371816431_0 J_5281842548 J_1371816431 181.42 0.013 0 0
C_4730103812_5281842548_0 J_4730103812 J_5281842548 23.52 0.013 0 0
C_4730103812_1371816433_0 J_4730103812 J_1371816433 197.58 0.013 0 0
C_4730103812_4730103806_0 J_4730103812 J_4730103806 438.80 0.013 0 0
C_1371816441_1371816460_0 J_1371816441 J_1371816460 72.14 0.013 0 0
C_1371816441_1371816443_0 J_1371816441 J_1371816443 23.01 0.013 0 0
C_6901280956_1371816443_0 J_6901280956 J_1371816443 8.01 0.013 0 0
C_6901280956_11885820562_0 J_6901280956 J_11885820562 115.85 0.013 0 0
C_7465456827_9982048419_0 J_7465456827 J_9982048419 49.95 0.013 0 0
C_7465456827_10687741966_0 J_7465456827 J_10687741966 57.42 0.013 0 0
C_7465456827_1371816460_0 J_7465456827 J_1371816460 137.48 0.013 0 0
C_1371816462_7465614246_0 J_1371816462 J_7465614246 74.68 0.013 0 0
C_1371828528_7298289263_0 J_1371828528 J_7298289263 30.10 0.013 0 0
C_1371828528_1371828527_0 J_1371828528 J_1371828527 60.80 0.013 0 0
C_1371828528_1371828540_0 J_1371828528 J_1371828540 23.03 0.013 0 0
C_1371828545_1371828542_0 J_1371828545 J_1371828542 94.80 0.013 0 0
C_1371828545_1371828527_0 J_1371828545 J_1371828527 21.91 0.013 0 0
C_1371828545_7140718123_0 J_1371828545 J_7140718123 21.99 0.013 0 0
C_1371828545_1371828540_0 J_1371828545 J_1371828540 62.58 0.013 0 0
C_7298289263_7298289316_0 J_7298289263 J_7298289316 63.38 0.013 0 0
C_7298289263_1371828528_0 J_7298289263 J_1371828528 30.10 0.013 0 0
C_7298289263_7298289248_0 J_7298289263 J_7298289248 69.37 0.013 0 0
C_1371828540_7140718125_0 J_1371828540 J_7140718125 19.33 0.013 0 0
C_1371828540_1371828528_0 J_1371828540 J_1371828528 23.03 0.013 0 0
C_1371828540_1371828545_0 J_1371828540 J_1371828545 62.58 0.013 0 0
C_7298289227_1371828530_0 J_7298289227 J_1371828530 35.07 0.013 0 0
C_7298289227_7298289226_0 J_7298289227 J_7298289226 30.46 0.013 0 0
C_7298289227_1371828535_0 J_7298289227 J_1371828535 37.06 0.013 0 0
C_1371828539_1371828530_0 J_1371828539 J_1371828530 31.66 0.013 0 0
C_1371828539_7140718125_0 J_1371828539 J_7140718125 22.66 0.013 0 0
C_1371828539_1371828544_0 J_1371828539 J_1371828544 61.41 0.013 0 0
C_1371828531_13830106177_0 J_1371828531 J_13830106177 35.87 0.013 0 0
C_1371828531_9900960144_0 J_1371828531 J_9900960144 112.01 0.013 0 0
C_1371828531_11397402715_0 J_1371828531 J_11397402715 154.61 0.013 0 0
C_13830106177_1371828531_0 J_13830106177 J_1371828531 35.87 0.013 0 0
C_13830106177_13830106203_0 J_13830106177 J_13830106203 14.83 0.013 0 0
C_13830106177_13830106176_0 J_13830106177 J_13830106176 40.43 0.013 0 0
C_9900960144_1558994024_0 J_9900960144 J_1558994024 143.01 0.013 0 0
C_9900960144_1371828531_0 J_9900960144 J_1371828531 112.01 0.013 0 0
C_11397402715_1371828531_0 J_11397402715 J_1371828531 154.61 0.013 0 0
C_1371828533_7298289303_0 J_1371828533 J_7298289303 9.07 0.013 0 0
C_7298289303_7298289304_0 J_7298289303 J_7298289304 24.11 0.013 0 0
C_7298289303_13830086493_0 J_7298289303 J_13830086493 91.50 0.013 0 0
C_7298289303_1371828533_0 J_7298289303 J_1371828533 9.07 0.013 0 0
C_10084814543_7298295670_0 J_10084814543 J_7298295670 7.10 0.013 0 0
C_10084814543_1066108522_0 J_10084814543 J_1066108522 43.86 0.013 0 0
C_7140718125_1371828540_0 J_7140718125 J_1371828540 19.33 0.013 0 0
C_7140718125_1371828539_0 J_7140718125 J_1371828539 22.66 0.013 0 0
C_7140718125_7140718123_0 J_7140718125 J_7140718123 60.81 0.013 0 0
C_7140718121_1371828542_0 J_7140718121 J_1371828542 19.59 0.013 0 0
C_7140718121_1371828541_0 J_7140718121 J_1371828541 27.44 0.013 0 0
C_7140718121_7140718123_0 J_7140718121 J_7140718123 99.11 0.013 0 0
C_7140718121_7298289230_0 J_7140718121 J_7298289230 19.13 0.013 0 0
C_1371828543_13830086493_0 J_1371828543 J_13830086493 26.86 0.013 0 0
C_1371828543_7298289304_0 J_1371828543 J_7298289304 89.99 0.013 0 0
C_1371828543_10266837398_0 J_1371828543 J_10266837398 154.58 0.013 0 0
C_7298289304_13830106205_0 J_7298289304 J_13830106205 33.88 0.013 0 0
C_7298289304_7298289303_0 J_7298289304 J_7298289303 24.11 0.013 0 0
C_7298289304_1371828543_0 J_7298289304 J_1371828543 89.99 0.013 0 0
C_10266837398_3649025381_0 J_10266837398 J_3649025381 43.04 0.013 0 0
C_10266837398_12210693584_0 J_10266837398 J_12210693584 30.01 0.013 0 0
C_10266837398_1371828543_0 J_10266837398 J_1371828543 154.58 0.013 0 0
C_7140718123_1371828544_0 J_7140718123 J_1371828544 26.63 0.013 0 0
C_7140718123_1371828545_0 J_7140718123 J_1371828545 21.99 0.013 0 0
C_7140718123_7140718121_0 J_7140718123 J_7140718121 99.11 0.013 0 0
C_7140718123_7140718125_0 J_7140718123 J_7140718125 60.81 0.013 0 0
C_7298289290_7298289287_0 J_7298289290 J_7298289287 24.55 0.013 0 0
C_7298289290_7298289289_0 J_7298289290 J_7298289289 58.29 0.013 0 0
C_7298289290_1374396082_0 J_7298289290 J_1374396082 145.09 0.013 0 0
C_1511238410_1511238406_0 J_1511238410 J_1511238406 149.93 0.013 0 0
C_1511238410_6901363516_0 J_1511238410 J_6901363516 108.11 0.013 0 0
C_1376905673_13655653225_0 J_1376905673 J_13655653225 3.97 0.013 0 0
C_1376905673_1376905671_0 J_1376905673 J_1376905671 89.33 0.013 0 0
C_1376905673_1376905664_0 J_1376905673 J_1376905664 117.16 0.013 0 0
C_1376905667_1376905672_0 J_1376905667 J_1376905672 102.41 0.013 0 0
C_1376905672_7452712421_0 J_1376905672 J_7452712421 16.55 0.013 0 0
C_1376905672_13655653225_0 J_1376905672 J_13655653225 41.38 0.013 0 0
C_1376905672_1376905667_0 J_1376905672 J_1376905667 102.41 0.013 0 0
C_1376905671_1376905673_0 J_1376905671 J_1376905673 89.33 0.013 0 0
C_7452712421_1376905672_0 J_7452712421 J_1376905672 16.55 0.013 0 0
C_7452712421_9990058602_0 J_7452712421 J_9990058602 53.98 0.013 0 0
C_7452712421_9700074486_0 J_7452712421 J_9700074486 124.68 0.013 0 0
C_13655653225_1376905672_0 J_13655653225 J_1376905672 41.38 0.013 0 0
C_13655653225_1376905673_0 J_13655653225 J_1376905673 3.97 0.013 0 0
C_13655653225_13655653224_0 J_13655653225 J_13655653224 52.62 0.013 0 0
C_1382528610_1382528655_0 J_1382528610 J_1382528655 11.71 0.013 0 0
C_1382528610_6901407760_0 J_1382528610 J_6901407760 246.17 0.013 0 0
C_1384732339_9982048425_0 J_1384732339 J_9982048425 9.65 0.013 0 0
C_1384732339_7465456846_0 J_1384732339 J_7465456846 59.01 0.013 0 0
C_1384732339_11885832888_0 J_1384732339 J_11885832888 61.50 0.013 0 0
C_9982048425_1384732339_0 J_9982048425 J_1384732339 9.65 0.013 0 0
C_9982048425_11397285061_0 J_9982048425 J_11397285061 86.17 0.013 0 0
C_9982048425_7465672893_0 J_9982048425 J_7465672893 80.87 0.013 0 0
C_7465456846_1384732339_0 J_7465456846 J_1384732339 59.01 0.013 0 0
C_11885832888_11885832889_0 J_11885832888 J_11885832889 8.54 0.013 0 0
C_11885832888_320242819_0 J_11885832888 J_320242819 48.14 0.013 0 0
C_1384732709_11885832889_0 J_1384732709 J_11885832889 11.33 0.013 0 0
C_1384732709_7465456828_0 J_1384732709 J_7465456828 80.74 0.013 0 0
C_11885832889_7465456831_0 J_11885832889 J_7465456831 15.26 0.013 0 0
C_11885832889_11885832888_0 J_11885832889 J_11885832888 8.54 0.013 0 0
C_7465456828_1384732709_0 J_7465456828 J_1384732709 80.74 0.013 0 0
C_1384732910_7465456843_0 J_1384732910 J_7465456843 88.75 0.013 0 0
C_1384732910_9982048419_0 J_1384732910 J_9982048419 7.92 0.013 0 0
C_1384732910_11409245945_0 J_1384732910 J_11409245945 64.49 0.013 0 0
C_7465456843_2508149195_0 J_7465456843 J_2508149195 75.05 0.013 0 0
C_7465456843_1384732910_0 J_7465456843 J_1384732910 88.75 0.013 0 0
C_7465456843_7465456839_0 J_7465456843 J_7465456839 130.14 0.013 0 0
C_9982048419_7465456827_0 J_9982048419 J_7465456827 49.95 0.013 0 0
C_9982048419_1384732910_0 J_9982048419 J_1384732910 7.92 0.013 0 0
C_9982048419_11885820563_0 J_9982048419 J_11885820563 67.11 0.013 0 0
C_11409245945_11409245946_0 J_11409245945 J_11409245946 23.88 0.013 0 0
C_11409245945_1384733202_0 J_11409245945 J_1384733202 28.75 0.013 0 0
C_1384733202_1384732339_0 J_1384733202 J_1384732339 61.83 0.013 0 0
C_1384733202_11397260844_0 J_1384733202 J_11397260844 46.09 0.013 0 0
C_11397260844_1384733202_0 J_11397260844 J_1384733202 46.09 0.013 0 0
C_1585741084_10978640856_0 J_1585741084 J_10978640856 145.86 0.013 0 0
C_1585741084_7291167618_0 J_1585741084 J_7291167618 75.40 0.013 0 0
C_11006982239_11006982240_0 J_11006982239 J_11006982240 92.78 0.013 0 0
C_11006982239_253447903_0 J_11006982239 J_253447903 116.76 0.013 0 0
C_1605954141_1605954172_0 J_1605954141 J_1605954172 71.10 0.013 0 0
C_1605954141_1605954220_0 J_1605954141 J_1605954220 111.48 0.013 0 0
C_1605954141_1437330565_0 J_1605954141 J_1437330565 135.65 0.013 0 0
C_1439027926_1505269146_0 J_1439027926 J_1505269146 26.08 0.013 0 0
C_1439027926_1443044904_0 J_1439027926 J_1443044904 101.98 0.013 0 0
C_1439027926_1631443363_0 J_1439027926 J_1631443363 45.39 0.013 0 0
C_1505269146_1439027926_0 J_1505269146 J_1439027926 26.08 0.013 0 0
C_1505269146_7101760810_0 J_1505269146 J_7101760810 11.26 0.013 0 0
C_1505269146_1505269186_0 J_1505269146 J_1505269186 88.57 0.013 0 0
C_1443044904_1439027926_0 J_1443044904 J_1439027926 101.98 0.013 0 0
C_1443044904_5281842567_0 J_1443044904 J_5281842567 43.93 0.013 0 0
C_1443044904_1631443235_0 J_1443044904 J_1631443235 34.10 0.013 0 0
C_1631443363_1631443235_0 J_1631443363 J_1631443235 118.16 0.013 0 0
C_1631443363_1443044865_0 J_1631443363 J_1443044865 37.88 0.013 0 0
C_1631443363_1439027926_0 J_1631443363 J_1439027926 45.39 0.013 0 0
C_1443044792_11002846646_0 J_1443044792 J_11002846646 48.88 0.013 0 0
C_1443044792_13130886315_0 J_1443044792 J_13130886315 33.87 0.013 0 0
C_1443044792_9867253967_0 J_1443044792 J_9867253967 51.14 0.013 0 0
C_1443044792_11002846647_0 J_1443044792 J_11002846647 102.30 0.013 0 0
C_11002846646_1443044792_0 J_11002846646 J_1443044792 48.88 0.013 0 0
C_11002846646_7101760813_0 J_11002846646 J_7101760813 46.98 0.013 0 0
C_11002846646_11002846647_0 J_11002846646 J_11002846647 52.51 0.013 0 0
C_13130886315_1443044792_0 J_13130886315 J_1443044792 33.87 0.013 0 0
C_13130886315_5931305386_0 J_13130886315 J_5931305386 35.22 0.013 0 0
C_13130886315_3530426108_0 J_13130886315 J_3530426108 216.79 0.013 0 0
C_9867253967_5931305386_0 J_9867253967 J_5931305386 31.01 0.013 0 0
C_9867253967_11002921849_0 J_9867253967 J_11002921849 34.12 0.013 0 0
C_9867253967_1443044792_0 J_9867253967 J_1443044792 51.14 0.013 0 0
C_9867253967_12180012794_0 J_9867253967 J_12180012794 28.46 0.013 0 0
C_11002846647_1443044792_0 J_11002846647 J_1443044792 102.30 0.013 0 0
C_11002846647_7101760816_0 J_11002846647 J_7101760816 36.56 0.013 0 0
C_11002846647_11002846646_0 J_11002846647 J_11002846646 52.51 0.013 0 0
C_1443044865_1443044896_0 J_1443044865 J_1443044896 128.80 0.013 0 0
C_1443044865_1443044870_0 J_1443044865 J_1443044870 36.60 0.013 0 0
C_1443044865_1631443363_0 J_1443044865 J_1631443363 37.88 0.013 0 0
C_1443044896_1443044900_0 J_1443044896 J_1443044900 87.88 0.013 0 0
C_1443044896_1443044865_0 J_1443044896 J_1443044865 128.80 0.013 0 0
C_1443044896_1631443235_0 J_1443044896 J_1631443235 34.87 0.013 0 0
C_7298289268_10038722876_0 J_7298289268 J_10038722876 27.33 0.013 0 0
C_7298289268_1443044870_0 J_7298289268 J_1443044870 32.75 0.013 0 0
C_7298289268_14066685083_0 J_7298289268 J_14066685083 53.52 0.013 0 0
C_1443044900_1443044896_0 J_1443044900 J_1443044896 87.88 0.013 0 0
C_1631443235_1631443363_0 J_1631443235 J_1631443363 118.16 0.013 0 0
C_1631443235_1443044896_0 J_1631443235 J_1443044896 34.87 0.013 0 0
C_1631443235_1443044904_0 J_1631443235 J_1443044904 34.10 0.013 0 0
C_1631443235_7291147477_0 J_1631443235 J_7291147477 67.40 0.013 0 0
C_1457451930_1457451925_0 J_1457451930 J_1457451925 136.99 0.013 0 0
C_1457451930_5281839987_0 J_1457451930 J_5281839987 12.54 0.013 0 0
C_1457451930_1457451923_0 J_1457451930 J_1457451923 47.64 0.013 0 0
C_1457451925_1457451930_0 J_1457451925 J_1457451930 136.99 0.013 0 0
C_1457451925_1598804288_0 J_1457451925 J_1598804288 92.53 0.013 0 0
C_1457451925_5281839987_0 J_1457451925 J_5281839987 191.32 0.013 0 0
C_1598804288_1598804290_0 J_1598804288 J_1598804290 84.35 0.013 0 0
C_1598804288_5281840016_0 J_1598804288 J_5281840016 30.65 0.013 0 0
C_1598804288_1457451925_0 J_1598804288 J_1457451925 92.53 0.013 0 0
C_5281839987_5281839988_0 J_5281839987 J_5281839988 22.07 0.013 0 0
C_5281839987_1457451930_0 J_5281839987 J_1457451930 12.54 0.013 0 0
C_5281839987_1457451925_0 J_5281839987 J_1457451925 191.32 0.013 0 0
C_1470833636_6632636571_0 J_1470833636 J_6632636571 44.39 0.013 0 0
C_1470833636_1470833614_0 J_1470833636 J_1470833614 178.27 0.013 0 0
C_1470833636_1470833630_0 J_1470833636 J_1470833630 33.19 0.013 0 0
C_1470833628_1470833630_0 J_1470833628 J_1470833630 175.36 0.013 0 0
C_1470833628_1470833614_0 J_1470833628 J_1470833614 32.82 0.013 0 0
C_1470833628_1470833645_0 J_1470833628 J_1470833645 29.11 0.013 0 0
C_1470833622_1470833646_0 J_1470833622 J_1470833646 104.87 0.013 0 0
C_1470833646_1470833650_0 J_1470833646 J_1470833650 33.82 0.013 0 0
C_1470833646_1470833645_0 J_1470833646 J_1470833645 174.89 0.013 0 0
C_1470833646_1470833630_0 J_1470833646 J_1470833630 32.73 0.013 0 0
C_1470833646_1470833622_0 J_1470833646 J_1470833622 104.87 0.013 0 0
C_1470833630_1470833628_0 J_1470833630 J_1470833628 175.36 0.013 0 0
C_1470833630_1470833639_0 J_1470833630 J_1470833639 91.24 0.013 0 0
C_1470833630_1470833636_0 J_1470833630 J_1470833636 33.19 0.013 0 0
C_1470833630_1470833646_0 J_1470833630 J_1470833646 32.73 0.013 0 0
C_1470833645_1470833646_0 J_1470833645 J_1470833646 174.89 0.013 0 0
C_1470833645_1470833643_0 J_1470833645 J_1470833643 34.90 0.013 0 0
C_1470833645_1470833628_0 J_1470833645 J_1470833628 29.11 0.013 0 0
C_1470833629_10716532018_0 J_1470833629 J_10716532018 5.32 0.013 0 0
C_10716532018_1470833629_0 J_10716532018 J_1470833629 5.32 0.013 0 0
C_10716532018_1470833642_0 J_10716532018 J_1470833642 67.48 0.013 0 0
C_10716532018_10716532019_0 J_10716532018 J_10716532019 38.69 0.013 0 0
C_1470833639_1470833630_0 J_1470833639 J_1470833630 91.24 0.013 0 0
C_1470833634_1470833650_0 J_1470833634 J_1470833650 109.31 0.013 0 0
C_1470833650_1470833646_0 J_1470833650 J_1470833646 33.82 0.013 0 0
C_1470833650_11017633319_0 J_1470833650 J_11017633319 114.03 0.013 0 0
C_1470833650_1470833634_0 J_1470833650 J_1470833634 109.31 0.013 0 0
C_1470833650_11414136196_0 J_1470833650 J_11414136196 121.74 0.013 0 0
C_6632636571_1470833636_0 J_6632636571 J_1470833636 44.39 0.013 0 0
C_6632636571_10221065294_0 J_6632636571 J_10221065294 101.71 0.013 0 0
C_6632636571_5281691579_0 J_6632636571 J_5281691579 146.19 0.013 0 0
C_1470833643_11017633319_0 J_1470833643 J_11017633319 56.10 0.013 0 0
C_1470833643_1492407658_0 J_1470833643 J_1492407658 326.55 0.013 0 0
C_1470833643_1470833645_0 J_1470833643 J_1470833645 34.90 0.013 0 0
C_11017633319_1470833650_0 J_11017633319 J_1470833650 114.03 0.013 0 0
C_11017633319_1470833643_0 J_11017633319 J_1470833643 56.10 0.013 0 0
C_11017633319_11017633320_0 J_11017633319 J_11017633320 36.73 0.013 0 0
C_1492407658_1492407663_0 J_1492407658 J_1492407663 129.64 0.013 0 0
C_1492407658_1492407651_0 J_1492407658 J_1492407651 83.20 0.013 0 0
C_1492407658_1470833643_0 J_1492407658 J_1470833643 326.55 0.013 0 0
C_11414136196_1634963569_0 J_11414136196 J_1634963569 19.33 0.013 0 0
C_11414136196_11414136197_0 J_11414136196 J_11414136197 34.95 0.013 0 0
C_11414136196_1470833650_0 J_11414136196 J_1470833650 121.74 0.013 0 0
C_11182447927_1718788930_0 J_11182447927 J_1718788930 21.02 0.013 0 0
C_11182447927_11182447928_0 J_11182447927 J_11182447928 12.31 0.013 0 0
C_11182447927_1472791625_0 J_11182447927 J_1472791625 46.46 0.013 0 0
C_1485730731_6180767894_0 J_1485730731 J_6180767894 70.31 0.013 0 0
C_6180767894_1485730731_0 J_6180767894 J_1485730731 70.31 0.013 0 0
C_6180767894_6142628592_0 J_6180767894 J_6142628592 38.47 0.013 0 0
C_6180767894_6142680813_0 J_6180767894 J_6142680813 34.65 0.013 0 0
C_1485730738_6142680814_0 J_1485730738 J_6142680814 78.02 0.013 0 0
C_1485730738_1485730754_0 J_1485730738 J_1485730754 51.94 0.013 0 0
C_1485730738_1485730751_0 J_1485730738 J_1485730751 168.80 0.013 0 0
C_6142680814_1485730775_0 J_6142680814 J_1485730775 33.58 0.013 0 0
C_6142680814_1485730738_0 J_6142680814 J_1485730738 78.02 0.013 0 0
C_6142680814_6142680813_0 J_6142680814 J_6142680813 49.34 0.013 0 0
C_1485730754_1485730776_0 J_1485730754 J_1485730776 32.58 0.013 0 0
C_1485730754_1485730738_0 J_1485730754 J_1485730738 51.94 0.013 0 0
C_1485730754_6142680813_0 J_1485730754 J_6142680813 74.02 0.013 0 0
C_1485730751_1485730738_0 J_1485730751 J_1485730738 168.80 0.013 0 0
C_1485730751_1104250524_0 J_1485730751 J_1104250524 200.31 0.013 0 0
C_1485730776_1485730754_0 J_1485730776 J_1485730754 32.58 0.013 0 0
C_1485730776_6142628592_0 J_1485730776 J_6142628592 31.01 0.013 0 0
C_1485730776_1485730755_0 J_1485730776 J_1485730755 10.85 0.013 0 0
C_6142680813_1485730774_0 J_6142680813 J_1485730774 65.26 0.013 0 0
C_6142680813_1485730754_0 J_6142680813 J_1485730754 74.02 0.013 0 0
C_6142680813_6180767894_0 J_6142680813 J_6180767894 34.65 0.013 0 0
C_6142680813_6142680814_0 J_6142680813 J_6142680814 49.34 0.013 0 0
C_1485730755_1485730776_0 J_1485730755 J_1485730776 10.85 0.013 0 0
C_1485730774_6142680813_0 J_1485730774 J_6142680813 65.26 0.013 0 0
C_1485730775_6142680814_0 J_1485730775 J_6142680814 33.58 0.013 0 0
C_6142628592_6180767894_0 J_6142628592 J_6180767894 38.47 0.013 0 0
C_6142628592_1485730776_0 J_6142628592 J_1485730776 31.01 0.013 0 0
C_6142628592_6142628590_0 J_6142628592 J_6142628590 161.28 0.013 0 0
C_1492407651_7466375684_0 J_1492407651 J_7466375684 55.97 0.013 0 0
C_1492407651_1492407638_0 J_1492407651 J_1492407638 44.82 0.013 0 0
C_1492407651_1492407658_0 J_1492407651 J_1492407658 83.20 0.013 0 0
C_1492407663_1492407638_0 J_1492407663 J_1492407638 132.39 0.013 0 0
C_1492407663_1492407652_0 J_1492407663 J_1492407652 126.69 0.013 0 0
C_1492407663_1492407658_0 J_1492407663 J_1492407658 129.64 0.013 0 0
C_1492407639_9839093177_0 J_1492407639 J_9839093177 32.74 0.013 0 0
C_1492407639_9839093175_0 J_1492407639 J_9839093175 106.20 0.013 0 0
C_1492407639_1492407640_0 J_1492407639 J_1492407640 236.33 0.013 0 0
C_9839093177_1492407639_0 J_9839093177 J_1492407639 32.74 0.013 0 0
C_9839093177_1492407646_0 J_9839093177 J_1492407646 37.11 0.013 0 0
C_9839093177_9839093178_0 J_9839093177 J_9839093178 104.65 0.013 0 0
C_9839093175_1492407639_0 J_9839093175 J_1492407639 106.20 0.013 0 0
C_1492407640_1492407639_0 J_1492407640 J_1492407639 236.33 0.013 0 0
C_10017481091_10017481092_0 J_10017481091 J_10017481092 27.22 0.013 0 0
C_10017481091_13041011657_0 J_10017481091 J_13041011657 69.57 0.013 0 0
C_10017481091_1492407642_0 J_10017481091 J_1492407642 82.71 0.013 0 0
C_1634931733_10044811669_0 J_1634931733 J_10044811669 39.51 0.013 0 0
C_1634931733_1634931610_0 J_1634931733 J_1634931610 50.75 0.013 0 0
C_1634931733_1492407642_0 J_1634931733 J_1492407642 128.11 0.013 0 0
C_1492407645_13041011660_0 J_1492407645 J_13041011660 14.40 0.013 0 0
C_1492407645_2048245856_0 J_1492407645 J_2048245856 48.92 0.013 0 0
C_1492407645_11184922059_0 J_1492407645 J_11184922059 42.58 0.013 0 0
C_13041011660_13041011654_0 J_13041011660 J_13041011654 4.26 0.013 0 0
C_13041011660_13041011653_0 J_13041011660 J_13041011653 1.84 0.013 0 0
C_13041011660_1492407645_0 J_13041011660 J_1492407645 14.40 0.013 0 0
C_13041011660_13041011657_0 J_13041011660 J_13041011657 27.69 0.013 0 0
C_2048245856_3957948342_0 J_2048245856 J_3957948342 202.00 0.013 0 0
C_2048245856_1492407645_0 J_2048245856 J_1492407645 48.92 0.013 0 0
C_2048245856_13041011663_0 J_2048245856 J_13041011663 36.92 0.013 0 0
C_11184922059_1492407645_0 J_11184922059 J_1492407645 42.58 0.013 0 0
C_1492407646_9839093177_0 J_1492407646 J_9839093177 37.11 0.013 0 0
C_1492407646_7466375684_0 J_1492407646 J_7466375684 24.78 0.013 0 0
C_1492407646_11017641140_0 J_1492407646 J_11017641140 105.77 0.013 0 0
C_7466375684_1492407646_0 J_7466375684 J_1492407646 24.78 0.013 0 0
C_7466375684_1492407651_0 J_7466375684 J_1492407651 55.97 0.013 0 0
C_7466375684_7466375683_0 J_7466375684 J_7466375683 75.34 0.013 0 0
C_11017641140_1492407646_0 J_11017641140 J_1492407646 105.77 0.013 0 0
C_1492407652_1492407663_0 J_1492407652 J_1492407663 126.69 0.013 0 0
C_1497326586_5281840005_0 J_1497326586 J_5281840005 8.10 0.013 0 0
C_1497326586_10841617807_0 J_1497326586 J_10841617807 48.18 0.013 0 0
C_5281840005_1497326586_0 J_5281840005 J_1497326586 8.10 0.013 0 0
C_5281840005_11197334457_0 J_5281840005 J_11197334457 234.06 0.013 0 0
C_10841617807_5281840000_0 J_10841617807 J_5281840000 79.06 0.013 0 0
C_10841617807_12187507077_0 J_10841617807 J_12187507077 13.13 0.013 0 0
C_7298289308_7298289306_0 J_7298289308 J_7298289306 31.07 0.013 0 0
C_7298289308_7298289309_0 J_7298289308 J_7298289309 86.96 0.013 0 0
C_7298289308_1502865751_0 J_7298289308 J_1502865751 15.19 0.013 0 0
C_1502865760_7101732724_0 J_1502865760 J_7101732724 9.78 0.013 0 0
C_1502865760_1558993985_0 J_1502865760 J_1558993985 38.40 0.013 0 0
C_1502865760_1502865776_0 J_1502865760 J_1502865776 85.86 0.013 0 0
C_7101732724_1558994055_0 J_7101732724 J_1558994055 35.20 0.013 0 0
C_7101732724_1502865760_0 J_7101732724 J_1502865760 9.78 0.013 0 0
C_7101732724_7101732726_0 J_7101732724 J_7101732726 32.78 0.013 0 0
C_1558993985_7101732727_0 J_1558993985 J_7101732727 34.57 0.013 0 0
C_1558993985_1502865760_0 J_1558993985 J_1502865760 38.40 0.013 0 0
C_1558993985_1558994048_0 J_1558993985 J_1558994048 90.30 0.013 0 0
C_1558993985_7101732710_0 J_1558993985 J_7101732710 146.81 0.013 0 0
C_1502865776_1502865774_0 J_1502865776 J_1502865774 14.98 0.013 0 0
C_1502865776_1502865760_0 J_1502865776 J_1502865760 85.86 0.013 0 0
C_1502865776_1558994048_0 J_1502865776 J_1558994048 69.23 0.013 0 0
C_1502865762_10209103447_0 J_1502865762 J_10209103447 27.56 0.013 0 0
C_1502865762_7140718119_0 J_1502865762 J_7140718119 8.79 0.013 0 0
C_1502865762_1852671167_0 J_1502865762 J_1852671167 22.92 0.013 0 0
C_10209103447_1502865762_0 J_10209103447 J_1502865762 27.56 0.013 0 0
C_10209103447_1502865774_0 J_10209103447 J_1502865774 24.44 0.013 0 0
C_10209103447_10209103448_0 J_10209103447 J_10209103448 20.09 0.013 0 0
C_7140718119_7101732723_0 J_7140718119 J_7101732723 25.89 0.013 0 0
C_7140718119_1502865762_0 J_7140718119 J_1502865762 8.79 0.013 0 0
C_7140718119_7140718117_0 J_7140718119 J_7140718117 69.61 0.013 0 0
C_1852671167_1502865762_0 J_1852671167 J_1502865762 22.92 0.013 0 0
C_1852671167_7298295682_0 J_1852671167 J_7298295682 108.77 0.013 0 0
C_1852671167_1558993987_0 J_1852671167 J_1558993987 67.42 0.013 0 0
C_1502865774_10209103447_0 J_1502865774 J_10209103447 24.44 0.013 0 0
C_1502865774_1502865776_0 J_1502865774 J_1502865776 14.98 0.013 0 0
C_1502865774_1558993906_0 J_1502865774 J_1558993906 48.36 0.013 0 0
C_1558993906_1558993939_0 J_1558993906 J_1558993939 7.13 0.013 0 0
C_1558993906_7298289310_0 J_1558993906 J_7298289310 15.73 0.013 0 0
C_1558993906_1502865774_0 J_1558993906 J_1502865774 48.36 0.013 0 0
C_1558994048_1558993987_0 J_1558994048 J_1558993987 28.29 0.013 0 0
C_1558994048_1558993985_0 J_1558994048 J_1558993985 90.30 0.013 0 0
C_1558994048_1502865776_0 J_1558994048 J_1502865776 69.23 0.013 0 0
C_1505269133_1505269186_0 J_1505269133 J_1505269186 76.77 0.013 0 0
C_1505269133_1505269186_1 J_1505269133 J_1505269186 157.63 0.013 0 0
C_1505269133_11399419950_0 J_1505269133 J_11399419950 10.52 0.013 0 0
C_1505269186_1505269146_0 J_1505269186 J_1505269146 88.57 0.013 0 0
C_1505269186_1505269133_0 J_1505269186 J_1505269133 76.77 0.013 0 0
C_1505269186_1505269133_1 J_1505269186 J_1505269133 157.63 0.013 0 0
C_7101760810_1505269146_0 J_7101760810 J_1505269146 11.26 0.013 0 0
C_7101760810_5281842568_0 J_7101760810 J_5281842568 20.98 0.013 0 0
C_7101760810_7101760812_0 J_7101760810 J_7101760812 37.16 0.013 0 0
C_1505269171_7298289243_0 J_1505269171 J_7298289243 75.35 0.013 0 0
C_1505269171_7298289210_0 J_1505269171 J_7298289210 39.14 0.013 0 0
C_1505269171_11028823357_0 J_1505269171 J_11028823357 207.00 0.013 0 0
C_7298289243_1505269171_0 J_7298289243 J_1505269171 75.35 0.013 0 0
C_7298289210_7298289198_0 J_7298289210 J_7298289198 97.48 0.013 0 0
C_7298289210_1505269171_0 J_7298289210 J_1505269171 39.14 0.013 0 0
C_7298289210_7140718128_0 J_7298289210 J_7140718128 76.28 0.013 0 0
C_11028823357_7298289189_0 J_11028823357 J_7298289189 27.53 0.013 0 0
C_11028823357_11028823358_0 J_11028823357 J_11028823358 88.67 0.013 0 0
C_11028823357_1505269171_0 J_11028823357 J_1505269171 207.00 0.013 0 0
C_1507064166_1507064149_0 J_1507064166 J_1507064149 152.31 0.013 0 0
C_13655652829_1507064152_0 J_13655652829 J_1507064152 183.45 0.013 0 0
C_1511238406_12999157124_0 J_1511238406 J_12999157124 50.12 0.013 0 0
C_1511238406_1511238410_0 J_1511238406 J_1511238410 149.93 0.013 0 0
C_1511238406_9928561082_0 J_1511238406 J_9928561082 152.02 0.013 0 0
C_12999157124_12999157122_0 J_12999157124 J_12999157122 38.75 0.013 0 0
C_12999157124_12999157125_0 J_12999157124 J_12999157125 92.29 0.013 0 0
C_12999157124_1511238406_0 J_12999157124 J_1511238406 50.12 0.013 0 0
C_9928561082_13807649550_0 J_9928561082 J_13807649550 31.12 0.013 0 0
C_9928561082_9928561083_0 J_9928561082 J_9928561083 37.84 0.013 0 0
C_9928561082_1511238406_0 J_9928561082 J_1511238406 152.02 0.013 0 0
C_6901363516_251106545_0 J_6901363516 J_251106545 48.66 0.013 0 0
C_6901363516_6901363518_0 J_6901363516 J_6901363518 68.37 0.013 0 0
C_4458722643_1514989618_0 J_4458722643 J_1514989618 23.44 0.013 0 0
C_4458722643_7138383899_0 J_4458722643 J_7138383899 40.37 0.013 0 0
C_4458722643_7138383902_0 J_4458722643 J_7138383902 75.82 0.013 0 0
C_4458722689_7453315717_0 J_4458722689 J_7453315717 41.18 0.013 0 0
C_4458722689_1514989618_0 J_4458722689 J_1514989618 20.75 0.013 0 0
C_4458722689_6194091031_0 J_4458722689 J_6194091031 34.86 0.013 0 0
C_11015173157_1514989656_0 J_11015173157 J_1514989656 6.67 0.013 0 0
C_11015173157_1514989637_0 J_11015173157 J_1514989637 59.36 0.013 0 0
C_11015173157_1514989684_0 J_11015173157 J_1514989684 71.71 0.013 0 0
C_1514989656_11015173157_0 J_1514989656 J_11015173157 6.67 0.013 0 0
C_1514989656_7453315306_0 J_1514989656 J_7453315306 24.70 0.013 0 0
C_1514989656_7453315718_0 J_1514989656 J_7453315718 37.34 0.013 0 0
C_7453315306_7453315307_0 J_7453315306 J_7453315307 35.81 0.013 0 0
C_7453315306_1514989656_0 J_7453315306 J_1514989656 24.70 0.013 0 0
C_7453315306_7138383899_0 J_7453315306 J_7138383899 31.56 0.013 0 0
C_7453315718_1514989656_0 J_7453315718 J_1514989656 37.34 0.013 0 0
C_7452673917_5283343745_0 J_7452673917 J_5283343745 32.86 0.013 0 0
C_7452673917_1514989684_0 J_7452673917 J_1514989684 35.60 0.013 0 0
C_7452673917_11021648177_0 J_7452673917 J_11021648177 31.66 0.013 0 0
C_1514989685_7452673911_0 J_1514989685 J_7452673911 97.32 0.013 0 0
C_9901111715_1368801653_0 J_9901111715 J_1368801653 16.64 0.013 0 0
C_9901111715_9901111716_0 J_9901111715 J_9901111716 66.39 0.013 0 0
C_1558993988_1558993902_0 J_1558993988 J_1558993902 47.75 0.013 0 0
C_1558993939_10209123011_0 J_1558993939 J_10209123011 34.24 0.013 0 0
C_1558993939_6142293179_0 J_1558993939 J_6142293179 59.90 0.013 0 0
C_1558993939_1558993906_0 J_1558993939 J_1558993906 7.13 0.013 0 0
C_7298289310_1558993906_0 J_7298289310 J_1558993906 15.73 0.013 0 0
C_7298289310_1558994002_0 J_7298289310 J_1558994002 52.17 0.013 0 0
C_7298289310_7298289314_0 J_7298289310 J_7298289314 67.85 0.013 0 0
C_1558993929_1558994010_0 J_1558993929 J_1558994010 7.95 0.013 0 0
C_1558993929_11397404812_0 J_1558993929 J_11397404812 137.24 0.013 0 0
C_1558993929_1558993961_0 J_1558993929 J_1558993961 73.56 0.013 0 0
C_1558994010_1558993929_0 J_1558994010 J_1558993929 7.95 0.013 0 0
C_1558994010_11397404814_0 J_1558994010 J_11397404814 30.02 0.013 0 0
C_1558994010_11045649363_0 J_1558994010 J_11045649363 64.48 0.013 0 0
C_11397404812_1558993929_0 J_11397404812 J_1558993929 137.24 0.013 0 0
C_1558993961_11397404821_0 J_1558993961 J_11397404821 36.96 0.013 0 0
C_1558993961_11045649363_0 J_1558993961 J_11045649363 37.11 0.013 0 0
C_1558993961_1558993929_0 J_1558993961 J_1558993929 73.56 0.013 0 0
C_1558993961_11045649364_0 J_1558993961 J_11045649364 146.42 0.013 0 0
C_1558993933_7298289189_0 J_1558993933 J_7298289189 61.21 0.013 0 0
C_1558993933_12244701790_0 J_1558993933 J_12244701790 41.95 0.013 0 0
C_1558993933_11397404821_0 J_1558993933 J_11397404821 192.17 0.013 0 0
C_7298289189_11028823357_0 J_7298289189 J_11028823357 27.53 0.013 0 0
C_7298289189_1558993933_0 J_7298289189 J_1558993933 61.21 0.013 0 0
C_7298289189_7298289244_0 J_7298289189 J_7298289244 461.35 0.013 0 0
C_12244701790_1558993933_0 J_12244701790 J_1558993933 41.95 0.013 0 0
C_12244701790_11045649364_0 J_12244701790 J_11045649364 35.73 0.013 0 0
C_12244701790_11397404821_0 J_12244701790 J_11397404821 152.62 0.013 0 0
C_12244701790_11397404823_0 J_12244701790 J_11397404823 85.80 0.013 0 0
C_11397404821_1558993961_0 J_11397404821 J_1558993961 36.96 0.013 0 0
C_11397404821_1558993933_0 J_11397404821 J_1558993933 192.17 0.013 0 0
C_11397404821_12244701790_0 J_11397404821 J_12244701790 152.62 0.013 0 0
C_10209123011_1558993939_0 J_10209123011 J_1558993939 34.24 0.013 0 0
C_10209123011_10209123012_0 J_10209123011 J_10209123012 39.42 0.013 0 0
C_10209123011_11397593720_0 J_10209123011 J_11397593720 71.66 0.013 0 0
C_6142293179_1558993939_0 J_6142293179 J_1558993939 59.90 0.013 0 0
C_6142293179_1558994055_0 J_6142293179 J_1558994055 40.50 0.013 0 0
C_6142293179_7291167515_0 J_6142293179 J_7291167515 29.82 0.013 0 0
C_1558993942_12196464672_0 J_1558993942 J_12196464672 28.69 0.013 0 0
C_1558993942_11397593732_0 J_1558993942 J_11397593732 55.31 0.013 0 0
C_1558993942_7175603121_0 J_1558993942 J_7175603121 49.48 0.013 0 0
C_12196464672_7175594108_0 J_12196464672 J_7175594108 50.74 0.013 0 0
C_12196464672_1558993942_0 J_12196464672 J_1558993942 28.69 0.013 0 0
C_12196464672_12196464673_0 J_12196464672 J_12196464673 47.53 0.013 0 0
C_11397593732_1558993942_0 J_11397593732 J_1558993942 55.31 0.013 0 0
C_11397593732_11397593733_0 J_11397593732 J_11397593733 147.33 0.013 0 0
C_11397593732_11176392352_0 J_11397593732 J_11176392352 58.92 0.013 0 0
C_7175603121_7291147464_0 J_7175603121 J_7291147464 89.69 0.013 0 0
C_7175603121_1558993942_0 J_7175603121 J_1558993942 49.48 0.013 0 0
C_7175603121_11397632762_0 J_7175603121 J_11397632762 86.41 0.013 0 0
C_10991915618_1558993992_0 J_10991915618 J_1558993992 42.77 0.013 0 0
C_10991915618_10991915619_0 J_10991915618 J_10991915619 43.65 0.013 0 0
C_10991915618_1558993952_0 J_10991915618 J_1558993952 73.36 0.013 0 0
C_1558993960_12151901678_0 J_1558993960 J_12151901678 13.53 0.013 0 0
C_1558993960_7175594106_0 J_1558993960 J_7175594106 32.17 0.013 0 0
C_1558993960_7175594101_0 J_1558993960 J_7175594101 193.82 0.013 0 0
C_12151901678_7291147457_0 J_12151901678 J_7291147457 27.41 0.013 0 0
C_12151901678_1558993960_0 J_12151901678 J_1558993960 13.53 0.013 0 0
C_12151901678_12151901679_0 J_12151901678 J_12151901679 79.64 0.013 0 0
C_7175594106_1558993960_0 J_7175594106 J_1558993960 32.17 0.013 0 0
C_7175594106_7175594108_0 J_7175594106 J_7175594108 30.04 0.013 0 0
C_7175594106_7175594101_0 J_7175594106 J_7175594101 168.14 0.013 0 0
C_7175594101_7175594106_0 J_7175594101 J_7175594106 168.14 0.013 0 0
C_7175594101_7175594108_0 J_7175594101 J_7175594108 192.33 0.013 0 0
C_7175594101_1558993960_0 J_7175594101 J_1558993960 193.82 0.013 0 0
C_11045649363_11397404813_0 J_11045649363 J_11397404813 32.40 0.013 0 0
C_11045649363_1558993961_0 J_11045649363 J_1558993961 37.11 0.013 0 0
C_11045649363_1558994010_0 J_11045649363 J_1558994010 64.48 0.013 0 0
C_11045649363_11045649360_0 J_11045649363 J_11045649360 147.34 0.013 0 0
C_11045649364_11397404822_0 J_11045649364 J_11397404822 30.90 0.013 0 0
C_11045649364_12244701790_0 J_11045649364 J_12244701790 35.73 0.013 0 0
C_11045649364_11045649360_0 J_11045649364 J_11045649360 35.75 0.013 0 0
C_11045649364_1558993961_0 J_11045649364 J_1558993961 146.42 0.013 0 0
C_7101732727_1558993985_0 J_7101732727 J_1558993985 34.57 0.013 0 0
C_7101732727_7101732730_0 J_7101732727 J_7101732730 75.55 0.013 0 0
C_7101732727_7101732731_0 J_7101732727 J_7101732731 30.56 0.013 0 0
C_7101732710_1558993985_0 J_7101732710 J_1558993985 146.81 0.013 0 0
C_1558993992_10991915618_0 J_1558993992 J_10991915618 42.77 0.013 0 0
C_7101732723_1558994002_0 J_7101732723 J_1558994002 8.74 0.013 0 0
C_7101732723_7140718119_0 J_7101732723 J_7140718119 25.89 0.013 0 0
C_7101732723_7101732711_0 J_7101732723 J_7101732711 161.49 0.013 0 0
C_1558994009_1558994055_0 J_1558994009 J_1558994055 76.54 0.013 0 0
C_1558994055_7101732724_0 J_1558994055 J_7101732724 35.20 0.013 0 0
C_1558994055_1558994009_0 J_1558994055 J_1558994009 76.54 0.013 0 0
C_1558994055_6142293179_0 J_1558994055 J_6142293179 40.50 0.013 0 0
C_11397404814_1558994010_0 J_11397404814 J_1558994010 30.02 0.013 0 0
C_11397404814_7291147457_0 J_11397404814 J_7291147457 27.04 0.013 0 0
C_11397404814_12151901633_0 J_11397404814 J_12151901633 162.78 0.013 0 0
C_11397404814_11397404813_0 J_11397404814 J_11397404813 66.00 0.013 0 0
C_1558994024_10978638722_0 J_1558994024 J_10978638722 32.34 0.013 0 0
C_10978638722_1558994025_0 J_10978638722 J_1558994025 14.89 0.013 0 0
C_10978638722_10978638724_0 J_10978638722 J_10978638724 76.91 0.013 0 0
C_1558994025_9681688971_0 J_1558994025 J_9681688971 13.56 0.013 0 0
C_1558994025_1558994047_0 J_1558994025 J_1558994047 81.11 0.013 0 0
C_1558994047_1558994025_0 J_1558994047 J_1558994025 81.11 0.013 0 0
C_10978640856_9900960143_0 J_10978640856 J_9900960143 35.31 0.013 0 0
C_10978640856_10978640858_0 J_10978640856 J_10978640858 44.81 0.013 0 0
C_7291167618_7291167619_0 J_7291167618 J_7291167619 41.17 0.013 0 0
C_7291167618_7291167617_0 J_7291167618 J_7291167617 65.24 0.013 0 0
C_7291167618_1585741084_0 J_7291167618 J_1585741084 75.40 0.013 0 0
C_1589223971_7291167555_0 J_1589223971 J_7291167555 111.04 0.013 0 0
C_1590229329_1590229386_0 J_1590229329 J_1590229386 38.45 0.013 0 0
C_1590229523_1590229362_0 J_1590229523 J_1590229362 77.05 0.013 0 0
C_1590229591_1590229489_0 J_1590229591 J_1590229489 82.50 0.013 0 0
C_1605954172_1605954206_0 J_1605954172 J_1605954206 27.11 0.013 0 0
C_1605954172_1605954220_0 J_1605954172 J_1605954220 40.92 0.013 0 0
C_1605954172_1605954141_0 J_1605954172 J_1605954141 71.10 0.013 0 0
C_1605954220_1605954172_0 J_1605954220 J_1605954172 40.92 0.013 0 0
C_1605954220_1605954215_0 J_1605954220 J_1605954215 25.98 0.013 0 0
C_1605954220_1605954141_0 J_1605954220 J_1605954141 111.48 0.013 0 0
C_1605954168_1605954178_0 J_1605954168 J_1605954178 85.92 0.013 0 0
C_1605954178_5281842556_0 J_1605954178 J_5281842556 7.12 0.013 0 0
C_1605954178_11375356861_0 J_1605954178 J_11375356861 21.77 0.013 0 0
C_1605954178_1605954168_0 J_1605954178 J_1605954168 85.92 0.013 0 0
C_1605954206_11375356861_0 J_1605954206 J_11375356861 22.15 0.013 0 0
C_1605954206_1605954172_0 J_1605954206 J_1605954172 27.11 0.013 0 0
C_1605954206_1605954184_0 J_1605954206 J_1605954184 131.14 0.013 0 0
C_11375356861_1605954178_0 J_11375356861 J_1605954178 21.77 0.013 0 0
C_11375356861_1605954206_0 J_11375356861 J_1605954206 22.15 0.013 0 0
C_11375356861_5281842556_0 J_11375356861 J_5281842556 128.19 0.013 0 0
C_1605954179_7466456019_0 J_1605954179 J_7466456019 40.15 0.013 0 0
C_1605954179_1605954184_0 J_1605954179 J_1605954184 92.05 0.013 0 0
C_1605954179_1605954215_0 J_1605954179 J_1605954215 131.02 0.013 0 0
C_1605954179_11169596337_0 J_1605954179 J_11169596337 58.90 0.013 0 0
C_7466456019_1605954179_0 J_7466456019 J_1605954179 40.15 0.013 0 0
C_1605954215_1605954220_0 J_1605954215 J_1605954220 25.98 0.013 0 0
C_1605954215_1605954179_0 J_1605954215 J_1605954179 131.02 0.013 0 0
C_1605954215_1605954226_0 J_1605954215 J_1605954226 484.64 0.013 0 0
C_11169596337_1605954179_0 J_11169596337 J_1605954179 58.90 0.013 0 0
C_7291147477_1631443235_0 J_7291147477 J_1631443235 67.40 0.013 0 0
C_1633904682_1633904785_0 J_1633904682 J_1633904785 31.68 0.013 0 0
C_1633904682_7465449566_0 J_1633904682 J_7465449566 216.64 0.013 0 0
C_1633904682_6620856876_0 J_1633904682 J_6620856876 192.44 0.013 0 0
C_1633904785_1633904682_0 J_1633904785 J_1633904682 31.68 0.013 0 0
C_1633904785_7465449557_0 J_1633904785 J_7465449557 40.35 0.013 0 0
C_1633904785_13152322515_0 J_1633904785 J_13152322515 48.56 0.013 0 0
C_7465449566_7465449567_0 J_7465449566 J_7465449567 40.25 0.013 0 0
C_7465449566_1633904727_0 J_7465449566 J_1633904727 129.97 0.013 0 0
C_7465449566_1633904682_0 J_7465449566 J_1633904682 216.64 0.013 0 0
C_1633904727_13152307780_0 J_1633904727 J_13152307780 3.02 0.013 0 0
C_1633904727_7465449566_0 J_1633904727 J_7465449566 129.97 0.013 0 0
C_13152307780_1633904727_0 J_13152307780 J_1633904727 3.02 0.013 0 0
C_13152307780_13152307781_0 J_13152307780 J_13152307781 52.35 0.013 0 0
C_10232936572_1633904753_0 J_10232936572 J_1633904753 70.16 0.013 0 0
C_1633904764_7465449561_0 J_1633904764 J_7465449561 38.98 0.013 0 0
C_1633904764_7465449565_0 J_1633904764 J_7465449565 32.21 0.013 0 0
C_1633904764_7465449562_0 J_1633904764 J_7465449562 98.64 0.013 0 0
C_7465449561_7465449559_0 J_7465449561 J_7465449559 36.15 0.013 0 0
C_7465449561_1633904764_0 J_7465449561 J_1633904764 38.98 0.013 0 0
C_7465449561_7465449560_0 J_7465449561 J_7465449560 94.57 0.013 0 0
C_7465449565_1633904764_0 J_7465449565 J_1633904764 32.21 0.013 0 0
C_7465449565_7465449564_0 J_7465449565 J_7465449564 102.11 0.013 0 0
C_7465449565_7465449567_0 J_7465449565 J_7465449567 31.16 0.013 0 0
C_7465449562_1633904764_0 J_7465449562 J_1633904764 98.64 0.013 0 0
C_7465449557_1633904785_0 J_7465449557 J_1633904785 40.35 0.013 0 0
C_7465449557_7465449556_0 J_7465449557 J_7465449556 55.47 0.013 0 0
C_7465449557_7465449559_0 J_7465449557 J_7465449559 33.19 0.013 0 0
C_13152322515_7465449546_0 J_13152322515 J_7465449546 55.93 0.013 0 0
C_13152322515_1633904785_0 J_13152322515 J_1633904785 48.56 0.013 0 0
C_13152322515_11438132731_0 J_13152322515 J_11438132731 107.83 0.013 0 0
C_1633904819_7465393573_0 J_1633904819 J_7465393573 20.15 0.013 0 0
C_1633904819_7263113742_0 J_1633904819 J_7263113742 46.02 0.013 0 0
C_1633904819_11002858225_0 J_1633904819 J_11002858225 168.84 0.013 0 0
C_7465393573_1633904819_0 J_7465393573 J_1633904819 20.15 0.013 0 0
C_7465393573_7465393572_0 J_7465393573 J_7465393572 222.29 0.013 0 0
C_7263113742_1633904819_0 J_7263113742 J_1633904819 46.02 0.013 0 0
C_7263113742_7263113741_0 J_7263113742 J_7263113741 197.69 0.013 0 0
C_7263113742_7465393579_0 J_7263113742 J_7465393579 145.51 0.013 0 0
C_11002858225_1633904819_0 J_11002858225 J_1633904819 168.84 0.013 0 0
C_1634931522_1634931847_0 J_1634931522 J_1634931847 102.96 0.013 0 0
C_1634931847_1634931522_0 J_1634931847 J_1634931522 102.96 0.013 0 0
C_1634931847_2066388564_0 J_1634931847 J_2066388564 28.54 0.013 0 0
C_1634931847_12393621582_0 J_1634931847 J_12393621582 66.07 0.013 0 0
C_1634931610_1634931733_0 J_1634931610 J_1634931733 50.75 0.013 0 0
C_7298289286_1634931711_0 J_7298289286 J_1634931711 18.89 0.013 0 0
C_10044811669_10044811670_0 J_10044811669 J_10044811670 9.62 0.013 0 0
C_10044811669_1634931733_0 J_10044811669 J_1634931733 39.51 0.013 0 0
C_10044811669_11002587524_0 J_10044811669 J_11002587524 28.23 0.013 0 0
C_1634931831_7298289272_0 J_1634931831 J_7298289272 30.84 0.013 0 0
C_1634931831_11003036767_0 J_1634931831 J_11003036767 82.92 0.013 0 0
C_1634931831_1634931868_0 J_1634931831 J_1634931868 160.79 0.013 0 0
C_11003036767_12206473568_0 J_11003036767 J_12206473568 26.83 0.013 0 0
C_11003036767_11003036768_0 J_11003036767 J_11003036768 21.77 0.013 0 0
C_11003036767_1634931831_0 J_11003036767 J_1634931831 82.92 0.013 0 0
C_1634931868_1634931831_0 J_1634931868 J_1634931831 160.79 0.013 0 0
C_12393621582_14072070989_0 J_12393621582 J_14072070989 19.26 0.013 0 0
C_12393621582_1634931847_0 J_12393621582 J_1634931847 66.07 0.013 0 0
C_12393621582_12393621581_0 J_12393621582 J_12393621581 89.70 0.013 0 0
C_5281842568_5281842567_0 J_5281842568 J_5281842567 69.51 0.013 0 0
C_5281842568_1634932079_0 J_5281842568 J_1634932079 3.29 0.013 0 0
C_5281842568_7101760810_0 J_5281842568 J_7101760810 20.98 0.013 0 0
C_5281842566_5281842565_0 J_5281842566 J_5281842565 32.05 0.013 0 0
C_5281842566_1634932079_0 J_5281842566 J_1634932079 57.24 0.013 0 0
C_5281842566_7101760800_0 J_5281842566 J_7101760800 18.76 0.013 0 0
C_1634963569_11414136196_0 J_1634963569 J_11414136196 19.33 0.013 0 0
C_1697942242_5281842584_0 J_1697942242 J_5281842584 11.93 0.013 0 0
C_1697942242_5281842576_0 J_1697942242 J_5281842576 184.55 0.013 0 0
C_5281842584_6911835054_0 J_5281842584 J_6911835054 9.36 0.013 0 0
C_5281842584_5281842574_0 J_5281842584 J_5281842574 152.52 0.013 0 0
C_5281842576_1697942242_0 J_5281842576 J_1697942242 184.55 0.013 0 0
C_1701004555_1697942242_0 J_1701004555 J_1697942242 76.92 0.013 0 0
C_1701004555_1701004552_0 J_1701004555 J_1701004552 8.83 0.013 0 0
C_1701004555_13098366974_0 J_1701004555 J_13098366974 166.09 0.013 0 0
C_13098366974_11397388905_0 J_13098366974 J_11397388905 15.30 0.013 0 0
C_13098366974_13098366975_0 J_13098366974 J_13098366975 71.43 0.013 0 0
C_13098366974_1701004555_0 J_13098366974 J_1701004555 166.09 0.013 0 0
C_1718788929_1718789013_0 J_1718788929 J_1718789013 52.48 0.013 0 0
C_1718788929_10277100421_0 J_1718788929 J_10277100421 44.75 0.013 0 0
C_1718788929_1718789067_0 J_1718788929 J_1718789067 29.39 0.013 0 0
C_10277100421_1718788929_0 J_10277100421 J_1718788929 44.75 0.013 0 0
C_10277100421_10277100422_0 J_10277100421 J_10277100422 28.72 0.013 0 0
C_10277100421_10277100419_0 J_10277100421 J_10277100419 14.33 0.013 0 0
C_1718789067_1718788929_0 J_1718789067 J_1718788929 29.39 0.013 0 0
C_1718788930_11182447927_0 J_1718788930 J_11182447927 21.02 0.013 0 0
C_3649031394_4315977113_0 J_3649031394 J_4315977113 34.05 0.013 0 0
C_3649031394_1718789013_0 J_3649031394 J_1718789013 148.25 0.013 0 0
C_3649031394_3649031405_0 J_3649031394 J_3649031405 106.99 0.013 0 0
C_1759857345_2987147432_0 J_1759857345 J_2987147432 18.15 0.013 0 0
C_1759857345_7138383916_0 J_1759857345 J_7138383916 33.81 0.013 0 0
C_1759857345_6182547032_0 J_1759857345 J_6182547032 62.49 0.013 0 0
C_2987147432_1759857345_0 J_2987147432 J_1759857345 18.15 0.013 0 0
C_2987147432_2987149133_0 J_2987147432 J_2987149133 31.30 0.013 0 0
C_2987147432_2987147429_0 J_2987147432 J_2987147429 233.54 0.013 0 0
C_1770465751_1770465756_0 J_1770465751 J_1770465756 44.86 0.013 0 0
C_1770465753_7466386830_0 J_1770465753 J_7466386830 52.53 0.013 0 0
C_7298295682_7298295681_0 J_7298295682 J_7298295681 39.99 0.013 0 0
C_7298295682_7291167499_0 J_7298295682 J_7291167499 54.46 0.013 0 0
C_7298295682_1852671167_0 J_7298295682 J_1852671167 108.77 0.013 0 0
C_13041011663_13041011662_0 J_13041011663 J_13041011662 89.15 0.013 0 0
C_13041011663_2048245856_0 J_13041011663 J_2048245856 36.92 0.013 0 0
C_13041011663_13041011665_0 J_13041011663 J_13041011665 84.73 0.013 0 0
C_2048245859_13041011665_0 J_2048245859 J_13041011665 29.17 0.013 0 0
C_2048245859_11002607129_0 J_2048245859 J_11002607129 10.70 0.013 0 0
C_2048245859_2048245857_0 J_2048245859 J_2048245857 414.64 0.013 0 0
C_13041011665_2048245859_0 J_13041011665 J_2048245859 29.17 0.013 0 0
C_13041011665_13041011664_0 J_13041011665 J_13041011664 38.17 0.013 0 0
C_13041011665_13041011663_0 J_13041011665 J_13041011663 84.73 0.013 0 0
C_11002607129_11002607131_0 J_11002607129 J_11002607131 2.12 0.013 0 0
C_11002607129_2048245859_0 J_11002607129 J_2048245859 10.70 0.013 0 0
C_11002607129_11002607130_0 J_11002607129 J_11002607130 38.81 0.013 0 0
C_11056570933_2066388579_0 J_11056570933 J_2066388579 84.75 0.013 0 0
C_2376774391_11434512223_0 J_2376774391 J_11434512223 4.30 0.013 0 0
C_2376774391_2225133157_0 J_2376774391 J_2225133157 53.78 0.013 0 0
C_2376774391_7453315632_0 J_2376774391 J_7453315632 140.74 0.013 0 0
C_11434512223_2376774391_0 J_11434512223 J_2376774391 4.30 0.013 0 0
C_11434512223_2225133166_0 J_11434512223 J_2225133166 149.44 0.013 0 0
C_11434512223_11434512224_0 J_11434512223 J_11434512224 67.66 0.013 0 0
C_2225133167_11015226548_0 J_2225133167 J_11015226548 16.04 0.013 0 0
C_2225133167_2225133173_0 J_2225133167 J_2225133173 117.97 0.013 0 0
C_2225133167_11015226552_0 J_2225133167 J_11015226552 75.17 0.013 0 0
C_2225133173_2225133175_0 J_2225133173 J_2225133175 35.67 0.013 0 0
C_2225133173_9700074499_0 J_2225133173 J_9700074499 26.32 0.013 0 0
C_2225133173_2225133167_0 J_2225133173 J_2225133167 117.97 0.013 0 0
C_2225133175_2225133173_0 J_2225133175 J_2225133173 35.67 0.013 0 0
C_9700074499_2225133173_0 J_9700074499 J_2225133173 26.32 0.013 0 0
C_2225133195_2225133212_0 J_2225133195 J_2225133212 106.77 0.013 0 0
C_2225133195_5283547061_0 J_2225133195 J_5283547061 40.32 0.013 0 0
C_2225133195_7147088714_0 J_2225133195 J_7147088714 15.00 0.013 0 0
C_2225133212_2225133195_0 J_2225133212 J_2225133195 106.77 0.013 0 0
C_7147088714_2225133195_0 J_7147088714 J_2225133195 15.00 0.013 0 0
C_7147088714_7147088707_0 J_7147088714 J_7147088707 139.21 0.013 0 0
C_7147088714_2225133199_0 J_7147088714 J_2225133199 21.47 0.013 0 0
C_2225133199_7147042929_0 J_2225133199 J_7147042929 29.67 0.013 0 0
C_2225133199_12698276487_0 J_2225133199 J_12698276487 188.75 0.013 0 0
C_2225133199_7147088714_0 J_2225133199 J_7147088714 21.47 0.013 0 0
C_12698276487_12698276488_0 J_12698276487 J_12698276488 44.78 0.013 0 0
C_12698276487_13645830500_0 J_12698276487 J_13645830500 149.18 0.013 0 0
C_12698276487_2225133199_0 J_12698276487 J_2225133199 188.75 0.013 0 0
C_11021676037_2225133203_0 J_11021676037 J_2225133203 9.91 0.013 0 0
C_11021676037_2225133206_0 J_11021676037 J_2225133206 48.21 0.013 0 0
C_11021676037_11021676040_0 J_11021676037 J_11021676040 78.43 0.013 0 0
C_13645830539_2225133203_0 J_13645830539 J_2225133203 354.65 0.013 0 0
C_7453315614_11021755952_0 J_7453315614 J_11021755952 59.62 0.013 0 0
C_7453315614_2225133206_0 J_7453315614 J_2225133206 50.10 0.013 0 0
C_7453315614_7453315618_0 J_7453315614 J_7453315618 44.18 0.013 0 0
C_2225133295_2225133216_0 J_2225133295 J_2225133216 195.62 0.013 0 0
C_2225133273_11021755952_0 J_2225133273 J_11021755952 55.20 0.013 0 0
C_11021755952_7453315614_0 J_11021755952 J_7453315614 59.62 0.013 0 0
C_11021755952_11021755953_0 J_11021755952 J_11021755953 31.75 0.013 0 0
C_11021755952_2225133273_0 J_11021755952 J_2225133273 55.20 0.013 0 0
C_7453315392_7453315393_0 J_7453315392 J_7453315393 63.26 0.013 0 0
C_7453315392_2225133290_0 J_7453315392 J_2225133290 44.38 0.013 0 0
C_7453315392_6749434106_0 J_7453315392 J_6749434106 41.15 0.013 0 0
C_2225133309_2225133290_0 J_2225133309 J_2225133290 174.72 0.013 0 0
C_2225133523_6753110523_0 J_2225133523 J_6753110523 32.38 0.013 0 0
C_2225133523_6753110522_0 J_2225133523 J_6753110522 181.68 0.013 0 0
C_6753110523_2225133523_0 J_6753110523 J_2225133523 32.38 0.013 0 0
C_6753110523_2225133530_0 J_6753110523 J_2225133530 30.40 0.013 0 0
C_6753110523_6753110522_0 J_6753110523 J_6753110522 150.10 0.013 0 0
C_6753110522_6753110523_0 J_6753110522 J_6753110523 150.10 0.013 0 0
C_6753110522_6753110521_0 J_6753110522 J_6753110521 93.14 0.013 0 0
C_6753110522_2225133523_0 J_6753110522 J_2225133523 181.68 0.013 0 0
C_2225133530_6753110523_0 J_2225133530 J_6753110523 30.40 0.013 0 0
C_2225133530_6753110521_0 J_2225133530 J_6753110521 91.96 0.013 0 0
C_2225133530_7263139539_0 J_2225133530 J_7263139539 34.74 0.013 0 0
C_6753110521_2225133530_0 J_6753110521 J_2225133530 91.96 0.013 0 0
C_6753110521_11438167760_0 J_6753110521 J_11438167760 34.51 0.013 0 0
C_6753110521_6753110522_0 J_6753110521 J_6753110522 93.14 0.013 0 0
C_7263139539_2225133544_0 J_7263139539 J_2225133544 26.77 0.013 0 0
C_7263139539_2225133530_0 J_7263139539 J_2225133530 34.74 0.013 0 0
C_7263139539_7263139538_0 J_7263139539 J_7263139538 174.84 0.013 0 0
C_2225133551_11438298620_0 J_2225133551 J_11438298620 48.18 0.013 0 0
C_2225133551_2225133544_0 J_2225133551 J_2225133544 60.08 0.013 0 0
C_2225133551_7465456797_0 J_2225133551 J_7465456797 122.57 0.013 0 0
C_11438298620_2225133551_0 J_11438298620 J_2225133551 48.18 0.013 0 0
C_11438298620_7465456798_0 J_11438298620 J_7465456798 10.09 0.013 0 0
C_11438298620_11438298623_0 J_11438298620 J_11438298623 55.46 0.013 0 0
C_7465456797_2225133551_0 J_7465456797 J_2225133551 122.57 0.013 0 0
C_7465456797_2225133603_0 J_7465456797 J_2225133603 70.53 0.013 0 0
C_7465456797_7465456788_0 J_7465456797 J_7465456788 99.14 0.013 0 0
C_9982048431_6755551379_0 J_9982048431 J_6755551379 33.67 0.013 0 0
C_9982048431_2225133701_0 J_9982048431 J_2225133701 7.34 0.013 0 0
C_9982048431_11021428239_0 J_9982048431 J_11021428239 31.81 0.013 0 0
C_6748996026_2225133701_0 J_6748996026 J_2225133701 121.81 0.013 0 0
C_11846741326_11409454649_0 J_11846741326 J_11409454649 7.11 0.013 0 0
C_11846741326_12961466032_0 J_11846741326 J_12961466032 95.94 0.013 0 0
C_7453315632_2376774391_0 J_7453315632 J_2376774391 140.74 0.013 0 0
C_7453315632_2376774439_0 J_7453315632 J_2376774439 320.03 0.013 0 0
C_7453315632_7453315432_0 J_7453315632 J_7453315432 152.03 0.013 0 0
C_2376774417_13720252591_0 J_2376774417 J_13720252591 294.24 0.013 0 0
C_2376774417_2376774439_0 J_2376774417 J_2376774439 260.37 0.013 0 0
C_2376774417_11027638241_0 J_2376774417 J_11027638241 621.03 0.013 0 0
C_13720252591_7147090917_0 J_13720252591 J_7147090917 178.62 0.013 0 0
C_13720252591_2376774417_0 J_13720252591 J_2376774417 294.24 0.013 0 0
C_13720252591_7147090938_0 J_13720252591 J_7147090938 191.93 0.013 0 0
C_12141933090_2486617761_0 J_12141933090 J_2486617761 28.21 0.013 0 0
C_12141933090_1371807542_0 J_12141933090 J_1371807542 28.73 0.013 0 0
C_13656305932_2486617762_0 J_13656305932 J_2486617762 10.67 0.013 0 0
C_13656305932_2486617761_0 J_13656305932 J_2486617761 49.54 0.013 0 0
C_13656305932_13656305937_0 J_13656305932 J_13656305937 102.29 0.013 0 0
C_2508149195_7465456843_0 J_2508149195 J_7465456843 75.05 0.013 0 0
C_2578488068_13607317196_0 J_2578488068 J_13607317196 25.90 0.013 0 0
C_2578488068_13607317191_0 J_2578488068 J_13607317191 34.68 0.013 0 0
C_2578488068_2578488069_0 J_2578488068 J_2578488069 69.69 0.013 0 0
C_13607317196_13607317195_0 J_13607317196 J_13607317195 36.01 0.013 0 0
C_13607317196_7187815406_0 J_13607317196 J_7187815406 23.89 0.013 0 0
C_13607317196_2578488068_0 J_13607317196 J_2578488068 25.90 0.013 0 0
C_13607317191_2578488068_0 J_13607317191 J_2578488068 34.68 0.013 0 0
C_2578488069_2578488068_0 J_2578488069 J_2578488068 69.69 0.013 0 0
C_2623258606_6043189067_0 J_2623258606 J_6043189067 10.99 0.013 0 0
C_2987147429_2987148124_0 J_2987147429 J_2987148124 12.79 0.013 0 0
C_2987147429_2987147432_0 J_2987147429 J_2987147432 233.54 0.013 0 0
C_2987147429_7465614187_0 J_2987147429 J_7465614187 110.71 0.013 0 0
C_2987148124_2987148123_0 J_2987148124 J_2987148123 72.94 0.013 0 0
C_2987148124_2987147429_0 J_2987148124 J_2987147429 12.79 0.013 0 0
C_7465614187_7465614189_0 J_7465614187 J_7465614189 48.74 0.013 0 0
C_7465614187_2987147429_0 J_7465614187 J_2987147429 110.71 0.013 0 0
C_2987149133_7465614189_0 J_2987149133 J_7465614189 71.83 0.013 0 0
C_2987149133_2987147432_0 J_2987149133 J_2987147432 31.30 0.013 0 0
C_2987148123_2987148124_0 J_2987148123 J_2987148124 72.94 0.013 0 0
C_2987148123_11885834678_0 J_2987148123 J_11885834678 46.22 0.013 0 0
C_11885834678_2987148123_0 J_11885834678 J_2987148123 46.22 0.013 0 0
C_11885834678_11021603481_0 J_11885834678 J_11021603481 24.15 0.013 0 0
C_7465614189_7465614187_0 J_7465614189 J_7465614187 48.74 0.013 0 0
C_7465614189_2987149133_0 J_7465614189 J_2987149133 71.83 0.013 0 0
C_3300742565_251105285_0 J_3300742565 J_251105285 148.40 0.013 0 0
C_3324730976_3324726802_0 J_3324730976 J_3324726802 50.91 0.013 0 0
C_3528034343_6748996035_0 J_3528034343 J_6748996035 21.30 0.013 0 0
C_3528034343_9700303070_0 J_3528034343 J_9700303070 105.20 0.013 0 0
C_3528034343_11434710893_0 J_3528034343 J_11434710893 131.04 0.013 0 0
C_6748996035_3528034343_0 J_6748996035 J_3528034343 21.30 0.013 0 0
C_6748996035_9700303071_0 J_6748996035 J_9700303071 125.35 0.013 0 0
C_6748996035_6748996039_0 J_6748996035 J_6748996039 187.22 0.013 0 0
C_6748996035_7465456856_0 J_6748996035 J_7465456856 76.55 0.013 0 0
C_9700303070_7465577044_0 J_9700303070 J_7465577044 20.30 0.013 0 0
C_9700303070_3528034343_0 J_9700303070 J_3528034343 105.20 0.013 0 0
C_3545987056_11003046329_0 J_3545987056 J_11003046329 60.60 0.013 0 0
C_3545987056_11003034318_0 J_3545987056 J_11003034318 39.37 0.013 0 0
C_3545987056_3545987055_0 J_3545987056 J_3545987055 226.23 0.013 0 0
C_11003046329_3545987056_0 J_11003046329 J_3545987056 60.60 0.013 0 0
C_11003034318_3545987056_0 J_11003034318 J_3545987056 39.37 0.013 0 0
C_11003034318_7466375661_0 J_11003034318 J_7466375661 11.72 0.013 0 0
C_11003034318_11003037132_0 J_11003034318 J_11003037132 39.92 0.013 0 0
C_3649025375_3649025396_0 J_3649025375 J_3649025396 28.00 0.013 0 0
C_3649025381_10266837398_0 J_3649025381 J_10266837398 43.04 0.013 0 0
C_13655652480_5281842537_0 J_13655652480 J_5281842537 27.08 0.013 0 0
C_13655652480_13655652478_0 J_13655652480 J_13655652478 27.99 0.013 0 0
C_13655652480_3649025393_0 J_13655652480 J_3649025393 103.17 0.013 0 0
C_3649031405_3649031394_0 J_3649031405 J_3649031394 106.99 0.013 0 0
C_7147090917_3713858821_0 J_7147090917 J_3713858821 67.77 0.013 0 0
C_7147090917_13720252591_0 J_7147090917 J_13720252591 178.62 0.013 0 0
C_7147090917_7147090938_0 J_7147090917 J_7147090938 327.56 0.013 0 0
C_13715446989_11934696264_0 J_13715446989 J_11934696264 45.86 0.013 0 0
C_13715446989_7453315654_0 J_13715446989 J_7453315654 136.79 0.013 0 0
C_13715446989_3713858821_0 J_13715446989 J_3713858821 451.70 0.013 0 0
C_13064733100_13064736701_0 J_13064733100 J_13064736701 13.29 0.013 0 0
C_13064733100_4204925699_0 J_13064733100 J_4204925699 83.60 0.013 0 0
C_13064733100_4204925700_0 J_13064733100 J_4204925700 121.64 0.013 0 0
C_4458722522_4458722721_0 J_4458722522 J_4458722721 157.07 0.013 0 0
C_4458722522_4458722823_0 J_4458722522 J_4458722823 119.82 0.013 0 0
C_4458722522_4458722559_0 J_4458722522 J_4458722559 196.56 0.013 0 0
C_4458722721_4458722559_0 J_4458722721 J_4458722559 74.06 0.013 0 0
C_4458722721_4458722522_0 J_4458722721 J_4458722522 157.07 0.013 0 0
C_4458722721_4458722731_0 J_4458722721 J_4458722731 126.60 0.013 0 0
C_4458722823_4458722824_0 J_4458722823 J_4458722824 77.16 0.013 0 0
C_4458722823_4458722731_0 J_4458722823 J_4458722731 162.13 0.013 0 0
C_4458722823_4458722522_0 J_4458722823 J_4458722522 119.82 0.013 0 0
C_4458722559_4458722721_0 J_4458722559 J_4458722721 74.06 0.013 0 0
C_4458722559_4458722522_0 J_4458722559 J_4458722522 196.56 0.013 0 0
C_4458722559_13041584929_0 J_4458722559 J_13041584929 130.45 0.013 0 0
C_4458722553_4458722615_0 J_4458722553 J_4458722615 76.54 0.013 0 0
C_4458722553_7452673912_0 J_4458722553 J_7452673912 32.67 0.013 0 0
C_4458722553_7453315599_0 J_4458722553 J_7453315599 78.62 0.013 0 0
C_7452673912_4458722553_0 J_7452673912 J_4458722553 32.67 0.013 0 0
C_7452673912_4458722572_0 J_7452673912 J_4458722572 35.04 0.013 0 0
C_7452673912_7452673914_0 J_7452673912 J_7452673914 87.99 0.013 0 0
C_7453315599_7453315600_0 J_7453315599 J_7453315600 7.19 0.013 0 0
C_7453315599_7453315305_0 J_7453315599 J_7453315305 28.39 0.013 0 0
C_7453315599_4458722553_0 J_7453315599 J_4458722553 78.62 0.013 0 0
C_13041584929_10991357069_0 J_13041584929 J_10991357069 10.61 0.013 0 0
C_13041584929_13041584928_0 J_13041584929 J_13041584928 36.01 0.013 0 0
C_13041584929_4458722559_0 J_13041584929 J_4458722559 130.45 0.013 0 0
C_7138383902_4458722596_0 J_7138383902 J_4458722596 22.07 0.013 0 0
C_7138383902_7138383900_0 J_7138383902 J_7138383900 28.23 0.013 0 0
C_7138383902_4458722643_0 J_7138383902 J_4458722643 75.82 0.013 0 0
C_11419446866_11419446867_0 J_11419446866 J_11419446867 77.55 0.013 0 0
C_11419446866_4458722596_0 J_11419446866 J_4458722596 89.07 0.013 0 0
C_11419446866_7138383879_0 J_11419446866 J_7138383879 46.79 0.013 0 0
C_11015153616_11015153617_0 J_11015153616 J_11015153617 89.15 0.013 0 0
C_11015153616_4458722615_0 J_11015153616 J_4458722615 222.92 0.013 0 0
C_11015153616_4458722633_0 J_11015153616 J_4458722633 75.30 0.013 0 0
C_4458722622_4458722731_0 J_4458722622 J_4458722731 66.15 0.013 0 0
C_4458722622_11007663483_0 J_4458722622 J_11007663483 121.31 0.013 0 0
C_4458722622_4458722675_0 J_4458722622 J_4458722675 64.20 0.013 0 0
C_4458722731_11812221683_0 J_4458722731 J_11812221683 7.80 0.013 0 0
C_4458722731_4458722622_0 J_4458722731 J_4458722622 66.15 0.013 0 0
C_4458722731_4458722823_0 J_4458722731 J_4458722823 162.13 0.013 0 0
C_4458722731_4458722721_0 J_4458722731 J_4458722721 126.60 0.013 0 0
C_11007663483_4458722824_0 J_11007663483 J_4458722824 13.97 0.013 0 0
C_11007663483_4458722622_0 J_11007663483 J_4458722622 121.31 0.013 0 0
C_11007663483_11007663477_0 J_11007663483 J_11007663477 126.75 0.013 0 0
C_4458722675_11007663477_0 J_4458722675 J_11007663477 36.52 0.013 0 0
C_4458722675_4458722757_0 J_4458722675 J_4458722757 31.82 0.013 0 0
C_4458722675_4458722622_0 J_4458722675 J_4458722622 64.20 0.013 0 0
C_4458722626_7453315580_0 J_4458722626 J_7453315580 60.30 0.013 0 0
C_4458722626_7453315717_0 J_4458722626 J_7453315717 108.10 0.013 0 0
C_4458722626_7453315577_0 J_4458722626 J_7453315577 184.65 0.013 0 0
C_4458722626_12690216001_0 J_4458722626 J_12690216001 109.12 0.013 0 0
C_7453315580_4458722626_0 J_7453315580 J_4458722626 60.30 0.013 0 0
C_7453315717_4458722689_0 J_7453315717 J_4458722689 41.18 0.013 0 0
C_7453315717_4458722626_0 J_7453315717 J_4458722626 108.10 0.013 0 0
C_7453315717_7453315387_0 J_7453315717 J_7453315387 107.30 0.013 0 0
C_7453315577_4458722626_0 J_7453315577 J_4458722626 184.65 0.013 0 0
C_12690216001_4458722626_0 J_12690216001 J_4458722626 109.12 0.013 0 0
C_12690216001_6194091030_0 J_12690216001 J_6194091030 132.41 0.013 0 0
C_12690216001_12697947081_0 J_12690216001 J_12697947081 69.71 0.013 0 0
C_4458722633_11015153616_0 J_4458722633 J_11015153616 75.30 0.013 0 0
C_4458722633_10593463232_0 J_4458722633 J_10593463232 74.37 0.013 0 0
C_4458722633_7263140430_0 J_4458722633 J_7263140430 154.73 0.013 0 0
C_10593463232_10593463233_0 J_10593463232 J_10593463233 53.25 0.013 0 0
C_10593463232_4458722633_0 J_10593463232 J_4458722633 74.37 0.013 0 0
C_10593463232_10593463228_0 J_10593463232 J_10593463228 66.21 0.013 0 0
C_7263140430_7452673901_0 J_7263140430 J_7452673901 38.84 0.013 0 0
C_7263140430_7452673906_0 J_7263140430 J_7452673906 42.63 0.013 0 0
C_7263140430_4458722633_0 J_7263140430 J_4458722633 154.73 0.013 0 0
C_7138383899_7138383900_0 J_7138383899 J_7138383900 69.51 0.013 0 0
C_7138383899_4458722643_0 J_7138383899 J_4458722643 40.37 0.013 0 0
C_7138383899_7453315306_0 J_7138383899 J_7453315306 31.56 0.013 0 0
C_11007663477_4458722675_0 J_11007663477 J_4458722675 36.52 0.013 0 0
C_11007663477_4458722815_0 J_11007663477 J_4458722815 66.00 0.013 0 0
C_11007663477_11007663483_0 J_11007663477 J_11007663483 126.75 0.013 0 0
C_11812221683_6620856859_0 J_11812221683 J_6620856859 9.50 0.013 0 0
C_11812221683_4458722731_0 J_11812221683 J_4458722731 7.80 0.013 0 0
C_11812221683_11812221695_0 J_11812221683 J_11812221695 118.82 0.013 0 0
C_4458722815_11007663477_0 J_4458722815 J_11007663477 66.00 0.013 0 0
C_4458722815_4458722824_0 J_4458722815 J_4458722824 72.14 0.013 0 0
C_4458722815_6141750279_0 J_4458722815 J_6141750279 57.36 0.013 0 0
C_4458722824_11007663483_0 J_4458722824 J_11007663483 13.97 0.013 0 0
C_4458722824_4458722815_0 J_4458722824 J_4458722815 72.14 0.013 0 0
C_4458722824_4458722823_0 J_4458722824 J_4458722823 77.16 0.013 0 0
C_6141750279_4458722815_0 J_6141750279 J_4458722815 57.36 0.013 0 0
C_4730103806_4730103816_0 J_4730103806 J_4730103816 123.18 0.013 0 0
C_4730103806_4730103812_0 J_4730103806 J_4730103812 438.80 0.013 0 0
C_4730103806_9866129294_0 J_4730103806 J_9866129294 141.66 0.013 0 0
C_4730103816_4730103806_0 J_4730103816 J_4730103806 123.18 0.013 0 0
C_9866129294_4730103806_0 J_9866129294 J_4730103806 141.66 0.013 0 0
C_5281691576_5281691577_0 J_5281691576 J_5281691577 134.38 0.013 0 0
C_5281691577_5281842544_0 J_5281691577 J_5281842544 32.44 0.013 0 0
C_5281691577_5281691576_0 J_5281691577 J_5281691576 134.38 0.013 0 0
C_5281691577_13123179217_0 J_5281691577 J_13123179217 608.50 0.013 0 0
C_5281842544_5281691577_0 J_5281842544 J_5281691577 32.44 0.013 0 0
C_5281842544_5281691579_0 J_5281842544 J_5281691579 33.95 0.013 0 0
C_5281842544_5281842542_0 J_5281842544 J_5281842542 182.97 0.013 0 0
C_5281727083_7465614252_0 J_5281727083 J_7465614252 155.94 0.013 0 0
C_5281727083_6152762851_0 J_5281727083 J_6152762851 55.92 0.013 0 0
C_5281727083_5281727082_0 J_5281727083 J_5281727082 56.26 0.013 0 0
C_7465614252_7465614250_0 J_7465614252 J_7465614250 23.78 0.013 0 0
C_7465614252_7465614253_0 J_7465614252 J_7465614253 66.29 0.013 0 0
C_7465614252_5281727083_0 J_7465614252 J_5281727083 155.94 0.013 0 0
C_5281839990_5281839991_0 J_5281839990 J_5281839991 95.03 0.013 0 0
C_5281840000_6902150001_0 J_5281840000 J_6902150001 6.64 0.013 0 0
C_5281840000_6901280942_0 J_5281840000 J_6901280942 281.29 0.013 0 0
C_6902150001_5281840000_0 J_6902150001 J_5281840000 6.64 0.013 0 0
C_6902150001_5281840005_0 J_6902150001 J_5281840005 129.36 0.013 0 0
C_11197334457_11197334456_0 J_11197334457 J_11197334456 9.15 0.013 0 0
C_11197334457_10222738375_0 J_11197334457 J_10222738375 295.54 0.013 0 0
C_5281840017_5281840018_0 J_5281840017 J_5281840018 25.09 0.013 0 0
C_5281842521_5281840020_0 J_5281842521 J_5281840020 90.68 0.013 0 0
C_5281842521_5281842523_0 J_5281842521 J_5281842523 108.41 0.013 0 0
C_5281842521_13656305937_0 J_5281842521 J_13656305937 92.78 0.013 0 0
C_6168910216_11021479822_0 J_6168910216 J_11021479822 31.17 0.013 0 0
C_6168910216_7452673924_0 J_6168910216 J_7452673924 35.16 0.013 0 0
C_6168910216_5281840020_0 J_6168910216 J_5281840020 109.18 0.013 0 0
C_6168910216_5281842523_0 J_6168910216 J_5281842523 65.44 0.013 0 0
C_5281842523_6168910216_0 J_5281842523 J_6168910216 65.44 0.013 0 0
C_5281842523_11021479825_0 J_5281842523 J_11021479825 34.11 0.013 0 0
C_5281842523_5281842521_0 J_5281842523 J_5281842521 108.41 0.013 0 0
C_13656305937_11027638242_0 J_13656305937 J_11027638242 8.21 0.013 0 0
C_13656305937_13656305932_0 J_13656305937 J_13656305932 102.29 0.013 0 0
C_13656305937_5281842521_0 J_13656305937 J_5281842521 92.78 0.013 0 0
C_5283547058_5281842526_0 J_5283547058 J_5281842526 54.33 0.013 0 0
C_13667500182_5281842526_0 J_13667500182 J_5281842526 117.04 0.013 0 0
C_5281842528_10991440018_0 J_5281842528 J_10991440018 42.09 0.013 0 0
C_5281842531_5283343739_0 J_5281842531 J_5283343739 51.74 0.013 0 0
C_5281842531_5283343737_0 J_5281842531 J_5283343737 17.45 0.013 0 0
C_5281842531_13652990523_0 J_5281842531 J_13652990523 89.79 0.013 0 0
C_5283343737_5283343736_0 J_5283343737 J_5283343736 81.87 0.013 0 0
C_5283343737_5281842531_0 J_5283343737 J_5281842531 17.45 0.013 0 0
C_5283343737_5281842533_0 J_5283343737 J_5281842533 15.58 0.013 0 0
C_13652990523_5281842531_0 J_13652990523 J_5281842531 89.79 0.013 0 0
C_5281842532_5281842533_0 J_5281842532 J_5281842533 55.16 0.013 0 0
C_5281842534_5281842535_0 J_5281842534 J_5281842535 29.49 0.013 0 0
C_5281842537_5281842536_0 J_5281842537 J_5281842536 41.45 0.013 0 0
C_5281842537_13655652480_0 J_5281842537 J_13655652480 27.08 0.013 0 0
C_5281842537_5281842535_0 J_5281842537 J_5281842535 22.21 0.013 0 0
C_5281842536_5281842537_0 J_5281842536 J_5281842537 41.45 0.013 0 0
C_5281842538_5281842539_0 J_5281842538 J_5281842539 48.41 0.013 0 0
C_10991832380_13717751723_0 J_10991832380 J_13717751723 96.61 0.013 0 0
C_10991832380_10760860021_0 J_10991832380 J_10760860021 100.42 0.013 0 0
C_10991832380_5281842539_0 J_10991832380 J_5281842539 239.00 0.013 0 0
C_5281842557_5281842558_0 J_5281842557 J_5281842558 76.57 0.013 0 0
C_5281842559_5281842560_0 J_5281842559 J_5281842560 140.67 0.013 0 0
C_5281842560_5281842562_0 J_5281842560 J_5281842562 14.01 0.013 0 0
C_5281842560_5281842559_0 J_5281842560 J_5281842559 140.67 0.013 0 0
C_5281842560_13811792564_0 J_5281842560 J_13811792564 138.65 0.013 0 0
C_5281842561_5281842562_0 J_5281842561 J_5281842562 42.81 0.013 0 0
C_5281842563_5281842564_0 J_5281842563 J_5281842564 98.48 0.013 0 0
C_5281842564_10017481089_0 J_5281842564 J_10017481089 4.84 0.013 0 0
C_5281842564_5281842563_0 J_5281842564 J_5281842563 98.48 0.013 0 0
C_5281842564_9870086764_0 J_5281842564 J_9870086764 41.34 0.013 0 0
C_5281842565_5281842566_0 J_5281842565 J_5281842566 32.05 0.013 0 0
C_7101760800_7101760804_0 J_7101760800 J_7101760804 20.24 0.013 0 0
C_7101760800_11135547223_0 J_7101760800 J_11135547223 19.64 0.013 0 0
C_7101760800_5281842566_0 J_7101760800 J_5281842566 18.76 0.013 0 0
C_5281842569_6911835051_0 J_5281842569 J_6911835051 125.68 0.013 0 0
C_6911835051_1368117350_0 J_6911835051 J_1368117350 25.58 0.013 0 0
C_6911835051_5281842569_0 J_6911835051 J_5281842569 125.68 0.013 0 0
C_5281842571_6911835052_0 J_5281842571 J_6911835052 145.24 0.013 0 0
C_6911835052_6911835051_0 J_6911835052 J_6911835051 15.35 0.013 0 0
C_6911835052_5281842571_0 J_6911835052 J_5281842571 145.24 0.013 0 0
C_5281842573_6911835053_0 J_5281842573 J_6911835053 160.56 0.013 0 0
C_6911835053_6911835052_0 J_6911835053 J_6911835052 17.27 0.013 0 0
C_6911835053_5281842573_0 J_6911835053 J_5281842573 160.56 0.013 0 0
C_5281842574_5281842584_0 J_5281842574 J_5281842584 152.52 0.013 0 0
C_5281842575_6911835054_0 J_5281842575 J_6911835054 168.47 0.013 0 0
C_6911835054_6911835053_0 J_6911835054 J_6911835053 15.43 0.013 0 0
C_6911835054_5281842575_0 J_6911835054 J_5281842575 168.47 0.013 0 0
C_5283343736_5283343737_0 J_5283343736 J_5283343737 81.87 0.013 0 0
C_11395872426_5283343739_0 J_11395872426 J_5283343739 154.97 0.013 0 0
C_5283343744_11015173154_0 J_5283343744 J_11015173154 29.55 0.013 0 0
C_5283343744_11436636897_0 J_5283343744 J_11436636897 13.15 0.013 0 0
C_5283343744_5283343745_0 J_5283343744 J_5283343745 35.68 0.013 0 0
C_11015173154_5283343744_0 J_11015173154 J_5283343744 29.55 0.013 0 0
C_11436636897_11436636898_0 J_11436636897 J_11436636898 21.55 0.013 0 0
C_11436636897_7138383900_0 J_11436636897 J_7138383900 69.78 0.013 0 0
C_11436636897_5283343744_0 J_11436636897 J_5283343744 13.15 0.013 0 0
C_5283343748_5283343749_0 J_5283343748 J_5283343749 59.68 0.013 0 0
C_13127664189_5283343749_0 J_13127664189 J_5283343749 10.59 0.013 0 0
C_13127664189_5283343751_0 J_13127664189 J_5283343751 30.60 0.013 0 0
C_13127664189_13127664193_0 J_13127664189 J_13127664193 195.95 0.013 0 0
C_5283343750_5283343751_0 J_5283343750 J_5283343751 117.30 0.013 0 0
C_5283343751_5283343753_0 J_5283343751 J_5283343753 27.08 0.013 0 0
C_5283343751_5283343750_0 J_5283343751 J_5283343750 117.30 0.013 0 0
C_5283343751_13127664189_0 J_5283343751 J_13127664189 30.60 0.013 0 0
C_5283343753_7453315624_0 J_5283343753 J_7453315624 5.71 0.013 0 0
C_5283343753_5283343751_0 J_5283343753 J_5283343751 27.08 0.013 0 0
C_5283343753_13667499252_0 J_5283343753 J_13667499252 116.19 0.013 0 0
C_13667499252_5283343753_0 J_13667499252 J_5283343753 116.19 0.013 0 0
C_10687414876_5283547059_0 J_10687414876 J_5283547059 202.66 0.013 0 0
C_7147063884_5283547061_0 J_7147063884 J_5283547061 274.20 0.013 0 0
C_7334211452_5485647354_0 J_7334211452 J_5485647354 43.42 0.013 0 0
C_5928041457_10017481076_0 J_5928041457 J_10017481076 25.61 0.013 0 0
C_5928041457_7466386861_0 J_5928041457 J_7466386861 45.20 0.013 0 0
C_5928041457_12155167315_0 J_5928041457 J_12155167315 52.68 0.013 0 0
C_10017481076_7466386860_0 J_10017481076 J_7466386860 18.33 0.013 0 0
C_10017481076_5928041457_0 J_10017481076 J_5928041457 25.61 0.013 0 0
C_10017481076_10017481077_0 J_10017481076 J_10017481077 55.25 0.013 0 0
C_7466386861_5928041457_0 J_7466386861 J_5928041457 45.20 0.013 0 0
C_12155167315_12155167316_0 J_12155167315 J_12155167316 7.43 0.013 0 0
C_12155167315_5928041457_0 J_12155167315 J_5928041457 52.68 0.013 0 0
C_12155167315_12155167311_0 J_12155167315 J_12155167311 49.39 0.013 0 0
C_10038712736_10578097581_0 J_10038712736 J_10578097581 59.32 0.013 0 0
C_10038712736_11003016445_0 J_10038712736 J_11003016445 98.45 0.013 0 0
C_10038712736_5931305385_0 J_10038712736 J_5931305385 15.88 0.013 0 0
C_5931305386_9867253967_0 J_5931305386 J_9867253967 31.01 0.013 0 0
C_5931305386_12180012795_0 J_5931305386 J_12180012795 24.02 0.013 0 0
C_5931305386_13130886315_0 J_5931305386 J_13130886315 35.22 0.013 0 0
C_12180012795_5931305386_0 J_12180012795 J_5931305386 24.02 0.013 0 0
C_6043189063_12196521966_0 J_6043189063 J_12196521966 53.24 0.013 0 0
C_12196521966_12196521967_0 J_12196521966 J_12196521967 2.92 0.013 0 0
C_12196521966_6043189067_0 J_12196521966 J_6043189067 45.50 0.013 0 0
C_12196521966_6043189063_0 J_12196521966 J_6043189063 53.24 0.013 0 0
C_6137413125_11363958154_0 J_6137413125 J_11363958154 37.36 0.013 0 0
C_6137413125_11397801173_0 J_6137413125 J_11397801173 30.22 0.013 0 0
C_6137413125_11021437035_0 J_6137413125 J_11021437035 131.58 0.013 0 0
C_11363958154_6137413125_0 J_11363958154 J_6137413125 37.36 0.013 0 0
C_11363958154_10820231133_0 J_11363958154 J_10820231133 34.92 0.013 0 0
C_11363958154_6894243326_0 J_11363958154 J_6894243326 44.40 0.013 0 0
C_11363958154_6894243328_0 J_11363958154 J_6894243328 30.39 0.013 0 0
C_11397801173_6137413125_0 J_11397801173 J_6137413125 30.22 0.013 0 0
C_7291167515_6142293179_0 J_7291167515 J_6142293179 29.82 0.013 0 0
C_7291167515_7291167520_0 J_7291167515 J_7291167520 84.74 0.013 0 0
C_7291167515_11045649360_0 J_7291167515 J_11045649360 230.81 0.013 0 0
C_6142628590_6142628592_0 J_6142628590 J_6142628592 161.28 0.013 0 0
C_6168910212_7452673924_0 J_6168910212 J_7452673924 22.56 0.013 0 0
C_6168910212_6168910213_0 J_6168910212 J_6168910213 23.17 0.013 0 0
C_6168910212_6168910213_1 J_6168910212 J_6168910213 135.66 0.013 0 0
C_7452673924_6168910212_0 J_7452673924 J_6168910212 22.56 0.013 0 0
C_7452673924_6168910216_0 J_7452673924 J_6168910216 35.16 0.013 0 0
C_7452673924_11015778368_0 J_7452673924 J_11015778368 104.66 0.013 0 0
C_6168910213_6168910212_0 J_6168910213 J_6168910212 23.17 0.013 0 0
C_6168910213_6168910212_1 J_6168910213 J_6168910212 135.66 0.013 0 0
C_6168910213_12185851902_0 J_6168910213 J_12185851902 19.16 0.013 0 0
C_12185851902_6168910213_0 J_12185851902 J_6168910213 19.16 0.013 0 0
C_11021479822_6168910216_0 J_11021479822 J_6168910216 31.17 0.013 0 0
C_11021479822_6182692049_0 J_11021479822 J_6182692049 69.39 0.013 0 0
C_11021479822_11021479825_0 J_11021479822 J_11021479825 55.26 0.013 0 0
C_6177428349_6177428350_0 J_6177428349 J_6177428350 114.91 0.013 0 0
C_9899714417_7453315583_0 J_9899714417 J_7453315583 28.77 0.013 0 0
C_9899714417_6177428350_0 J_9899714417 J_6177428350 11.99 0.013 0 0
C_9899714417_9899714418_0 J_9899714417 J_9899714418 95.67 0.013 0 0
C_11021465194_6182547032_0 J_11021465194 J_6182547032 25.38 0.013 0 0
C_11419448879_6182692049_0 J_11419448879 J_6182692049 41.90 0.013 0 0
C_11419448879_11419448880_0 J_11419448879 J_11419448880 42.48 0.013 0 0
C_11419448879_7452673921_0 J_11419448879 J_7452673921 28.55 0.013 0 0
C_10185513621_6182817159_0 J_10185513621 J_6182817159 28.11 0.013 0 0
C_10185513621_7291167499_0 J_10185513621 J_7291167499 25.03 0.013 0 0
C_11015706619_6193957625_0 J_11015706619 J_6193957625 44.35 0.013 0 0
C_13130422494_6193957625_0 J_13130422494 J_6193957625 20.45 0.013 0 0
C_6194091030_12690216001_0 J_6194091030 J_12690216001 132.41 0.013 0 0
C_6194091030_7452692540_0 J_6194091030 J_7452692540 102.57 0.013 0 0
C_6194091030_7452692538_0 J_6194091030 J_7452692538 43.40 0.013 0 0
C_7452692540_7452692541_0 J_7452692540 J_7452692541 59.57 0.013 0 0
C_7452692540_9700074501_0 J_7452692540 J_9700074501 83.84 0.013 0 0
C_7452692540_6194091030_0 J_7452692540 J_6194091030 102.57 0.013 0 0
C_7452692538_7452692537_0 J_7452692538 J_7452692537 92.63 0.013 0 0
C_7452692538_6194091030_0 J_7452692538 J_6194091030 43.40 0.013 0 0
C_7452692538_6194091031_0 J_7452692538 J_6194091031 37.80 0.013 0 0
C_6194238913_13130332397_0 J_6194238913 J_13130332397 38.68 0.013 0 0
C_13130332397_6194238913_0 J_13130332397 J_6194238913 38.68 0.013 0 0
C_13130332397_13127790410_0 J_13130332397 J_13127790410 31.86 0.013 0 0
C_13130332397_13130332396_0 J_13130332397 J_13130332396 34.64 0.013 0 0
C_6194238914_13127790412_0 J_6194238914 J_13127790412 41.23 0.013 0 0
C_6194238914_13654038433_0 J_6194238914 J_13654038433 154.94 0.013 0 0
C_6194238914_7147090948_0 J_6194238914 J_7147090948 48.82 0.013 0 0
C_13127790412_13127790410_0 J_13127790412 J_13127790410 33.46 0.013 0 0
C_13127790412_6194238914_0 J_13127790412 J_6194238914 41.23 0.013 0 0
C_13127790412_13127790411_0 J_13127790412 J_13127790411 39.56 0.013 0 0
C_7147090948_7453315651_0 J_7147090948 J_7453315651 155.08 0.013 0 0
C_7147090948_6194238914_0 J_7147090948 J_6194238914 48.82 0.013 0 0
C_7147090948_7147090939_0 J_7147090948 J_7147090939 223.48 0.013 0 0
C_6617328935_12635196524_0 J_6617328935 J_12635196524 7.63 0.013 0 0
C_6617328935_13076932658_0 J_6617328935 J_13076932658 29.94 0.013 0 0
C_12635196524_6617328935_0 J_12635196524 J_6617328935 7.63 0.013 0 0
C_12635196524_6620856876_0 J_12635196524 J_6620856876 97.59 0.013 0 0
C_12635196524_12260767760_0 J_12635196524 J_12260767760 385.89 0.013 0 0
C_13076932658_13076932657_0 J_13076932658 J_13076932657 10.90 0.013 0 0
C_13076932658_13076932659_0 J_13076932658 J_13076932659 8.52 0.013 0 0
C_13076932658_7465393525_0 J_13076932658 J_7465393525 364.76 0.013 0 0
C_6617328955_11812221673_0 J_6617328955 J_11812221673 274.74 0.013 0 0
C_6617328955_11007664986_0 J_6617328955 J_11007664986 152.14 0.013 0 0
C_11812221673_13076932659_0 J_11812221673 J_13076932659 11.54 0.013 0 0
C_11812221673_13076932657_0 J_11812221673 J_13076932657 8.56 0.013 0 0
C_11007664986_11007664987_0 J_11007664986 J_11007664987 45.66 0.013 0 0
C_11007664986_11812221689_0 J_11007664986 J_11812221689 31.24 0.013 0 0
C_11007664986_6617328955_0 J_11007664986 J_6617328955 152.14 0.013 0 0
C_6617329698_11009607007_0 J_6617329698 J_11009607007 9.46 0.013 0 0
C_6617329698_6617329699_0 J_6617329698 J_6617329699 96.02 0.013 0 0
C_6617329698_6617329692_0 J_6617329698 J_6617329692 17.77 0.013 0 0
C_11009607007_6617329698_0 J_11009607007 J_6617329698 9.46 0.013 0 0
C_6617329699_6617329698_0 J_6617329699 J_6617329698 96.02 0.013 0 0
C_6617329732_11812221689_0 J_6617329732 J_11812221689 14.76 0.013 0 0
C_6617329732_11812221684_0 J_6617329732 J_11812221684 8.57 0.013 0 0
C_11812221689_11812221684_0 J_11812221689 J_11812221684 16.28 0.013 0 0
C_11812221689_11007664986_0 J_11812221689 J_11007664986 31.24 0.013 0 0
C_11812221684_12765390074_0 J_11812221684 J_12765390074 10.52 0.013 0 0
C_6620856859_11812221683_0 J_6620856859 J_11812221683 9.50 0.013 0 0
C_6620856859_11812221682_0 J_6620856859 J_11812221682 58.40 0.013 0 0
C_11812221682_6617329732_0 J_11812221682 J_6617329732 10.97 0.013 0 0
C_10221065294_10221065289_0 J_10221065294 J_10221065289 10.20 0.013 0 0
C_10221065294_6632636571_0 J_10221065294 J_6632636571 101.71 0.013 0 0
C_6632652201_10076263537_0 J_6632652201 J_10076263537 831.67 0.013 0 0
C_10076263537_1198163774_0 J_10076263537 J_1198163774 185.79 0.013 0 0
C_10076263537_1198163774_1 J_10076263537 J_1198163774 196.86 0.013 0 0
C_6632652240_11041656612_0 J_6632652240 J_11041656612 373.58 0.013 0 0
C_11041656612_10574674451_0 J_11041656612 J_10574674451 27.60 0.013 0 0
C_11041656612_6901407760_0 J_11041656612 J_6901407760 245.90 0.013 0 0
C_6746682761_6894486324_0 J_6746682761 J_6894486324 182.64 0.013 0 0
C_6746682761_6746708992_0 J_6746682761 J_6746708992 49.24 0.013 0 0
C_6894486324_6894486323_0 J_6894486324 J_6894486323 182.44 0.013 0 0
C_6894486324_6894486323_1 J_6894486324 J_6894486323 194.32 0.013 0 0
C_6746708992_6746682761_0 J_6746708992 J_6746682761 18.39 0.013 0 0
C_6746708992_6746682761_1 J_6746708992 J_6746682761 49.24 0.013 0 0
C_9700303071_6748996035_0 J_9700303071 J_6748996035 125.35 0.013 0 0
C_6748996039_6748996042_0 J_6748996039 J_6748996042 15.20 0.013 0 0
C_6748996039_6748996035_0 J_6748996039 J_6748996035 187.22 0.013 0 0
C_6748996039_6748996040_0 J_6748996039 J_6748996040 72.98 0.013 0 0
C_7465456856_6748996035_0 J_7465456856 J_6748996035 76.55 0.013 0 0
C_6748996042_6748996039_0 J_6748996042 J_6748996039 15.20 0.013 0 0
C_6748996042_6748996044_0 J_6748996042 J_6748996044 24.44 0.013 0 0
C_6748996042_7465456851_0 J_6748996042 J_7465456851 66.31 0.013 0 0
C_6748996040_7465456851_0 J_6748996040 J_7465456851 24.26 0.013 0 0
C_6748996040_11409263307_0 J_6748996040 J_11409263307 62.01 0.013 0 0
C_6748996040_6748996039_0 J_6748996040 J_6748996039 72.98 0.013 0 0
C_7465456851_6748996040_0 J_7465456851 J_6748996040 24.26 0.013 0 0
C_7465456851_7465456850_0 J_7465456851 J_7465456850 60.71 0.013 0 0
C_7465456851_6748996042_0 J_7465456851 J_6748996042 66.31 0.013 0 0
C_11409263307_11409172856_0 J_11409263307 J_11409172856 40.17 0.013 0 0
C_11409263307_7465577043_0 J_11409263307 J_7465577043 34.77 0.013 0 0
C_11409263307_6748996040_0 J_11409263307 J_6748996040 62.01 0.013 0 0
C_6748996044_6748996043_0 J_6748996044 J_6748996043 106.15 0.013 0 0
C_6748996044_6748996042_0 J_6748996044 J_6748996042 24.44 0.013 0 0
C_6748996044_6748996075_0 J_6748996044 J_6748996075 33.61 0.013 0 0
C_6748996043_6748996044_0 J_6748996043 J_6748996044 106.15 0.013 0 0
C_6748996075_6748996044_0 J_6748996075 J_6748996044 33.61 0.013 0 0
C_6748996075_6748996048_0 J_6748996075 J_6748996048 32.11 0.013 0 0
C_6748996075_6748996045_0 J_6748996075 J_6748996045 133.57 0.013 0 0
C_6748996045_6748996075_0 J_6748996045 J_6748996075 133.57 0.013 0 0
C_6748996047_6748996048_0 J_6748996047 J_6748996048 167.90 0.013 0 0
C_6748996049_11944239451_0 J_6748996049 J_11944239451 62.74 0.013 0 0
C_6748996049_7465614139_0 J_6748996049 J_7465614139 198.52 0.013 0 0
C_11944239451_11944239436_0 J_11944239451 J_11944239436 45.74 0.013 0 0
C_11944239451_6748996049_0 J_11944239451 J_6748996049 62.74 0.013 0 0
C_11944239451_6901280942_0 J_11944239451 J_6901280942 567.66 0.013 0 0
C_7465614139_6748996049_0 J_7465614139 J_6748996049 198.52 0.013 0 0
C_7465614139_11409171825_0 J_7465614139 J_11409171825 500.43 0.013 0 0
C_7465614139_7465614144_0 J_7465614139 J_7465614144 72.75 0.013 0 0
C_6749434106_12185986689_0 J_6749434106 J_12185986689 17.40 0.013 0 0
C_6749434106_7453315392_0 J_6749434106 J_7453315392 41.15 0.013 0 0
C_6749434106_7453315312_0 J_6749434106 J_7453315312 79.85 0.013 0 0
C_6749434106_7452692536_0 J_6749434106 J_7452692536 238.00 0.013 0 0
C_12185986689_6749434106_0 J_12185986689 J_6749434106 17.40 0.013 0 0
C_7452692536_6749434106_0 J_7452692536 J_6749434106 238.00 0.013 0 0
C_11438167760_6753110521_0 J_11438167760 J_6753110521 34.51 0.013 0 0
C_11438167760_11438167761_0 J_11438167760 J_11438167761 56.40 0.013 0 0
C_11438167760_11438144606_0 J_11438167760 J_11438144606 27.95 0.013 0 0
C_6755551374_6755551377_0 J_6755551374 J_6755551377 187.94 0.013 0 0
C_6755551377_11409293349_0 J_6755551377 J_11409293349 28.57 0.013 0 0
C_6755551377_10687741979_0 J_6755551377 J_10687741979 161.26 0.013 0 0
C_6755551377_6755551374_0 J_6755551377 J_6755551374 187.94 0.013 0 0
C_11409293349_6755551377_0 J_11409293349 J_6755551377 28.57 0.013 0 0
C_11409293349_11409341814_0 J_11409293349 J_11409341814 29.60 0.013 0 0
C_11409293349_11409293348_0 J_11409293349 J_11409293348 63.89 0.013 0 0
C_10687741979_10687741977_0 J_10687741979 J_10687741977 36.82 0.013 0 0
C_10687741979_10687741978_0 J_10687741979 J_10687741978 40.15 0.013 0 0
C_10687741979_6755551377_0 J_10687741979 J_6755551377 161.26 0.013 0 0
C_6755551379_11409322630_0 J_6755551379 J_11409322630 30.04 0.013 0 0
C_6755551379_9982048431_0 J_6755551379 J_9982048431 33.67 0.013 0 0
C_6755551379_11409346234_0 J_6755551379 J_11409346234 18.52 0.013 0 0
C_11409322630_11409327905_0 J_11409322630 J_11409327905 30.85 0.013 0 0
C_11409322630_6755551379_0 J_11409322630 J_6755551379 30.04 0.013 0 0
C_11409322630_11409322629_0 J_11409322630 J_11409322629 21.78 0.013 0 0
C_11409346234_6755551379_0 J_11409346234 J_6755551379 18.52 0.013 0 0
C_6758593404_6758593405_0 J_6758593404 J_6758593405 180.34 0.013 0 0
C_6884970118_6884970119_0 J_6884970118 J_6884970119 104.46 0.013 0 0
C_6884970118_11197334456_0 J_6884970118 J_11197334456 83.76 0.013 0 0
C_6884970119_8935990994_0 J_6884970119 J_8935990994 191.00 0.013 0 0
C_11197334456_11197334455_0 J_11197334456 J_11197334455 8.53 0.013 0 0
C_11197334456_6884970119_0 J_11197334456 J_6884970119 37.79 0.013 0 0
C_8935990994_12161557849_0 J_8935990994 J_12161557849 15.88 0.013 0 0
C_8935990994_8935990993_0 J_8935990994 J_8935990993 11.69 0.013 0 0
C_6894243326_11363958154_0 J_6894243326 J_11363958154 44.40 0.013 0 0
C_6894243328_11363958154_0 J_6894243328 J_11363958154 30.39 0.013 0 0
C_6901276162_6901276163_0 J_6901276162 J_6901276163 83.14 0.013 0 0
C_11885820562_11885820563_0 J_11885820562 J_11885820563 8.91 0.013 0 0
C_11885820562_1384732910_0 J_11885820562 J_1384732910 67.73 0.013 0 0
C_6901363518_6901363517_0 J_6901363518 J_6901363517 40.01 0.013 0 0
C_6901363518_6901363519_0 J_6901363518 J_6901363519 50.28 0.013 0 0
C_6901363518_6901363516_0 J_6901363518 J_6901363516 68.37 0.013 0 0
C_6901363517_6901363518_0 J_6901363517 J_6901363518 40.01 0.013 0 0
C_6904168220_6904168225_0 J_6904168220 J_6904168225 129.78 0.013 0 0
C_6904168225_7453315400_0 J_6904168225 J_7453315400 18.68 0.013 0 0
C_6904168225_7453315398_0 J_6904168225 J_7453315398 36.11 0.013 0 0
C_6904168225_6904168220_0 J_6904168225 J_6904168220 129.78 0.013 0 0
C_7453315400_6904168225_0 J_7453315400 J_6904168225 18.68 0.013 0 0
C_7453315400_7453315401_0 J_7453315400 J_7453315401 87.25 0.013 0 0
C_7453315400_7138383911_0 J_7453315400 J_7138383911 64.49 0.013 0 0
C_7097657283_7097657282_0 J_7097657283 J_7097657282 32.30 0.013 0 0
C_7465393495_7097657282_0 J_7465393495 J_7097657282 37.01 0.013 0 0
C_11027804587_11027804585_0 J_11027804587 J_11027804585 26.20 0.013 0 0
C_11027804587_11027804588_0 J_11027804587 J_11027804588 20.04 0.013 0 0
C_11027804587_7101732711_0 J_11027804587 J_7101732711 33.88 0.013 0 0
C_7101732726_7101732724_0 J_7101732726 J_7101732724 32.78 0.013 0 0
C_7101732730_7101732727_0 J_7101732730 J_7101732727 75.55 0.013 0 0
C_7101732731_7298289306_0 J_7101732731 J_7298289306 70.70 0.013 0 0
C_7101732731_7101732735_0 J_7101732731 J_7101732735 86.66 0.013 0 0
C_7101732731_7101732727_0 J_7101732731 J_7101732727 30.56 0.013 0 0
C_7298289306_7101732731_0 J_7298289306 J_7101732731 70.70 0.013 0 0
C_7298289306_7298289308_0 J_7298289306 J_7298289308 31.07 0.013 0 0
C_7298289306_7298289307_0 J_7298289306 J_7298289307 82.80 0.013 0 0
C_7101732735_7101732731_0 J_7101732735 J_7101732731 86.66 0.013 0 0
C_7101760804_14066684771_0 J_7101760804 J_14066684771 23.40 0.013 0 0
C_7101760804_7101760800_0 J_7101760804 J_7101760800 20.24 0.013 0 0
C_7101760804_14066684791_0 J_7101760804 J_14066684791 58.87 0.013 0 0
C_14066684771_7101760804_0 J_14066684771 J_7101760804 23.40 0.013 0 0
C_14066684791_7101760804_0 J_14066684791 J_7101760804 58.87 0.013 0 0
C_7101760812_7101760810_0 J_7101760812 J_7101760810 37.16 0.013 0 0
C_7101760813_7101760816_0 J_7101760813 J_7101760816 56.28 0.013 0 0
C_7101760813_11002846646_0 J_7101760813 J_11002846646 46.98 0.013 0 0
C_7101760813_11002801404_0 J_7101760813 J_11002801404 58.41 0.013 0 0
C_7101760816_10038722876_0 J_7101760816 J_10038722876 79.22 0.013 0 0
C_7101760816_7101760813_0 J_7101760816 J_7101760813 56.28 0.013 0 0
C_7101760816_11002846647_0 J_7101760816 J_11002846647 36.56 0.013 0 0
C_10038722876_7298289268_0 J_10038722876 J_7298289268 27.33 0.013 0 0
C_10038722876_7101760816_0 J_10038722876 J_7101760816 79.22 0.013 0 0
C_10038722876_14066685118_0 J_10038722876 J_14066685118 35.34 0.013 0 0
C_7121386231_7121386221_0 J_7121386231 J_7121386221 72.96 0.013 0 0
C_10719511590_7137902395_0 J_10719511590 J_7137902395 168.29 0.013 0 0
C_7138383883_7138383898_0 J_7138383883 J_7138383898 126.17 0.013 0 0
C_7138383883_7138383879_0 J_7138383883 J_7138383879 58.93 0.013 0 0
C_7138383883_7453315631_0 J_7138383883 J_7453315631 54.37 0.013 0 0
C_7138383898_7138383883_0 J_7138383898 J_7138383883 126.17 0.013 0 0
C_7453315631_7138383883_0 J_7453315631 J_7138383883 54.37 0.013 0 0
C_7138383900_7138383899_0 J_7138383900 J_7138383899 69.51 0.013 0 0
C_7138383900_7138383902_0 J_7138383900 J_7138383902 28.23 0.013 0 0
C_7138383900_11436636897_0 J_7138383900 J_11436636897 69.78 0.013 0 0
C_7138383903_7138383906_0 J_7138383903 J_7138383906 231.64 0.013 0 0
C_7138383906_7465614223_0 J_7138383906 J_7465614223 46.98 0.013 0 0
C_7138383906_7138383911_0 J_7138383906 J_7138383911 69.58 0.013 0 0
C_7138383906_7138383903_0 J_7138383906 J_7138383903 231.64 0.013 0 0
C_7465614223_7465614228_0 J_7465614223 J_7465614228 5.76 0.013 0 0
C_7465614223_7138383906_0 J_7465614223 J_7138383906 46.98 0.013 0 0
C_7465614223_11002963424_0 J_7465614223 J_11002963424 252.77 0.013 0 0
C_7138383911_7138383906_0 J_7138383911 J_7138383906 69.58 0.013 0 0
C_7138383911_7453315400_0 J_7138383911 J_7453315400 64.49 0.013 0 0
C_7138383911_13149044768_0 J_7138383911 J_13149044768 154.06 0.013 0 0
C_13149044768_13149044767_0 J_13149044768 J_13149044767 19.38 0.013 0 0
C_13149044768_7138383911_0 J_13149044768 J_7138383911 154.06 0.013 0 0
C_13149044768_13149044766_0 J_13149044768 J_13149044766 50.84 0.013 0 0
C_7138383912_7138383916_0 J_7138383912 J_7138383916 70.15 0.013 0 0
C_7140718117_7140718119_0 J_7140718117 J_7140718119 69.61 0.013 0 0
C_7298289230_13097684026_0 J_7298289230 J_13097684026 12.85 0.013 0 0
C_7298289230_7298289193_0 J_7298289230 J_7298289193 67.77 0.013 0 0
C_7298289230_7140718121_0 J_7298289230 J_7140718121 19.13 0.013 0 0
C_7140718126_7140718128_0 J_7140718126 J_7140718128 45.94 0.013 0 0
C_7140718128_7140718126_0 J_7140718128 J_7140718126 45.94 0.013 0 0
C_7140718128_7140718132_0 J_7140718128 J_7140718132 11.97 0.013 0 0
C_7140718128_7298289210_0 J_7140718128 J_7298289210 76.28 0.013 0 0
C_7140718132_11397421981_0 J_7140718132 J_11397421981 38.05 0.013 0 0
C_7140718132_7298289211_0 J_7140718132 J_7298289211 38.26 0.013 0 0
C_7140718132_7140718128_0 J_7140718132 J_7140718128 11.97 0.013 0 0
C_11397421981_7140718132_0 J_11397421981 J_7140718132 38.05 0.013 0 0
C_7147042927_7147042929_0 J_7147042927 J_7147042929 110.31 0.013 0 0
C_7147088707_7147088714_0 J_7147088707 J_7147088714 139.21 0.013 0 0
C_7147090938_7147090939_0 J_7147090938 J_7147090939 9.46 0.013 0 0
C_7147090938_7147090917_0 J_7147090938 J_7147090917 327.56 0.013 0 0
C_7147090938_13720252591_0 J_7147090938 J_13720252591 191.93 0.013 0 0
C_7147090939_7147090938_0 J_7147090939 J_7147090938 9.46 0.013 0 0
C_7147090939_7453315650_0 J_7147090939 J_7453315650 100.16 0.013 0 0
C_7147090939_7147090948_0 J_7147090939 J_7147090948 223.48 0.013 0 0
C_7453315650_7147090939_0 J_7453315650 J_7147090939 100.16 0.013 0 0
C_7453315651_7147090948_0 J_7453315651 J_7147090948 155.08 0.013 0 0
C_7175594108_7175594106_0 J_7175594108 J_7175594106 30.04 0.013 0 0
C_7175594108_12196464672_0 J_7175594108 J_12196464672 50.74 0.013 0 0
C_7175594108_7175594101_0 J_7175594108 J_7175594101 192.33 0.013 0 0
C_7291147464_7291147465_0 J_7291147464 J_7291147465 148.83 0.013 0 0
C_7291147464_7175603121_0 J_7291147464 J_7175603121 89.69 0.013 0 0
C_11397632762_11397632765_0 J_11397632762 J_11397632765 10.67 0.013 0 0
C_11397632762_7175603121_0 J_11397632762 J_7175603121 86.41 0.013 0 0
C_7175614341_7175614342_0 J_7175614341 J_7175614342 67.08 0.013 0 0
C_7175614342_7175614341_0 J_7175614342 J_7175614341 67.08 0.013 0 0
C_7175614342_11077269487_0 J_7175614342 J_11077269487 18.26 0.013 0 0
C_7175614342_11397591498_0 J_7175614342 J_11397591498 86.13 0.013 0 0
C_11397591498_7291167504_0 J_11397591498 J_7291167504 119.12 0.013 0 0
C_11397591498_11397591499_0 J_11397591498 J_11397591499 76.34 0.013 0 0
C_11397591498_7175614342_0 J_11397591498 J_7175614342 86.13 0.013 0 0
C_7187815406_7298289291_0 J_7187815406 J_7298289291 66.20 0.013 0 0
C_7187815406_10222690300_0 J_7187815406 J_10222690300 66.99 0.013 0 0
C_7187815406_13607317196_0 J_7187815406 J_13607317196 23.89 0.013 0 0
C_7298289291_7298289295_0 J_7298289291 J_7298289295 21.19 0.013 0 0
C_7298289291_7187815406_0 J_7298289291 J_7187815406 66.20 0.013 0 0
C_7298289291_7298289292_0 J_7298289291 J_7298289292 71.97 0.013 0 0
C_10222690300_7187815406_0 J_10222690300 J_7187815406 66.99 0.013 0 0
C_10222690300_12696050651_0 J_10222690300 J_12696050651 53.47 0.013 0 0
C_7261406107_7261406108_0 J_7261406107 J_7261406108 142.71 0.013 0 0
C_7263113741_7263113742_0 J_7263113741 J_7263113742 197.69 0.013 0 0
C_7465393579_7465393578_0 J_7465393579 J_7465393578 155.49 0.013 0 0
C_7465393579_12260767760_0 J_7465393579 J_12260767760 8.67 0.013 0 0
C_7465393579_6617328935_0 J_7465393579 J_6617328935 388.27 0.013 0 0
C_7263139538_7263139539_0 J_7263139538 J_7263139539 174.84 0.013 0 0
C_7452673901_7452673897_0 J_7452673901 J_7452673897 39.34 0.013 0 0
C_7452673901_7263140430_0 J_7452673901 J_7263140430 38.84 0.013 0 0
C_7452673901_7452673900_0 J_7452673901 J_7452673900 113.81 0.013 0 0
C_7452673906_7452673899_0 J_7452673906 J_7452673899 71.35 0.013 0 0
C_7452673906_7263140430_0 J_7452673906 J_7263140430 42.63 0.013 0 0
C_7452673906_7452673902_0 J_7452673906 J_7452673902 91.17 0.013 0 0
C_7263140433_7452673908_0 J_7263140433 J_7452673908 153.53 0.013 0 0
C_7452673908_7263140433_0 J_7452673908 J_7263140433 153.53 0.013 0 0
C_7452673908_10991375325_0 J_7452673908 J_10991375325 31.31 0.013 0 0
C_7452673908_7452673907_0 J_7452673908 J_7452673907 76.25 0.013 0 0
C_7291147457_11397404814_0 J_7291147457 J_11397404814 27.04 0.013 0 0
C_7291147457_12151901678_0 J_7291147457 J_12151901678 27.41 0.013 0 0
C_7291147457_11045649359_0 J_7291147457 J_11045649359 66.55 0.013 0 0
C_11045649359_7291147457_0 J_11045649359 J_7291147457 66.55 0.013 0 0
C_11045649359_11397404813_0 J_11045649359 J_11397404813 24.83 0.013 0 0
C_11045649359_12151901679_0 J_11045649359 J_12151901679 14.76 0.013 0 0
C_7291147465_7291147464_0 J_7291147465 J_7291147464 148.83 0.013 0 0
C_7291147483_11021478367_0 J_7291147483 J_11021478367 50.47 0.013 0 0
C_7291147483_11021454465_0 J_7291147483 J_11021454465 40.55 0.013 0 0
C_7291147483_11306557823_0 J_7291147483 J_11306557823 41.45 0.013 0 0
C_11021454465_7291147483_0 J_11021454465 J_7291147483 40.55 0.013 0 0
C_11021454465_11121286748_0 J_11021454465 J_11121286748 30.93 0.013 0 0
C_11021454465_11021454466_0 J_11021454465 J_11021454466 39.54 0.013 0 0
C_11306557823_7291147483_0 J_11306557823 J_7291147483 41.45 0.013 0 0
C_7291167499_7291167500_0 J_7291167499 J_7291167500 132.03 0.013 0 0
C_7291167499_10185513621_0 J_7291167499 J_10185513621 25.03 0.013 0 0
C_7291167499_7298295682_0 J_7291167499 J_7298295682 54.46 0.013 0 0
C_7291167500_7291167499_0 J_7291167500 J_7291167499 132.03 0.013 0 0
C_7291167504_11397591498_0 J_7291167504 J_11397591498 119.12 0.013 0 0
C_7291167504_11397591500_0 J_7291167504 J_11397591500 14.50 0.013 0 0
C_11397591500_7291167504_0 J_11397591500 J_7291167504 14.50 0.013 0 0
C_7291167511_11176392352_0 J_7291167511 J_11176392352 85.83 0.013 0 0
C_11176392352_7291167511_0 J_11176392352 J_7291167511 85.83 0.013 0 0
C_11176392352_11397593732_0 J_11176392352 J_11397593732 58.92 0.013 0 0
C_11176392352_11397593720_0 J_11176392352 J_11397593720 37.91 0.013 0 0
C_7291167520_7291167515_0 J_7291167520 J_7291167515 84.74 0.013 0 0
C_11045649360_11045649364_0 J_11045649360 J_11045649364 35.75 0.013 0 0
C_11045649360_11045649363_0 J_11045649360 J_11045649363 147.34 0.013 0 0
C_11045649360_7291167515_0 J_11045649360 J_7291167515 230.81 0.013 0 0
C_10991796882_7291167555_0 J_10991796882 J_7291167555 130.89 0.013 0 0
C_7291167617_7291167618_0 J_7291167617 J_7291167618 65.24 0.013 0 0
C_7291167619_7291167618_0 J_7291167619 J_7291167618 41.17 0.013 0 0
C_7298268882_7298268883_0 J_7298268882 J_7298268883 65.66 0.013 0 0
C_7298289193_11397486839_0 J_7298289193 J_11397486839 15.06 0.013 0 0
C_7298289193_7298289198_0 J_7298289193 J_7298289198 41.64 0.013 0 0
C_7298289193_7298289230_0 J_7298289193 J_7298289230 67.77 0.013 0 0
C_11397486839_7298289193_0 J_11397486839 J_7298289193 15.06 0.013 0 0
C_7298289198_7298289236_0 J_7298289198 J_7298289236 40.76 0.013 0 0
C_7298289198_7298289210_0 J_7298289198 J_7298289210 97.48 0.013 0 0
C_7298289198_7298289193_0 J_7298289198 J_7298289193 41.64 0.013 0 0
C_7298289212_7298289211_0 J_7298289212 J_7298289211 48.57 0.013 0 0
C_7298289223_7298289213_0 J_7298289223 J_7298289213 97.89 0.013 0 0
C_7298289226_7298289227_0 J_7298289226 J_7298289227 30.46 0.013 0 0
C_13097684026_7298289230_0 J_13097684026 J_7298289230 12.85 0.013 0 0
C_7298289241_7298289236_0 J_7298289241 J_7298289236 57.57 0.013 0 0
C_7298289246_7298289244_0 J_7298289246 J_7298289244 98.63 0.013 0 0
C_7298289248_7298289263_0 J_7298289248 J_7298289263 69.37 0.013 0 0
C_7298289316_7298289263_0 J_7298289316 J_7298289263 63.38 0.013 0 0
C_14066685083_7298289268_0 J_14066685083 J_7298289268 53.52 0.013 0 0
C_7298289269_7298289272_0 J_7298289269 J_7298289272 141.63 0.013 0 0
C_7298289295_7298289294_0 J_7298289295 J_7298289294 21.21 0.013 0 0
C_7298289295_7298289291_0 J_7298289295 J_7298289291 21.19 0.013 0 0
C_7298289295_7298289296_0 J_7298289295 J_7298289296 72.89 0.013 0 0
C_7298289292_7298289291_0 J_7298289292 J_7298289291 71.97 0.013 0 0
C_7298289293_7298289294_0 J_7298289293 J_7298289294 58.48 0.013 0 0
C_7298289294_11802465263_0 J_7298289294 J_11802465263 28.97 0.013 0 0
C_7298289294_7298289295_0 J_7298289294 J_7298289295 21.21 0.013 0 0
C_7298289294_7298289293_0 J_7298289294 J_7298289293 58.48 0.013 0 0
C_11802465263_7298289294_0 J_11802465263 J_7298289294 28.97 0.013 0 0
C_7298289296_7298289295_0 J_7298289296 J_7298289295 72.89 0.013 0 0
C_13830106205_13830106203_0 J_13830106205 J_13830106203 14.68 0.013 0 0
C_13830106205_7298289304_0 J_13830106205 J_7298289304 33.88 0.013 0 0
C_13830106205_13830106206_0 J_13830106205 J_13830106206 45.99 0.013 0 0
C_7298289307_7298289306_0 J_7298289307 J_7298289306 82.80 0.013 0 0
C_7298289309_7298289308_0 J_7298289309 J_7298289308 86.96 0.013 0 0
C_7298289314_7298289310_0 J_7298289314 J_7298289310 67.85 0.013 0 0
C_10284858574_10284858578_0 J_10284858574 J_10284858578 4.11 0.013 0 0
C_10284858574_10738521350_0 J_10284858574 J_10738521350 30.20 0.013 0 0
C_7298295674_11025384531_0 J_7298295674 J_11025384531 41.24 0.013 0 0
C_7298295674_13535853200_0 J_7298295674 J_13535853200 71.32 0.013 0 0
C_7298295674_9866129292_0 J_7298295674 J_9866129292 54.67 0.013 0 0
C_11025384531_10168889544_0 J_11025384531 J_10168889544 38.26 0.013 0 0
C_11025384531_7298295674_0 J_11025384531 J_7298295674 41.24 0.013 0 0
C_11025384531_11025384532_0 J_11025384531 J_11025384532 48.91 0.013 0 0
C_13535853200_13535865211_0 J_13535853200 J_13535865211 9.33 0.013 0 0
C_13535853200_13535865211_1 J_13535853200 J_13535865211 26.78 0.013 0 0
C_13535853200_7298295674_0 J_13535853200 J_7298295674 71.32 0.013 0 0
C_9866129292_9866129293_0 J_9866129292 J_9866129293 167.57 0.013 0 0
C_9866129292_12918665449_0 J_9866129292 J_12918665449 34.34 0.013 0 0
C_9866129292_7298295674_0 J_9866129292 J_7298295674 54.67 0.013 0 0
C_7298295675_10168889545_0 J_7298295675 J_10168889545 45.74 0.013 0 0
C_10168889545_7298295675_0 J_10168889545 J_7298295675 45.74 0.013 0 0
C_10168889545_10168889544_0 J_10168889545 J_10168889544 38.25 0.013 0 0
C_10168889545_10038800927_0 J_10168889545 J_10038800927 40.19 0.013 0 0
C_10168889545_10038800926_0 J_10168889545 J_10038800926 18.85 0.013 0 0
C_7298295681_7298295682_0 J_7298295681 J_7298295682 39.99 0.013 0 0
C_7452673897_10991375325_0 J_7452673897 J_10991375325 33.63 0.013 0 0
C_7452673897_7452673901_0 J_7452673897 J_7452673901 39.34 0.013 0 0
C_7452673897_7452673898_0 J_7452673897 J_7452673898 104.39 0.013 0 0
C_10991375325_7452673908_0 J_10991375325 J_7452673908 31.31 0.013 0 0
C_10991375325_7452673897_0 J_10991375325 J_7452673897 33.63 0.013 0 0
C_10991375325_10991375326_0 J_10991375325 J_10991375326 111.35 0.013 0 0
C_7452673898_7452673897_0 J_7452673898 J_7452673897 104.39 0.013 0 0
C_7452673899_7452673906_0 J_7452673899 J_7452673906 71.35 0.013 0 0
C_7452673900_7452673901_0 J_7452673900 J_7452673901 113.81 0.013 0 0
C_7452673902_7452673906_0 J_7452673902 J_7452673906 91.17 0.013 0 0
C_7452673907_7452673908_0 J_7452673907 J_7452673908 76.25 0.013 0 0
C_11021488560_7452673911_0 J_11021488560 J_7452673911 25.28 0.013 0 0
C_11021488560_13127664187_0 J_11021488560 J_13127664187 27.96 0.013 0 0
C_11021488560_11021488561_0 J_11021488560 J_11021488561 99.41 0.013 0 0
C_11021488560_11021488563_0 J_11021488560 J_11021488563 78.81 0.013 0 0
C_7452673914_7452673915_0 J_7452673914 J_7452673915 105.89 0.013 0 0
C_7452673914_7452673912_0 J_7452673914 J_7452673912 87.99 0.013 0 0
C_7452673914_7453315600_0 J_7452673914 J_7453315600 25.93 0.013 0 0
C_7452673915_7452673914_0 J_7452673915 J_7452673914 105.89 0.013 0 0
C_7452673915_7453315600_0 J_7452673915 J_7453315600 289.31 0.013 0 0
C_7452673915_11175924867_0 J_7452673915 J_11175924867 138.43 0.013 0 0
C_7453315600_7453315599_0 J_7453315600 J_7453315599 7.19 0.013 0 0
C_7453315600_7452673915_0 J_7453315600 J_7452673915 289.31 0.013 0 0
C_7453315600_7452673914_0 J_7453315600 J_7452673914 25.93 0.013 0 0
C_11175924867_7452673915_0 J_11175924867 J_7452673915 138.43 0.013 0 0
C_7452673916_7452673919_0 J_7452673916 J_7452673919 44.41 0.013 0 0
C_11021648177_7452673917_0 J_11021648177 J_7452673917 31.66 0.013 0 0
C_7452673920_7452673921_0 J_7452673920 J_7452673921 47.95 0.013 0 0
C_7452673921_7452673920_0 J_7452673921 J_7452673920 47.95 0.013 0 0
C_7452673921_7453315301_0 J_7452673921 J_7453315301 23.89 0.013 0 0
C_7452673921_11419448879_0 J_7452673921 J_11419448879 28.55 0.013 0 0
C_7453315301_7453315302_0 J_7453315301 J_7453315302 49.55 0.013 0 0
C_7453315301_7452673921_0 J_7453315301 J_7452673921 23.89 0.013 0 0
C_7453315301_12598616677_0 J_7453315301 J_12598616677 83.76 0.013 0 0
C_11015778368_7452673924_0 J_11015778368 J_7452673924 104.66 0.013 0 0
C_7452692537_7452692538_0 J_7452692537 J_7452692538 92.63 0.013 0 0
C_7452692541_11015166119_0 J_7452692541 J_11015166119 35.66 0.013 0 0
C_7452692541_7452692540_0 J_7452692541 J_7452692540 59.57 0.013 0 0
C_7452692541_7453315636_0 J_7452692541 J_7453315636 90.52 0.013 0 0
C_9700074501_7452692549_0 J_9700074501 J_7452692549 122.02 0.013 0 0
C_9700074501_7452692544_0 J_9700074501 J_7452692544 210.71 0.013 0 0
C_9700074501_7452692540_0 J_9700074501 J_7452692540 83.84 0.013 0 0
C_11015166119_7452692541_0 J_11015166119 J_7452692541 35.66 0.013 0 0
C_11015166119_11015166118_0 J_11015166119 J_11015166118 60.66 0.013 0 0
C_11015166119_7452692543_0 J_11015166119 J_7452692543 99.26 0.013 0 0
C_7453315636_7452692541_0 J_7453315636 J_7452692541 90.52 0.013 0 0
C_12697947081_12690216001_0 J_12697947081 J_12690216001 69.71 0.013 0 0
C_12697947081_7452692544_0 J_12697947081 J_7452692544 47.43 0.013 0 0
C_12697947081_12697947084_0 J_12697947081 J_12697947084 48.97 0.013 0 0
C_7452712420_9990058602_0 J_7452712420 J_9990058602 17.17 0.013 0 0
C_9990058602_7452712421_0 J_9990058602 J_7452712421 53.98 0.013 0 0
C_9990058602_7452712420_0 J_9990058602 J_7452712420 17.17 0.013 0 0
C_9990058602_9990058603_0 J_9990058602 J_9990058603 157.43 0.013 0 0
C_9700074486_7452712421_0 J_9700074486 J_7452712421 124.68 0.013 0 0
C_7453315302_7453315301_0 J_7453315302 J_7453315301 49.55 0.013 0 0
C_7453315305_7453315599_0 J_7453315305 J_7453315599 28.39 0.013 0 0
C_7453315307_7453315306_0 J_7453315307 J_7453315306 35.81 0.013 0 0
C_7453315313_7453315312_0 J_7453315313 J_7453315312 77.15 0.013 0 0
C_7453315387_7453315388_0 J_7453315387 J_7453315388 58.72 0.013 0 0
C_7453315387_7453315717_0 J_7453315387 J_7453315717 107.30 0.013 0 0
C_7453315387_7453315390_0 J_7453315387 J_7453315390 30.62 0.013 0 0
C_7453315388_7453315387_0 J_7453315388 J_7453315387 58.72 0.013 0 0
C_7453315391_7453315390_0 J_7453315391 J_7453315390 41.68 0.013 0 0
C_7453315393_7453315392_0 J_7453315393 J_7453315392 63.26 0.013 0 0
C_7453315399_7453315398_0 J_7453315399 J_7453315398 39.29 0.013 0 0
C_7453315401_7453315400_0 J_7453315401 J_7453315400 87.25 0.013 0 0
C_7453315432_7453315632_0 J_7453315432 J_7453315632 152.03 0.013 0 0
C_7453315581_12604472593_0 J_7453315581 J_12604472593 33.07 0.013 0 0
C_7453315581_7453315582_0 J_7453315581 J_7453315582 87.67 0.013 0 0
C_7453315581_7453315583_0 J_7453315581 J_7453315583 40.30 0.013 0 0
C_7453315582_7453315581_0 J_7453315582 J_7453315581 87.67 0.013 0 0
C_7453315583_9899714417_0 J_7453315583 J_9899714417 28.77 0.013 0 0
C_7453315583_7453315584_0 J_7453315583 J_7453315584 88.58 0.013 0 0
C_7453315583_7453315581_0 J_7453315583 J_7453315581 40.30 0.013 0 0
C_7453315584_7453315583_0 J_7453315584 J_7453315583 88.58 0.013 0 0
C_7453315735_7453315612_0 J_7453315735 J_7453315612 78.40 0.013 0 0
C_7453315613_13654030352_0 J_7453315613 J_13654030352 198.42 0.013 0 0
C_7453315618_7453315614_0 J_7453315618 J_7453315614 44.18 0.013 0 0
C_7453315622_13127664187_0 J_7453315622 J_13127664187 118.72 0.013 0 0
C_13127664187_11021488560_0 J_13127664187 J_11021488560 27.96 0.013 0 0
C_13127664187_13127664188_0 J_13127664187 J_13127664188 95.72 0.013 0 0
C_13127664187_7453315622_0 J_13127664187 J_7453315622 118.72 0.013 0 0
C_7453315627_7453315624_0 J_7453315627 J_7453315624 53.42 0.013 0 0
C_7453315654_7453315652_0 J_7453315654 J_7453315652 46.01 0.013 0 0
C_7453315654_7453315655_0 J_7453315654 J_7453315655 135.09 0.013 0 0
C_7453315654_13715446989_0 J_7453315654 J_13715446989 136.79 0.013 0 0
C_7453315653_7453315652_0 J_7453315653 J_7453315652 174.09 0.013 0 0
C_7453315655_7453315654_0 J_7453315655 J_7453315654 135.09 0.013 0 0
C_7453315731_13667500433_0 J_7453315731 J_13667500433 21.57 0.013 0 0
C_7465393488_7465393489_0 J_7465393488 J_7465393489 73.13 0.013 0 0
C_7465393498_7465393504_0 J_7465393498 J_7465393504 76.31 0.013 0 0
C_7465393505_10991357069_0 J_7465393505 J_10991357069 38.16 0.013 0 0
C_7465393505_7465393516_0 J_7465393505 J_7465393516 182.20 0.013 0 0
C_7465393505_13645830505_0 J_7465393505 J_13645830505 164.67 0.013 0 0
C_10991357069_13041584929_0 J_10991357069 J_13041584929 10.61 0.013 0 0
C_10991357069_7465393505_0 J_10991357069 J_7465393505 38.16 0.013 0 0
C_10991357069_10991357070_0 J_10991357069 J_10991357070 85.73 0.013 0 0
C_7465393516_7465393505_0 J_7465393516 J_7465393505 182.20 0.013 0 0
C_13645830505_7465393505_0 J_13645830505 J_7465393505 164.67 0.013 0 0
C_7465393525_10593463228_0 J_7465393525 J_10593463228 122.91 0.013 0 0
C_7465393525_13076932658_0 J_7465393525 J_13076932658 364.76 0.013 0 0
C_7465393525_7465393527_0 J_7465393525 J_7465393527 264.13 0.013 0 0
C_10593463228_10593463229_0 J_10593463228 J_10593463229 57.59 0.013 0 0
C_10593463228_10593463232_0 J_10593463228 J_10593463232 66.21 0.013 0 0
C_10593463228_7465393525_0 J_10593463228 J_7465393525 122.91 0.013 0 0
C_7465393527_13645830516_0 J_7465393527 J_13645830516 22.33 0.013 0 0
C_7465393527_7465393525_0 J_7465393527 J_7465393525 264.13 0.013 0 0
C_7465393527_13645830527_0 J_7465393527 J_13645830527 162.88 0.013 0 0
C_13645830516_7465393527_0 J_13645830516 J_7465393527 22.33 0.013 0 0
C_13645830527_13645830526_0 J_13645830527 J_13645830526 41.26 0.013 0 0
C_13645830527_13645830523_0 J_13645830527 J_13645830523 53.18 0.013 0 0
C_13645830527_7465393527_0 J_13645830527 J_7465393527 162.88 0.013 0 0
C_7465393572_7465393573_0 J_7465393572 J_7465393573 222.29 0.013 0 0
C_7465393578_7465393579_0 J_7465393578 J_7465393579 155.49 0.013 0 0
C_12260767760_7465393579_0 J_12260767760 J_7465393579 8.67 0.013 0 0
C_12260767760_7263113742_0 J_12260767760 J_7263113742 143.02 0.013 0 0
C_7465449546_7465449555_0 J_7465449546 J_7465449555 25.90 0.013 0 0
C_7465449546_13152322515_0 J_7465449546 J_13152322515 55.93 0.013 0 0
C_7465449546_11438132731_0 J_7465449546 J_11438132731 5.37 0.013 0 0
C_7465449555_11438132728_0 J_7465449555 J_11438132728 31.11 0.013 0 0
C_7465449555_7465449546_0 J_7465449555 J_7465449546 25.90 0.013 0 0
C_7465449555_7465449554_0 J_7465449555 J_7465449554 61.01 0.013 0 0
C_11438132731_7465449546_0 J_11438132731 J_7465449546 5.37 0.013 0 0
C_11438132731_11438132732_0 J_11438132731 J_11438132732 44.04 0.013 0 0
C_11438132731_13152322515_0 J_11438132731 J_13152322515 107.83 0.013 0 0
C_7465449547_7465449558_0 J_7465449547 J_7465449558 16.37 0.013 0 0
C_7465449558_7465449547_0 J_7465449558 J_7465449547 16.37 0.013 0 0
C_7465449558_11438132728_0 J_7465449558 J_11438132728 12.10 0.013 0 0
C_7465449558_7465449559_0 J_7465449558 J_7465449559 100.69 0.013 0 0
C_7465449554_7465449555_0 J_7465449554 J_7465449555 61.01 0.013 0 0
C_11438132728_7465449558_0 J_11438132728 J_7465449558 12.10 0.013 0 0
C_11438132728_7465449555_0 J_11438132728 J_7465449555 31.11 0.013 0 0
C_11438132728_11438132729_0 J_11438132728 J_11438132729 63.18 0.013 0 0
C_7465449556_7465449557_0 J_7465449556 J_7465449557 55.47 0.013 0 0
C_7465449559_7465449561_0 J_7465449559 J_7465449561 36.15 0.013 0 0
C_7465449559_7465449558_0 J_7465449559 J_7465449558 100.69 0.013 0 0
C_7465449559_7465449557_0 J_7465449559 J_7465449557 33.19 0.013 0 0
C_7465449560_7465449561_0 J_7465449560 J_7465449561 94.57 0.013 0 0
C_7465449564_7465449565_0 J_7465449564 J_7465449565 102.11 0.013 0 0
C_7465449567_7465449568_0 J_7465449567 J_7465449568 117.00 0.013 0 0
C_7465449567_7465449566_0 J_7465449567 J_7465449566 40.25 0.013 0 0
C_7465449567_7465449565_0 J_7465449567 J_7465449565 31.16 0.013 0 0
C_7465449567_13152307781_0 J_7465449567 J_13152307781 127.49 0.013 0 0
C_7465449568_7465449567_0 J_7465449568 J_7465449567 117.00 0.013 0 0
C_13152307781_13152307780_0 J_13152307781 J_13152307780 52.35 0.013 0 0
C_13152307781_7465449567_0 J_13152307781 J_7465449567 127.49 0.013 0 0
C_7465449582_7465449583_0 J_7465449582 J_7465449583 63.37 0.013 0 0
C_7465449583_7465449582_0 J_7465449583 J_7465449582 63.37 0.013 0 0
C_7465449583_7465456785_0 J_7465449583 J_7465456785 39.73 0.013 0 0
C_7465449583_11438144606_0 J_7465449583 J_11438144606 24.77 0.013 0 0
C_7465456785_7465449584_0 J_7465456785 J_7465449584 47.33 0.013 0 0
C_7465456785_7465449583_0 J_7465456785 J_7465449583 39.73 0.013 0 0
C_7465456785_13152302110_0 J_7465456785 J_13152302110 26.00 0.013 0 0
C_11438144606_7465449583_0 J_11438144606 J_7465449583 24.77 0.013 0 0
C_11438144606_11438144607_0 J_11438144606 J_11438144607 50.13 0.013 0 0
C_11438144606_11438167760_0 J_11438144606 J_11438167760 27.95 0.013 0 0
C_7465449584_7465456785_0 J_7465449584 J_7465456785 47.33 0.013 0 0
C_13152302110_11001362539_0 J_13152302110 J_11001362539 29.27 0.013 0 0
C_13152302110_7465456785_0 J_13152302110 J_7465456785 26.00 0.013 0 0
C_13152302110_13152302109_0 J_13152302110 J_13152302109 49.33 0.013 0 0
C_7465456788_7465456797_0 J_7465456788 J_7465456797 99.14 0.013 0 0
C_7465456798_11438298620_0 J_7465456798 J_11438298620 10.09 0.013 0 0
C_7465456803_7465456804_0 J_7465456803 J_7465456804 71.96 0.013 0 0
C_11021578456_7465456804_0 J_11021578456 J_7465456804 32.61 0.013 0 0
C_11021578456_7465456806_0 J_11021578456 J_7465456806 78.74 0.013 0 0
C_11021578456_11409461237_0 J_11021578456 J_11409461237 14.72 0.013 0 0
C_7465456806_11021578456_0 J_7465456806 J_11021578456 78.74 0.013 0 0
C_7465456810_11409454649_0 J_7465456810 J_11409454649 177.73 0.013 0 0
C_11409454649_11846741326_0 J_11409454649 J_11846741326 7.11 0.013 0 0
C_11409454649_9982048431_0 J_11409454649 J_9982048431 70.02 0.013 0 0
C_11409454649_7465456810_0 J_11409454649 J_7465456810 177.73 0.013 0 0
C_9700303072_7465456816_0 J_9700303072 J_7465456816 29.41 0.013 0 0
C_7465456817_7465456821_0 J_7465456817 J_7465456821 46.98 0.013 0 0
C_11021569037_7465456821_0 J_11021569037 J_7465456821 77.33 0.013 0 0
C_11021569037_11021569038_0 J_11021569037 J_11021569038 31.22 0.013 0 0
C_11021569037_11409461237_0 J_11021569037 J_11409461237 23.13 0.013 0 0
C_10687741966_7465456827_0 J_10687741966 J_7465456827 57.42 0.013 0 0
C_10687741966_9880569588_0 J_10687741966 J_9880569588 106.84 0.013 0 0
C_10687741966_10687741969_0 J_10687741966 J_10687741969 78.67 0.013 0 0
C_7465456830_7465456831_0 J_7465456830 J_7465456831 107.24 0.013 0 0
C_7465456831_7465456830_0 J_7465456831 J_7465456830 107.24 0.013 0 0
C_7465456831_9982048425_0 J_7465456831 J_9982048425 45.51 0.013 0 0
C_7465456839_7465456843_0 J_7465456839 J_7465456843 130.14 0.013 0 0
C_7465456850_7465456851_0 J_7465456850 J_7465456851 60.71 0.013 0 0
C_7465577040_7465577041_0 J_7465577040 J_7465577041 65.78 0.013 0 0
C_7465577041_11409159131_0 J_7465577041 J_11409159131 21.17 0.013 0 0
C_7465577041_7465577043_0 J_7465577041 J_7465577043 54.47 0.013 0 0
C_7465577041_7465577040_0 J_7465577041 J_7465577040 65.78 0.013 0 0
C_11409159131_11409171825_0 J_11409159131 J_11409171825 22.77 0.013 0 0
C_11409159131_7465577041_0 J_11409159131 J_7465577041 21.17 0.013 0 0
C_11409159131_11409159132_0 J_11409159131 J_11409159132 74.98 0.013 0 0
C_7465577043_7465577041_0 J_7465577043 J_7465577041 54.47 0.013 0 0
C_7465577043_11409172855_0 J_7465577043 J_11409172855 42.37 0.013 0 0
C_7465577043_11409263307_0 J_7465577043 J_11409263307 34.77 0.013 0 0
C_7465577042_11409263303_0 J_7465577042 J_11409263303 13.73 0.013 0 0
C_11409263303_11409172855_0 J_11409263303 J_11409172855 22.00 0.013 0 0
C_11409263303_7465577042_0 J_11409263303 J_7465577042 13.73 0.013 0 0
C_11409263303_11409172856_0 J_11409263303 J_11409172856 59.98 0.013 0 0
C_11409172855_7465577043_0 J_11409172855 J_7465577043 42.37 0.013 0 0
C_11409172855_11409263303_0 J_11409172855 J_11409263303 22.00 0.013 0 0
C_11409172855_11409172856_0 J_11409172855 J_11409172856 36.11 0.013 0 0
C_7465577044_9700303070_0 J_7465577044 J_9700303070 20.30 0.013 0 0
C_7465577044_7465577051_0 J_7465577044 J_7465577051 302.42 0.013 0 0
C_7465577051_7465577044_0 J_7465577051 J_7465577044 302.42 0.013 0 0
C_7465614134_7465614144_0 J_7465614134 J_7465614144 36.08 0.013 0 0
C_7465614144_7465614146_0 J_7465614144 J_7465614146 32.80 0.013 0 0
C_7465614144_7465614139_0 J_7465614144 J_7465614139 72.75 0.013 0 0
C_7465614144_7465614134_0 J_7465614144 J_7465614134 36.08 0.013 0 0
C_11409171825_11409159131_0 J_11409171825 J_11409159131 22.77 0.013 0 0
C_11409171825_11409171826_0 J_11409171825 J_11409171826 32.74 0.013 0 0
C_11409171825_7465614139_0 J_11409171825 J_7465614139 500.43 0.013 0 0
C_7465614140_7465614146_0 J_7465614140 J_7465614146 42.83 0.013 0 0
C_7465614146_7465614144_0 J_7465614146 J_7465614144 32.80 0.013 0 0
C_7465614146_7465614145_0 J_7465614146 J_7465614145 29.94 0.013 0 0
C_7465614146_7465614140_0 J_7465614146 J_7465614140 42.83 0.013 0 0
C_7465614145_7465614146_0 J_7465614145 J_7465614146 29.94 0.013 0 0
C_7465614228_7465614223_0 J_7465614228 J_7465614223 5.76 0.013 0 0
C_7465614228_7465614227_0 J_7465614228 J_7465614227 81.89 0.013 0 0
C_11002963424_7465614223_0 J_11002963424 J_7465614223 252.77 0.013 0 0
C_7465614227_7465614228_0 J_7465614227 J_7465614228 81.89 0.013 0 0
C_9700074465_7465614235_0 J_9700074465 J_7465614235 61.91 0.013 0 0
C_7465614241_7465614245_0 J_7465614241 J_7465614245 58.86 0.013 0 0
C_7465614245_7465614246_0 J_7465614245 J_7465614246 20.74 0.013 0 0
C_7465614245_7465614241_0 J_7465614245 J_7465614241 58.86 0.013 0 0
C_7465614245_11009508675_0 J_7465614245 J_11009508675 34.72 0.013 0 0
C_7465614250_7465614249_0 J_7465614250 J_7465614249 33.37 0.013 0 0
C_7465614250_7465614252_0 J_7465614250 J_7465614252 23.78 0.013 0 0
C_7465614250_7465614251_0 J_7465614250 J_7465614251 61.31 0.013 0 0
C_7465646171_7465646179_0 J_7465646171 J_7465646179 95.18 0.013 0 0
C_7465646172_7465646173_0 J_7465646172 J_7465646173 83.01 0.013 0 0
C_7465646173_7465646172_0 J_7465646173 J_7465646172 83.01 0.013 0 0
C_7465646173_9880569589_0 J_7465646173 J_9880569589 37.32 0.013 0 0
C_7465646173_7465646179_0 J_7465646173 J_7465646179 118.15 0.013 0 0
C_9880569589_7465646173_0 J_9880569589 J_7465646173 37.32 0.013 0 0
C_9880569589_9880569588_0 J_9880569589 J_9880569588 112.41 0.013 0 0
C_9880569589_11409413544_0 J_9880569589 J_11409413544 18.25 0.013 0 0
C_7465672893_9982048425_0 J_7465672893 J_9982048425 80.87 0.013 0 0
C_7466375661_11003034318_0 J_7466375661 J_11003034318 11.72 0.013 0 0
C_7466375683_7466375684_0 J_7466375683 J_7466375684 75.34 0.013 0 0
C_13807649550_7466386825_0 J_13807649550 J_7466386825 33.42 0.013 0 0
C_13807649550_9928561082_0 J_13807649550 J_9928561082 31.12 0.013 0 0
C_13807649550_13807649549_0 J_13807649550 J_13807649549 38.02 0.013 0 0
C_9928560993_7466386825_0 J_9928560993 J_7466386825 30.65 0.013 0 0
C_13807649466_7466386827_0 J_13807649466 J_7466386827 4.41 0.013 0 0
C_13807649466_13807649465_0 J_13807649466 J_13807649465 74.54 0.013 0 0
C_13807649466_7466386826_0 J_13807649466 J_7466386826 93.22 0.013 0 0
C_10017481078_7466386858_0 J_10017481078 J_7466386858 23.20 0.013 0 0
C_10017481078_7466386860_0 J_10017481078 J_7466386860 38.11 0.013 0 0
C_10017481078_10017481079_0 J_10017481078 J_10017481079 30.11 0.013 0 0
C_10017481082_7466386858_0 J_10017481082 J_7466386858 97.00 0.013 0 0
C_7466386859_7466386860_0 J_7466386859 J_7466386860 46.92 0.013 0 0
C_7466386860_10017481078_0 J_7466386860 J_10017481078 38.11 0.013 0 0
C_7466386860_10017481076_0 J_7466386860 J_10017481076 18.33 0.013 0 0
C_7466386860_7466386859_0 J_7466386860 J_7466386859 46.92 0.013 0 0
C_8935990991_13802597961_0 J_8935990991 J_13802597961 10.69 0.013 0 0
C_13802597961_13802597960_0 J_13802597961 J_13802597960 6.69 0.013 0 0
C_13802597961_1198163774_0 J_13802597961 J_1198163774 428.74 0.013 0 0
C_8935990993_8935990994_0 J_8935990993 J_8935990994 11.69 0.013 0 0
C_8935990993_11197323405_0 J_8935990993 J_11197323405 75.56 0.013 0 0
C_11197323405_9910918458_0 J_11197323405 J_9910918458 37.77 0.013 0 0
C_11197323405_11197323412_0 J_11197323405 J_11197323412 207.24 0.013 0 0
C_12161557849_12161557850_0 J_12161557849 J_12161557850 11.66 0.013 0 0
C_12161557849_1262043910_0 J_12161557849 J_1262043910 100.87 0.013 0 0
C_9645445153_1434089177_0 J_9645445153 J_1434089177 64.91 0.013 0 0
C_9645445153_9645445151_0 J_9645445153 J_9645445151 7.35 0.013 0 0
C_9645445136_9645445144_0 J_9645445136 J_9645445144 19.86 0.013 0 0
C_9645445136_3300742565_0 J_9645445136 J_3300742565 59.89 0.013 0 0
C_9645445142_10222690300_0 J_9645445142 J_10222690300 45.84 0.013 0 0
C_9645445142_9645445129_0 J_9645445142 J_9645445129 10.89 0.013 0 0
C_9645445151_9645445136_0 J_9645445151 J_9645445136 6.07 0.013 0 0
C_10991478286_9700074467_0 J_10991478286 J_9700074467 54.24 0.013 0 0
C_11015641079_9700074489_0 J_11015641079 J_9700074489 65.33 0.013 0 0
C_9839093178_9839093177_0 J_9839093178 J_9839093177 104.65 0.013 0 0
C_10695024184_9841504887_0 J_10695024184 J_9841504887 36.51 0.013 0 0
C_10695024184_10695024186_0 J_10695024184 J_10695024186 33.59 0.013 0 0
C_10695024184_12918665451_0 J_10695024184 J_12918665451 88.41 0.013 0 0
C_9841504888_9841504887_0 J_9841504888 J_9841504887 90.81 0.013 0 0
C_9841504889_10695024186_0 J_9841504889 J_10695024186 34.10 0.013 0 0
C_9841504889_9841504890_0 J_9841504889 J_9841504890 75.64 0.013 0 0
C_9841504889_12918642886_0 J_9841504889 J_12918642886 87.63 0.013 0 0
C_10695024186_10695024184_0 J_10695024186 J_10695024184 33.59 0.013 0 0
C_10695024186_9841504889_0 J_10695024186 J_9841504889 34.10 0.013 0 0
C_10695024186_10695024187_0 J_10695024186 J_10695024187 82.27 0.013 0 0
C_9841504890_9841504889_0 J_9841504890 J_9841504889 75.64 0.013 0 0
C_12918642886_9841504889_0 J_12918642886 J_9841504889 87.63 0.013 0 0
C_9866129293_9866129292_0 J_9866129293 J_9866129292 167.57 0.013 0 0
C_11002921849_9867253967_0 J_11002921849 J_9867253967 34.12 0.013 0 0
C_11002921849_12180012791_0 J_11002921849 J_12180012791 33.19 0.013 0 0
C_11002921849_13130886313_0 J_11002921849 J_13130886313 56.37 0.013 0 0
C_11002921849_11002958966_0 J_11002921849 J_11002958966 22.82 0.013 0 0
C_12180012794_9867253967_0 J_12180012794 J_9867253967 28.46 0.013 0 0
C_9870086766_9870086765_0 J_9870086766 J_9870086765 147.18 0.013 0 0
C_9870086766_9870086764_0 J_9870086766 J_9870086764 22.09 0.013 0 0
C_9870086766_9873963410_0 J_9870086766 J_9873963410 112.98 0.013 0 0
C_9870086765_9870086766_0 J_9870086765 J_9870086766 147.18 0.013 0 0
C_9873963410_11002595848_0 J_9873963410 J_11002595848 37.50 0.013 0 0
C_9873963410_9870086773_0 J_9873963410 J_9870086773 77.84 0.013 0 0
C_9873963410_9870086766_0 J_9873963410 J_9870086766 112.98 0.013 0 0
C_9870086773_9873963410_0 J_9870086773 J_9873963410 77.84 0.013 0 0
C_11002595848_9873963410_0 J_11002595848 J_9873963410 37.50 0.013 0 0
C_9880569588_9880569589_0 J_9880569588 J_9880569589 112.41 0.013 0 0
C_9880569588_11409454669_0 J_9880569588 J_11409454669 40.51 0.013 0 0
C_9880569588_10687741966_0 J_9880569588 J_10687741966 106.84 0.013 0 0
C_11409454669_9880569588_0 J_11409454669 J_9880569588 40.51 0.013 0 0
C_11409413544_9880569589_0 J_11409413544 J_9880569589 18.25 0.013 0 0
C_9897294964_9897294963_0 J_9897294964 J_9897294963 38.34 0.013 0 0
C_9899714418_9899714417_0 J_9899714418 J_9899714417 95.67 0.013 0 0
C_9900960143_1558994024_0 J_9900960143 J_1558994024 11.00 0.013 0 0
C_9900960143_9900960144_0 J_9900960143 J_9900960144 137.80 0.013 0 0
C_9900960190_9900960192_0 J_9900960190 J_9900960192 31.53 0.013 0 0
C_9900960190_9900960191_0 J_9900960190 J_9900960191 41.07 0.013 0 0
C_9900960192_9900969018_0 J_9900960192 J_9900969018 29.02 0.013 0 0
C_9900960192_9900960193_0 J_9900960192 J_9900960193 45.03 0.013 0 0
C_9900960191_9900960190_0 J_9900960191 J_9900960190 41.07 0.013 0 0
C_9900969018_1368117382_0 J_9900969018 J_1368117382 29.77 0.013 0 0
C_9900969018_9900969019_0 J_9900969018 J_9900969019 48.50 0.013 0 0
C_9900960193_9900960192_0 J_9900960193 J_9900960192 45.03 0.013 0 0
C_9900969019_9900969018_0 J_9900969019 J_9900969018 48.50 0.013 0 0
C_9901111716_9901111715_0 J_9901111716 J_9901111715 66.39 0.013 0 0
C_9910918458_9910918465_0 J_9910918458 J_9910918465 175.26 0.013 0 0
C_9910918458_11197334455_0 J_9910918458 J_11197334455 115.98 0.013 0 0
C_9910918465_11197323412_0 J_9910918465 J_11197323412 5.42 0.013 0 0
C_11197334455_11197334454_0 J_11197334455 J_11197334454 9.12 0.013 0 0
C_11197334455_9910918465_0 J_11197334455 J_9910918465 118.52 0.013 0 0
C_11197323412_6746708992_0 J_11197323412 J_6746708992 3.24 0.013 0 0
C_9928560952_9928560951_0 J_9928560952 J_9928560951 59.85 0.013 0 0
C_9928561083_9928561082_0 J_9928561083 J_9928561082 37.84 0.013 0 0
C_11885820563_11885820562_0 J_11885820563 J_11885820562 8.91 0.013 0 0
C_11885820563_1371816441_0 J_11885820563 J_1371816441 94.36 0.013 0 0
C_11397285061_9982048419_0 J_11397285061 J_9982048419 72.50 0.013 0 0
C_11397285061_11397285063_0 J_11397285061 J_11397285063 56.15 0.013 0 0
C_9990058603_9990058602_0 J_9990058603 J_9990058602 157.43 0.013 0 0
C_10017481116_9992581195_0 J_10017481116 J_9992581195 31.18 0.013 0 0
C_9992581197_9992581195_0 J_9992581197 J_9992581195 130.89 0.013 0 0
C_10017481077_10017481076_0 J_10017481077 J_10017481076 55.25 0.013 0 0
C_10017481079_10017481078_0 J_10017481079 J_10017481078 30.11 0.013 0 0
C_10017481090_10017481089_0 J_10017481090 J_10017481089 28.39 0.013 0 0
C_10017481092_12155114398_0 J_10017481092 J_12155114398 29.72 0.013 0 0
C_10017481092_10017481091_0 J_10017481092 J_10017481091 27.22 0.013 0 0
C_10017481092_12155114399_0 J_10017481092 J_12155114399 16.86 0.013 0 0
C_13041011657_13041011658_0 J_13041011657 J_13041011658 1.99 0.013 0 0
C_13041011657_13041011659_0 J_13041011657 J_13041011659 2.68 0.013 0 0
C_13041011657_13041011660_0 J_13041011657 J_13041011660 27.69 0.013 0 0
C_13041011657_10017481091_0 J_13041011657 J_10017481091 69.57 0.013 0 0
C_12155114398_10017481092_0 J_12155114398 J_10017481092 29.72 0.013 0 0
C_12155114399_10017481092_0 J_12155114399 J_10017481092 16.86 0.013 0 0
C_10578097581_10038712736_0 J_10578097581 J_10038712736 59.32 0.013 0 0
C_11003016445_12180012791_0 J_11003016445 J_12180012791 32.38 0.013 0 0
C_11003016445_11003016446_0 J_11003016445 J_11003016446 41.64 0.013 0 0
C_11003016445_10038712736_0 J_11003016445 J_10038712736 98.45 0.013 0 0
C_14066685118_10038722876_0 J_14066685118 J_10038722876 35.34 0.013 0 0
C_10038782704_11434296179_0 J_10038782704 J_11434296179 122.64 0.013 0 0
C_10038799161_10168889544_0 J_10038799161 J_10168889544 18.30 0.013 0 0
C_10168889544_10168889545_0 J_10168889544 J_10168889545 38.25 0.013 0 0
C_10168889544_11025384531_0 J_10168889544 J_11025384531 38.26 0.013 0 0
C_10168889544_10038799162_0 J_10168889544 J_10038799162 45.93 0.013 0 0
C_10168889544_10038799161_0 J_10168889544 J_10038799161 18.30 0.013 0 0
C_10038799162_10168889544_0 J_10038799162 J_10168889544 45.93 0.013 0 0
C_10038800926_10168889545_0 J_10038800926 J_10168889545 18.85 0.013 0 0
C_10038800927_10168889545_0 J_10038800927 J_10168889545 40.19 0.013 0 0
C_10044811670_10044811669_0 J_10044811670 J_10044811669 9.62 0.013 0 0
C_11002587524_10044811669_0 J_11002587524 J_10044811669 28.23 0.013 0 0
C_10209103448_10209103447_0 J_10209103448 J_10209103447 20.09 0.013 0 0
C_10209123012_10209123011_0 J_10209123012 J_10209123011 39.42 0.013 0 0
C_12696050651_12696050650_0 J_12696050651 J_12696050650 12.15 0.013 0 0
C_12696050651_11033916345_0 J_12696050651 J_11033916345 265.75 0.013 0 0
C_10222738375_1327387692_0 J_10222738375 J_1327387692 119.11 0.013 0 0
C_10222738375_10222738376_0 J_10222738375 J_10222738376 91.74 0.013 0 0
C_10222738376_10222738375_0 J_10222738376 J_10222738375 91.74 0.013 0 0
C_12210693584_10266837398_0 J_12210693584 J_10266837398 30.01 0.013 0 0
C_12210693584_13830106009_0 J_12210693584 J_13830106009 13.83 0.013 0 0
C_12210693584_12210693585_0 J_12210693584 J_12210693585 39.89 0.013 0 0
C_10266837400_12210693586_0 J_10266837400 J_12210693586 22.12 0.013 0 0
C_10266837400_10266837403_0 J_10266837400 J_10266837403 34.45 0.013 0 0
C_10266837400_13830106009_0 J_10266837400 J_13830106009 68.37 0.013 0 0
C_12210693586_10266837400_0 J_12210693586 J_10266837400 22.12 0.013 0 0
C_10266837403_10266837402_0 J_10266837403 J_10266837402 44.99 0.013 0 0
C_10266837403_10266837401_0 J_10266837403 J_10266837401 47.19 0.013 0 0
C_10266837403_10266837400_0 J_10266837403 J_10266837400 34.45 0.013 0 0
C_13830106009_12210693584_0 J_13830106009 J_12210693584 13.83 0.013 0 0
C_13830106009_13830106010_0 J_13830106009 J_13830106010 67.07 0.013 0 0
C_13830106009_10266837400_0 J_13830106009 J_10266837400 68.37 0.013 0 0
C_10266837401_10266837403_0 J_10266837401 J_10266837403 47.19 0.013 0 0
C_10266837402_10266837403_0 J_10266837402 J_10266837403 44.99 0.013 0 0
C_12157689023_12157689021_0 J_12157689023 J_12157689021 64.93 0.013 0 0
C_12157689023_956975072_0 J_12157689023 J_956975072 111.58 0.013 0 0
C_12157689021_12157689023_0 J_12157689021 J_12157689023 64.93 0.013 0 0
C_12157689021_10277091600_0 J_12157689021 J_10277091600 131.43 0.013 0 0
C_12157689021_12157689025_0 J_12157689021 J_12157689025 53.67 0.013 0 0
C_10277100419_10277100421_0 J_10277100419 J_10277100421 14.33 0.013 0 0
C_10277100420_10277100422_0 J_10277100420 J_10277100422 4.88 0.013 0 0
C_10277100422_10277100420_0 J_10277100422 J_10277100420 4.88 0.013 0 0
C_10277100422_10277100421_0 J_10277100422 J_10277100421 28.72 0.013 0 0
C_10277100422_10277100423_0 J_10277100422 J_10277100423 21.64 0.013 0 0
C_10277100423_10277100422_0 J_10277100423 J_10277100422 21.64 0.013 0 0
C_10284858578_10284858574_0 J_10284858578 J_10284858574 4.11 0.013 0 0
C_10312430299_11028255656_0 J_10312430299 J_11028255656 11.86 0.013 0 0
C_10312430299_12078798115_0 J_10312430299 J_12078798115 220.44 0.013 0 0
C_11028255656_11329623304_0 J_11028255656 J_11329623304 150.91 0.013 0 0
C_12078798115_12078798117_0 J_12078798115 J_12078798117 7.90 0.013 0 0
C_10574674451_1382528610_0 J_10574674451 J_1382528610 235.17 0.013 0 0
C_10574674451_1382528610_1 J_10574674451 J_1382528610 245.39 0.013 0 0
C_10593463229_10593463230_0 J_10593463229 J_10593463230 57.39 0.013 0 0
C_10593463229_10593463228_0 J_10593463229 J_10593463228 57.59 0.013 0 0
C_10593463229_10593463233_0 J_10593463229 J_10593463233 41.22 0.013 0 0
C_10593463230_10593463229_0 J_10593463230 J_10593463229 57.39 0.013 0 0
C_10593463233_10593463231_0 J_10593463233 J_10593463231 47.02 0.013 0 0
C_10593463233_10593463229_0 J_10593463233 J_10593463229 41.22 0.013 0 0
C_10593463233_10593463232_0 J_10593463233 J_10593463232 53.25 0.013 0 0
C_10593463231_10593463233_0 J_10593463231 J_10593463233 47.02 0.013 0 0
C_10731125515_10637202311_0 J_10731125515 J_10637202311 54.74 0.013 0 0
C_10687741969_10687741968_0 J_10687741969 J_10687741968 22.35 0.013 0 0
C_10687741969_10687741973_0 J_10687741969 J_10687741973 39.56 0.013 0 0
C_10687741969_10687741966_0 J_10687741969 J_10687741966 78.67 0.013 0 0
C_10687741968_10687741969_0 J_10687741968 J_10687741969 22.35 0.013 0 0
C_10687741973_10687741975_0 J_10687741973 J_10687741975 37.94 0.013 0 0
C_10687741973_10687741969_0 J_10687741973 J_10687741969 39.56 0.013 0 0
C_10687741973_10687741972_0 J_10687741973 J_10687741972 25.64 0.013 0 0
C_10687741972_10687741973_0 J_10687741972 J_10687741973 25.64 0.013 0 0
C_10687741975_10687741977_0 J_10687741975 J_10687741977 38.12 0.013 0 0
C_10687741975_10687741973_0 J_10687741975 J_10687741973 37.94 0.013 0 0
C_10687741975_10687741974_0 J_10687741975 J_10687741974 50.94 0.013 0 0
C_10687741974_10687741975_0 J_10687741974 J_10687741975 50.94 0.013 0 0
C_10687741977_10687741979_0 J_10687741977 J_10687741979 36.82 0.013 0 0
C_10687741977_10687741975_0 J_10687741977 J_10687741975 38.12 0.013 0 0
C_10687741977_10687741976_0 J_10687741977 J_10687741976 46.19 0.013 0 0
C_10687741976_10687741977_0 J_10687741976 J_10687741977 46.19 0.013 0 0
C_10687741978_10687741979_0 J_10687741978 J_10687741979 40.15 0.013 0 0
C_12918665451_10695024184_0 J_12918665451 J_10695024184 88.41 0.013 0 0
C_10695024185_12918665449_0 J_10695024185 J_12918665449 152.95 0.013 0 0
C_10695024187_10695024186_0 J_10695024187 J_10695024186 82.27 0.013 0 0
C_10716532019_10716532018_0 J_10716532019 J_10716532018 38.69 0.013 0 0
C_10731123200_10731123199_0 J_10731123200 J_10731123199 92.63 0.013 0 0
C_10760860023_10760860025_0 J_10760860023 J_10760860025 33.05 0.013 0 0
C_10760860023_10760860021_0 J_10760860023 J_10760860021 33.55 0.013 0 0
C_10760860023_10760860024_0 J_10760860023 J_10760860024 84.21 0.013 0 0
C_10760860022_10760860025_0 J_10760860022 J_10760860025 7.67 0.013 0 0
C_10760860025_10760860022_0 J_10760860025 J_10760860022 7.67 0.013 0 0
C_10760860025_10760860023_0 J_10760860025 J_10760860023 33.05 0.013 0 0
C_10760860025_10760860026_0 J_10760860025 J_10760860026 81.46 0.013 0 0
C_10760860024_10760860023_0 J_10760860024 J_10760860023 84.21 0.013 0 0
C_10760860026_10760860025_0 J_10760860026 J_10760860025 81.46 0.013 0 0
C_10820231133_11363958154_0 J_10820231133 J_11363958154 34.92 0.013 0 0
C_10820231133_11021555208_0 J_10820231133 J_11021555208 36.49 0.013 0 0
C_10820231133_10820231134_0 J_10820231133 J_10820231134 41.35 0.013 0 0
C_10820231133_11021548225_0 J_10820231133 J_11021548225 30.65 0.013 0 0
C_11021555208_10820231133_0 J_11021555208 J_10820231133 36.49 0.013 0 0
C_11021555208_11021555209_0 J_11021555208 J_11021555209 44.58 0.013 0 0
C_11021555208_11021555207_0 J_11021555208 J_11021555207 27.44 0.013 0 0
C_11021555208_11021514732_0 J_11021555208 J_11021514732 89.37 0.013 0 0
C_10820231134_10820231133_0 J_10820231134 J_10820231133 41.35 0.013 0 0
C_11021548225_10820231133_0 J_11021548225 J_10820231133 30.65 0.013 0 0
C_12187507077_10841617807_0 J_12187507077 J_10841617807 13.13 0.013 0 0
C_10978638724_10978638722_0 J_10978638724 J_10978638722 76.91 0.013 0 0
C_10978640858_10978640856_0 J_10978640858 J_10978640856 44.81 0.013 0 0
C_10991357070_10991357069_0 J_10991357070 J_10991357069 85.73 0.013 0 0
C_10991375326_10991375325_0 J_10991375326 J_10991375325 111.35 0.013 0 0
C_10991440020_10991440018_0 J_10991440020 J_10991440018 58.96 0.013 0 0
C_10991475147_10991475142_0 J_10991475147 J_10991475142 103.65 0.013 0 0
C_10991651170_10991651169_0 J_10991651170 J_10991651169 81.12 0.013 0 0
C_13717751723_10991832380_0 J_13717751723 J_10991832380 96.61 0.013 0 0
C_10991915619_10991915618_0 J_10991915619 J_10991915618 43.65 0.013 0 0
C_11001362539_13152302110_0 J_11001362539 J_13152302110 29.27 0.013 0 0
C_11002607127_11002607128_0 J_11002607127 J_11002607128 34.14 0.013 0 0
C_11002607128_11002607127_0 J_11002607128 J_11002607127 34.14 0.013 0 0
C_11002607128_11002607131_0 J_11002607128 J_11002607131 30.83 0.013 0 0
C_11002607128_11002607133_0 J_11002607128 J_11002607133 9.31 0.013 0 0
C_11002607131_11002607128_0 J_11002607131 J_11002607128 30.83 0.013 0 0
C_11002607131_11002607129_0 J_11002607131 J_11002607129 2.12 0.013 0 0
C_11002607131_11002607132_0 J_11002607131 J_11002607132 9.14 0.013 0 0
C_11002607133_11002607128_0 J_11002607133 J_11002607128 9.31 0.013 0 0
C_11002607130_11002607129_0 J_11002607130 J_11002607129 38.81 0.013 0 0
C_11002607132_11002607131_0 J_11002607132 J_11002607131 9.14 0.013 0 0
C_11002890405_11002801404_0 J_11002890405 J_11002801404 19.82 0.013 0 0
C_12180012791_11002921849_0 J_12180012791 J_11002921849 33.19 0.013 0 0
C_12180012791_11003016445_0 J_12180012791 J_11003016445 32.38 0.013 0 0
C_12180012791_12180012792_0 J_12180012791 J_12180012792 27.68 0.013 0 0
C_12180012791_12180012793_0 J_12180012791 J_12180012793 64.86 0.013 0 0
C_13130886313_11002921849_0 J_13130886313 J_11002921849 56.37 0.013 0 0
C_11002958966_11002921849_0 J_11002958966 J_11002921849 22.82 0.013 0 0
C_11003016446_11003016445_0 J_11003016446 J_11003016445 41.64 0.013 0 0
C_11003037132_11003034318_0 J_11003037132 J_11003034318 39.92 0.013 0 0
C_11003036768_11003036767_0 J_11003036768 J_11003036767 21.77 0.013 0 0
C_11006982240_11006982239_0 J_11006982240 J_11006982239 92.78 0.013 0 0
C_11007664987_11007664986_0 J_11007664987 J_11007664986 45.66 0.013 0 0
C_11015153617_11015153616_0 J_11015153617 J_11015153616 89.15 0.013 0 0
C_11015166118_11015166119_0 J_11015166118 J_11015166119 60.66 0.013 0 0
C_11015226553_11015226554_0 J_11015226553 J_11015226554 32.59 0.013 0 0
C_11015226553_11015226552_0 J_11015226553 J_11015226552 35.78 0.013 0 0
C_11015226553_11015226548_0 J_11015226553 J_11015226548 104.33 0.013 0 0
C_11015226554_11015226553_0 J_11015226554 J_11015226553 32.59 0.013 0 0
C_11017633320_11017633319_0 J_11017633320 J_11017633319 36.73 0.013 0 0
C_11021428252_11021428239_0 J_11021428252 J_11021428239 256.28 0.013 0 0
C_11399465859_11021437031_0 J_11399465859 J_11021437031 42.00 0.013 0 0
C_11021437034_11021437033_0 J_11021437034 J_11021437033 39.95 0.013 0 0
C_11021437034_11021437035_0 J_11021437034 J_11021437035 84.33 0.013 0 0
C_11021437034_11399469960_0 J_11021437034 J_11399469960 59.39 0.013 0 0
C_11021437034_11021437031_0 J_11021437034 J_11021437031 46.87 0.013 0 0
C_11021437033_11021437034_0 J_11021437033 J_11021437034 39.95 0.013 0 0
C_11399469960_11021437034_0 J_11399469960 J_11021437034 59.39 0.013 0 0
C_11021454466_11021454465_0 J_11021454466 J_11021454465 39.54 0.013 0 0
C_11021478368_11021478367_0 J_11021478368 J_11021478367 34.86 0.013 0 0
C_11021488561_11021488560_0 J_11021488561 J_11021488560 99.41 0.013 0 0
C_11021514732_11021555208_0 J_11021514732 J_11021555208 89.37 0.013 0 0
C_11021555207_11021555208_0 J_11021555207 J_11021555208 27.44 0.013 0 0
C_11021555209_11021555208_0 J_11021555209 J_11021555208 44.58 0.013 0 0
C_11021569038_11021569037_0 J_11021569038 J_11021569037 31.22 0.013 0 0
C_11409461237_11409461238_0 J_11409461237 J_11409461238 53.88 0.013 0 0
C_11409461237_11021569037_0 J_11409461237 J_11021569037 23.13 0.013 0 0
C_11409461237_11021578456_0 J_11409461237 J_11021578456 14.72 0.013 0 0
C_11021603481_11021603484_0 J_11021603481 J_11021603484 36.98 0.013 0 0
C_11021603481_574872968_0 J_11021603481 J_574872968 28.14 0.013 0 0
C_11021603484_11021603481_0 J_11021603484 J_11021603481 36.98 0.013 0 0
C_11826963020_11021627219_0 J_11826963020 J_11021627219 33.90 0.013 0 0
C_11826963020_11399419950_0 J_11826963020 J_11399419950 6.28 0.013 0 0
C_11826963020_11826963022_0 J_11826963020 J_11826963022 49.77 0.013 0 0
C_11021676040_11021676037_0 J_11021676040 J_11021676037 78.43 0.013 0 0
C_11021755953_11021755952_0 J_11021755953 J_11021755952 31.75 0.013 0 0
C_11074670549_11021766298_0 J_11074670549 J_11021766298 85.93 0.013 0 0
C_11021766299_11074670574_0 J_11021766299 J_11074670574 31.64 0.013 0 0
C_11021766299_11074670573_0 J_11021766299 J_11074670573 31.98 0.013 0 0
C_11021766299_11021766298_0 J_11021766299 J_11021766298 70.13 0.013 0 0
C_11074670574_11021766299_0 J_11074670574 J_11021766299 31.64 0.013 0 0
C_11025384532_11025384531_0 J_11025384532 J_11025384531 48.91 0.013 0 0
C_11027804586_11027804585_0 J_11027804586 J_11027804585 25.90 0.013 0 0
C_11027804588_11027804587_0 J_11027804588 J_11027804587 20.04 0.013 0 0
C_11329623304_955696066_0 J_11329623304 J_955696066 56.97 0.013 0 0
C_11028823358_11028823357_0 J_11028823358 J_11028823357 88.67 0.013 0 0
C_11028858435_11926574593_0 J_11028858435 J_11926574593 37.74 0.013 0 0
C_11033916343_11124633999_0 J_11033916343 J_11124633999 99.93 0.013 0 0
C_11124633999_12997704936_0 J_11124633999 J_12997704936 270.54 0.013 0 0
C_11033916345_11121867056_0 J_11033916345 J_11121867056 36.62 0.013 0 0
C_11033916345_11033916343_0 J_11033916345 J_11033916343 195.08 0.013 0 0
C_11121867056_12997704936_0 J_11121867056 J_12997704936 11.33 0.013 0 0
C_11121867056_11033916343_0 J_11121867056 J_11033916343 149.72 0.013 0 0
C_11397404813_11045649359_0 J_11397404813 J_11045649359 24.83 0.013 0 0
C_11397404813_11045649363_0 J_11397404813 J_11045649363 32.40 0.013 0 0
C_11397404813_11397404814_0 J_11397404813 J_11397404814 66.00 0.013 0 0
C_12151901679_11045649359_0 J_12151901679 J_11045649359 14.76 0.013 0 0
C_12151901679_12151901680_0 J_12151901679 J_12151901680 67.57 0.013 0 0
C_12151901679_12151901678_0 J_12151901679 J_12151901678 79.64 0.013 0 0
C_11397404822_11045649364_0 J_11397404822 J_11045649364 30.90 0.013 0 0
C_12918642840_12918642841_0 J_12918642840 J_12918642841 65.29 0.013 0 0
C_12918642840_11074670573_0 J_12918642840 J_11074670573 37.58 0.013 0 0
C_12918642840_11434296179_0 J_12918642840 J_11434296179 50.83 0.013 0 0
C_11077269488_11077269487_0 J_11077269488 J_11077269487 37.00 0.013 0 0
C_11121286749_11121286748_0 J_11121286749 J_11121286748 47.03 0.013 0 0
C_12997704936_11121867056_0 J_12997704936 J_11121867056 11.33 0.013 0 0
C_12997704936_11124633999_0 J_12997704936 J_11124633999 270.54 0.013 0 0
C_12997704936_12997704926_0 J_12997704936 J_12997704926 117.11 0.013 0 0
C_11182447928_11182447927_0 J_11182447928 J_11182447927 12.31 0.013 0 0
C_11397285063_11397285061_0 J_11397285063 J_11397285061 56.15 0.013 0 0
C_11397388905_13098366974_0 J_11397388905 J_13098366974 15.30 0.013 0 0
C_12151901633_11397404814_0 J_12151901633 J_11397404814 162.78 0.013 0 0
C_11397404823_12244701790_0 J_11397404823 J_12244701790 85.80 0.013 0 0
C_11397591499_11397591498_0 J_11397591499 J_11397591498 76.34 0.013 0 0
C_11397593723_11397593720_0 J_11397593723 J_11397593720 148.13 0.013 0 0
C_11397593733_11397593732_0 J_11397593733 J_11397593732 147.33 0.013 0 0
C_11397632765_11397632762_0 J_11397632765 J_11397632762 10.67 0.013 0 0
C_11397632765_11397632766_0 J_11397632765 J_11397632766 80.66 0.013 0 0
C_11397632765_11397632764_0 J_11397632765 J_11397632764 112.34 0.013 0 0
C_11397632764_11397632765_0 J_11397632764 J_11397632765 112.34 0.013 0 0
C_11397632766_11397632765_0 J_11397632766 J_11397632765 80.66 0.013 0 0
C_11409159132_11409159131_0 J_11409159132 J_11409159131 74.98 0.013 0 0
C_11409171826_11409171825_0 J_11409171826 J_11409171825 32.74 0.013 0 0
C_11409172856_11409263307_0 J_11409172856 J_11409263307 40.17 0.013 0 0
C_11409172856_11409172855_0 J_11409172856 J_11409172855 36.11 0.013 0 0
C_11409172856_11409263303_0 J_11409172856 J_11409263303 59.98 0.013 0 0
C_11409245946_11409245945_0 J_11409245946 J_11409245945 23.88 0.013 0 0
C_11409293348_11409293349_0 J_11409293348 J_11409293349 63.89 0.013 0 0
C_11409341814_11409293349_0 J_11409341814 J_11409293349 29.60 0.013 0 0
C_11409341814_11409341813_0 J_11409341814 J_11409341813 11.31 0.013 0 0
C_11409341814_11409327905_0 J_11409341814 J_11409327905 31.49 0.013 0 0
C_11409322629_11409322630_0 J_11409322629 J_11409322630 21.78 0.013 0 0
C_11409327905_11409322630_0 J_11409327905 J_11409322630 30.85 0.013 0 0
C_11409327905_11409327904_0 J_11409327905 J_11409327904 29.08 0.013 0 0
C_11409327905_11409341814_0 J_11409327905 J_11409341814 31.49 0.013 0 0
C_11409327904_11409327905_0 J_11409327904 J_11409327905 29.08 0.013 0 0
C_11409341813_11409341814_0 J_11409341813 J_11409341814 11.31 0.013 0 0
C_11409461238_11409461237_0 J_11409461238 J_11409461237 53.88 0.013 0 0
C_11414136197_11414136196_0 J_11414136197 J_11414136196 34.95 0.013 0 0
C_11419446867_11419446866_0 J_11419446867 J_11419446866 77.55 0.013 0 0
C_11419448880_11419448879_0 J_11419448880 J_11419448879 42.48 0.013 0 0
C_11434298150_11434298148_0 J_11434298150 J_11434298148 17.33 0.013 0 0
C_11434298150_11434298151_0 J_11434298150 J_11434298151 51.51 0.013 0 0
C_11434298150_11434298134_0 J_11434298150 J_11434298134 55.26 0.013 0 0
C_11434298136_11434298145_0 J_11434298136 J_11434298145 21.36 0.013 0 0
C_11434298136_11434298148_0 J_11434298136 J_11434298148 16.02 0.013 0 0
C_11434298136_11434298147_0 J_11434298136 J_11434298147 52.50 0.013 0 0
C_11434298145_11434298137_0 J_11434298145 J_11434298137 18.73 0.013 0 0
C_11434298145_11434298136_0 J_11434298145 J_11434298136 21.36 0.013 0 0
C_11434298145_11434298146_0 J_11434298145 J_11434298146 50.98 0.013 0 0
C_11434298148_11434298136_0 J_11434298148 J_11434298136 16.02 0.013 0 0
C_11434298148_11434298150_0 J_11434298148 J_11434298150 17.33 0.013 0 0
C_11434298148_11434298149_0 J_11434298148 J_11434298149 51.80 0.013 0 0
C_11434298147_11434298136_0 J_11434298147 J_11434298136 52.50 0.013 0 0
C_11434298137_11434298138_0 J_11434298137 J_11434298138 16.20 0.013 0 0
C_11434298137_11434298145_0 J_11434298137 J_11434298145 18.73 0.013 0 0
C_11434298137_11434298144_0 J_11434298137 J_11434298144 58.55 0.013 0 0
C_11434298138_11434298137_0 J_11434298138 J_11434298137 16.20 0.013 0 0
C_11434298138_11434298143_0 J_11434298138 J_11434298143 59.30 0.013 0 0
C_11434298138_11434298142_0 J_11434298138 J_11434298142 78.99 0.013 0 0
C_11434298144_11434298137_0 J_11434298144 J_11434298137 58.55 0.013 0 0
C_11434298143_11434298138_0 J_11434298143 J_11434298138 59.30 0.013 0 0
C_11434298142_11434298138_0 J_11434298142 J_11434298138 78.99 0.013 0 0
C_11434298146_11434298145_0 J_11434298146 J_11434298145 50.98 0.013 0 0
C_11434298149_11434298148_0 J_11434298149 J_11434298148 51.80 0.013 0 0
C_11434298151_11434298150_0 J_11434298151 J_11434298150 51.51 0.013 0 0
C_11434512224_11434512223_0 J_11434512224 J_11434512223 67.66 0.013 0 0
C_11434710894_11434710893_0 J_11434710894 J_11434710893 60.70 0.013 0 0
C_11436636898_11436636897_0 J_11436636898 J_11436636897 21.55 0.013 0 0
C_11438132729_11438132728_0 J_11438132729 J_11438132728 63.18 0.013 0 0
C_11438132732_11438132731_0 J_11438132732 J_11438132731 44.04 0.013 0 0
C_11438144607_11438144606_0 J_11438144607 J_11438144606 50.13 0.013 0 0
C_11438167761_11438167760_0 J_11438167761 J_11438167760 56.40 0.013 0 0
C_11438298623_11438298620_0 J_11438298623 J_11438298620 55.46 0.013 0 0
C_11438418705_11438418704_0 J_11438418705 J_11438418704 21.00 0.013 0 0
C_12196909080_11640782969_0 J_12196909080 J_11640782969 15.57 0.013 0 0
C_13076932659_13076932658_0 J_13076932659 J_13076932658 8.52 0.013 0 0
C_13076932659_12635196524_0 J_13076932659 J_12635196524 33.17 0.013 0 0
C_13076932657_11812221673_0 J_13076932657 J_11812221673 8.56 0.013 0 0
C_13076932657_6617328955_0 J_13076932657 J_6617328955 275.00 0.013 0 0
C_12765390074_11812221682_0 J_12765390074 J_11812221682 10.58 0.013 0 0
C_12765390074_11812221683_0 J_12765390074 J_11812221683 57.09 0.013 0 0
C_11826963022_11826963020_0 J_11826963022 J_11826963020 49.77 0.013 0 0
C_12961466032_12961466034_0 J_12961466032 J_12961466034 6.88 0.013 0 0
C_12961466032_1177705914_0 J_12961466032 J_1177705914 38.89 0.013 0 0
C_11934696261_11934696262_0 J_11934696261 J_11934696262 27.89 0.013 0 0
C_11934696262_11934696261_0 J_11934696262 J_11934696261 27.89 0.013 0 0
C_11934696262_13715446990_0 J_11934696262 J_13715446990 106.47 0.013 0 0
C_11934696262_11934696264_0 J_11934696262 J_11934696264 31.93 0.013 0 0
C_13715446990_11934696262_0 J_13715446990 J_11934696262 106.47 0.013 0 0
C_11934696264_11934696263_0 J_11934696264 J_11934696263 28.02 0.013 0 0
C_11934696264_11934696262_0 J_11934696264 J_11934696262 31.93 0.013 0 0
C_11934696264_13715446989_0 J_11934696264 J_13715446989 45.86 0.013 0 0
C_11934696263_11934696264_0 J_11934696263 J_11934696264 28.02 0.013 0 0
C_11944239436_11944239448_0 J_11944239436 J_11944239448 93.35 0.013 0 0
C_11944239436_11944239449_0 J_11944239436 J_11944239449 65.77 0.013 0 0
C_11944239436_11944239437_0 J_11944239436 J_11944239437 35.96 0.013 0 0
C_11944239436_11944239451_0 J_11944239436 J_11944239451 45.74 0.013 0 0
C_11944239448_11944239436_0 J_11944239448 J_11944239436 93.35 0.013 0 0
C_11944239449_11944239436_0 J_11944239449 J_11944239436 65.77 0.013 0 0
C_11944239437_11944239442_0 J_11944239437 J_11944239442 84.26 0.013 0 0
C_11944239437_11944239447_0 J_11944239437 J_11944239447 65.93 0.013 0 0
C_11944239437_11944239441_0 J_11944239437 J_11944239441 33.46 0.013 0 0
C_11944239437_11944239436_0 J_11944239437 J_11944239436 35.96 0.013 0 0
C_11944239442_11944239437_0 J_11944239442 J_11944239437 84.26 0.013 0 0
C_11944239447_11944239437_0 J_11944239447 J_11944239437 65.93 0.013 0 0
C_11944239441_11944239446_0 J_11944239441 J_11944239446 66.07 0.013 0 0
C_11944239441_11944239440_0 J_11944239441 J_11944239440 33.96 0.013 0 0
C_11944239441_11944239437_0 J_11944239441 J_11944239437 33.46 0.013 0 0
C_11944239438_11944239450_0 J_11944239438 J_11944239450 16.47 0.013 0 0
C_11944239450_11944239438_0 J_11944239450 J_11944239438 16.47 0.013 0 0
C_11944239450_11944239443_0 J_11944239450 J_11944239443 66.54 0.013 0 0
C_11944239450_11944239439_0 J_11944239450 J_11944239439 36.96 0.013 0 0
C_11944239439_11944239444_0 J_11944239439 J_11944239444 66.39 0.013 0 0
C_11944239439_11944239450_0 J_11944239439 J_11944239450 36.96 0.013 0 0
C_11944239439_11944239440_0 J_11944239439 J_11944239440 35.46 0.013 0 0
C_11944239444_11944239439_0 J_11944239444 J_11944239439 66.39 0.013 0 0
C_11944239440_11944239445_0 J_11944239440 J_11944239445 66.23 0.013 0 0
C_11944239440_11944239439_0 J_11944239440 J_11944239439 35.46 0.013 0 0
C_11944239440_11944239441_0 J_11944239440 J_11944239441 33.96 0.013 0 0
C_11944239445_11944239440_0 J_11944239445 J_11944239440 66.23 0.013 0 0
C_11944239446_11944239441_0 J_11944239446 J_11944239441 66.07 0.013 0 0
C_11944239443_11944239450_0 J_11944239443 J_11944239450 66.54 0.013 0 0
C_11951620623_12196582428_0 J_11951620623 J_12196582428 122.52 0.013 0 0
C_12078798117_12078798115_0 J_12078798117 J_12078798115 7.90 0.013 0 0
C_12078798117_11329623304_0 J_12078798117 J_11329623304 380.69 0.013 0 0
C_12151901680_12151901679_0 J_12151901680 J_12151901679 67.57 0.013 0 0
C_12155167317_12155167311_0 J_12155167317 J_12155167311 5.83 0.013 0 0
C_12155167316_12155167315_0 J_12155167316 J_12155167315 7.43 0.013 0 0
C_12157689025_12157689021_0 J_12157689025 J_12157689021 53.67 0.013 0 0
C_12180012792_12180012791_0 J_12180012792 J_12180012791 27.68 0.013 0 0
C_12180012793_12180012791_0 J_12180012793 J_12180012791 64.86 0.013 0 0
C_12185458378_1368801692_0 J_12185458378 J_1368801692 4.02 0.013 0 0
C_12186088998_1371807614_0 J_12186088998 J_1371807614 18.67 0.013 0 0
C_12187447576_12187447575_0 J_12187447576 J_12187447575 10.55 0.013 0 0
C_12196464673_12196464672_0 J_12196464673 J_12196464672 47.53 0.013 0 0
C_12196521967_12196521966_0 J_12196521967 J_12196521966 2.92 0.013 0 0
C_12206473572_12206473568_0 J_12206473572 J_12206473568 128.58 0.013 0 0
C_12210693585_12210693584_0 J_12210693585 J_12210693584 39.89 0.013 0 0
C_12393621581_12393621582_0 J_12393621581 J_12393621582 89.70 0.013 0 0
C_12604472596_12604472593_0 J_12604472596 J_12604472593 69.46 0.013 0 0
C_12696050650_12696050651_0 J_12696050650 J_12696050651 12.15 0.013 0 0
C_12696050650_307940137_0 J_12696050650 J_307940137 29.65 0.013 0 0
C_12697947084_12697947081_0 J_12697947084 J_12697947081 48.97 0.013 0 0
C_12698276488_12698276487_0 J_12698276488 J_12698276487 44.78 0.013 0 0
C_13645830500_12698276487_0 J_13645830500 J_12698276487 149.18 0.013 0 0
C_12732525820_13787035709_0 J_12732525820 J_13787035709 10.99 0.013 0 0
C_12732525820_13787010485_0 J_12732525820 J_13787010485 68.14 0.013 0 0
C_13787035709_12732525820_0 J_13787035709 J_12732525820 10.99 0.013 0 0
C_13787010485_13787010454_0 J_13787010485 J_13787010454 10.98 0.013 0 0
C_13787010485_13787010455_0 J_13787010485 J_13787010455 421.79 0.013 0 0
C_12918642841_12918642840_0 J_12918642841 J_12918642840 65.29 0.013 0 0
C_12961466031_12961466032_0 J_12961466031 J_12961466032 6.26 0.013 0 0
C_12961466031_11409454649_0 J_12961466031 J_11409454649 96.75 0.013 0 0
C_12997704925_12997704926_0 J_12997704925 J_12997704926 12.05 0.013 0 0
C_12997704925_12997704944_0 J_12997704925 J_12997704944 8.15 0.013 0 0
C_12997704925_13787010459_0 J_12997704925 J_13787010459 108.69 0.013 0 0
C_12997704926_12997704925_0 J_12997704926 J_12997704925 12.05 0.013 0 0
C_12997704926_12997704936_0 J_12997704926 J_12997704936 117.11 0.013 0 0
C_12997704944_12997704925_0 J_12997704944 J_12997704925 8.15 0.013 0 0
C_13787010459_13787010460_0 J_13787010459 J_13787010460 11.99 0.013 0 0
C_13787010459_13787010458_0 J_13787010459 J_13787010458 162.77 0.013 0 0
C_12999157123_12999157122_0 J_12999157123 J_12999157122 95.51 0.013 0 0
C_12999157125_12999157124_0 J_12999157125 J_12999157124 92.29 0.013 0 0
C_13041011653_13041011660_0 J_13041011653 J_13041011660 1.84 0.013 0 0
C_13041011654_13041011660_0 J_13041011654 J_13041011660 4.26 0.013 0 0
C_13041011658_13041011657_0 J_13041011658 J_13041011657 1.99 0.013 0 0
C_13041011659_13041011657_0 J_13041011659 J_13041011657 2.68 0.013 0 0
C_13041011662_13041011663_0 J_13041011662 J_13041011663 89.15 0.013 0 0
C_13041011664_13041011665_0 J_13041011664 J_13041011665 38.17 0.013 0 0
C_13041584928_13041584929_0 J_13041584928 J_13041584929 36.01 0.013 0 0
C_13064736701_13064733100_0 J_13064736701 J_13064733100 13.29 0.013 0 0
C_13098366975_13098366974_0 J_13098366975 J_13098366974 71.43 0.013 0 0
C_13127664188_13127664187_0 J_13127664188 J_13127664187 95.72 0.013 0 0
C_13127664193_13127664189_0 J_13127664193 J_13127664189 195.95 0.013 0 0
C_13127790409_13127790410_0 J_13127790409 J_13127790410 35.59 0.013 0 0
C_13127790410_13130332397_0 J_13127790410 J_13130332397 31.86 0.013 0 0
C_13127790410_13127790412_0 J_13127790410 J_13127790412 33.46 0.013 0 0
C_13127790410_13127790409_0 J_13127790410 J_13127790409 35.59 0.013 0 0
C_13127790411_13127790412_0 J_13127790411 J_13127790412 39.56 0.013 0 0
C_13130332396_13130332397_0 J_13130332396 J_13130332397 34.64 0.013 0 0
C_13149044766_13149044768_0 J_13149044766 J_13149044768 50.84 0.013 0 0
C_13149044767_13149044768_0 J_13149044767 J_13149044768 19.38 0.013 0 0
C_13152302109_13152302110_0 J_13152302109 J_13152302110 49.33 0.013 0 0
C_13360780445_13360780446_0 J_13360780445 J_13360780446 38.56 0.013 0 0
C_13607317195_13607317196_0 J_13607317195 J_13607317196 36.01 0.013 0 0
C_13645830523_13645830524_0 J_13645830523 J_13645830524 52.91 0.013 0 0
C_13645830523_13645830525_0 J_13645830523 J_13645830525 72.21 0.013 0 0
C_13645830523_13645830527_0 J_13645830523 J_13645830527 53.18 0.013 0 0
C_13645830524_13645830523_0 J_13645830524 J_13645830523 52.91 0.013 0 0
C_13645830525_13645830523_0 J_13645830525 J_13645830523 72.21 0.013 0 0
C_13645830526_13645830527_0 J_13645830526 J_13645830527 41.26 0.013 0 0
C_13654038306_13654038308_0 J_13654038306 J_13654038308 40.05 0.013 0 0
C_13654038432_13654038433_0 J_13654038432 J_13654038433 33.88 0.013 0 0
C_13655652478_13655652480_0 J_13655652478 J_13655652480 27.99 0.013 0 0
C_13655653224_13655653225_0 J_13655653224 J_13655653225 52.62 0.013 0 0
C_13667500009_13667500010_0 J_13667500009 J_13667500010 43.29 0.013 0 0
C_13787010454_13787010485_0 J_13787010454 J_13787010485 10.98 0.013 0 0
C_13787010454_13787035709_0 J_13787010454 J_13787035709 71.80 0.013 0 0
C_13787010455_13787010456_0 J_13787010455 J_13787010456 10.98 0.013 0 0
C_13787010455_13787010457_0 J_13787010455 J_13787010457 38.88 0.013 0 0
C_13787010456_13787010455_0 J_13787010456 J_13787010455 10.98 0.013 0 0
C_13787010456_13787010454_0 J_13787010456 J_13787010454 410.47 0.013 0 0
C_13787010457_13787010458_0 J_13787010457 J_13787010458 10.99 0.013 0 0
C_13787010457_13787010460_0 J_13787010457 J_13787010460 155.35 0.013 0 0
C_13787010458_13787010457_0 J_13787010458 J_13787010457 10.99 0.013 0 0
C_13787010458_13787010456_0 J_13787010458 J_13787010456 39.84 0.013 0 0
C_13787010460_13787010459_0 J_13787010460 J_13787010459 11.99 0.013 0 0
C_13787010460_12997704926_0 J_13787010460 J_12997704926 111.49 0.013 0 0
C_13807649465_13807649466_0 J_13807649465 J_13807649466 74.54 0.013 0 0
C_13807649549_13807649550_0 J_13807649549 J_13807649550 38.02 0.013 0 0
C_13811792565_13811792564_0 J_13811792565 J_13811792564 105.43 0.013 0 0
C_13830105943_13830105941_0 J_13830105943 J_13830105941 90.35 0.013 0 0
C_13830106010_13830106009_0 J_13830106010 J_13830106009 67.07 0.013 0 0
C_13830106176_13830106177_0 J_13830106176 J_13830106177 40.43 0.013 0 0
C_13830106203_13830106177_0 J_13830106203 J_13830106177 14.83 0.013 0 0
C_13830106203_13830106205_0 J_13830106203 J_13830106205 14.68 0.013 0 0
C_13830106203_13830106204_0 J_13830106203 J_13830106204 34.62 0.013 0 0
C_13830106204_13830106203_0 J_13830106204 J_13830106203 34.62 0.013 0 0
C_13830106206_13830106205_0 J_13830106206 J_13830106205 45.99 0.013 0 0
C_14072070988_14072070989_0 J_14072070988 J_14072070989 88.67 0.013 0 0
C_14074138182_14074138183_0 J_14074138182 J_14074138183 33.44 0.013 0 0
C_outfall J_11397632762 Outfall_1 10.00 0.013 0 0

[XSECTIONS]
;;Link Shape Geom1 Geom2 Geom3 Geom4 Barrels
C_251104955_1382528609_0 RECT_OPEN 1.0 1.5 0 0 1
C_251104955_11028310396_0 RECT_OPEN 1.0 1.5 0 0 1
C_1382528609_251104955_0 RECT_OPEN 1.0 1.5 0 0 1
C_11028310396_10312430299_0 RECT_OPEN 1.0 1.5 0 0 1
C_11028310396_11028255656_0 RECT_OPEN 1.0 1.5 0 0 1
C_251105277_6132933105_0 RECT_OPEN 1.0 1.5 0 0 1
C_251105277_253448544_0 RECT_OPEN 1.0 1.5 0 0 1
C_6132933105_4204925700_0 RECT_OPEN 1.0 1.5 0 0 1
C_6132933105_1080176721_0 RECT_OPEN 1.0 1.5 0 0 1
C_253448544_253448562_0 RECT_OPEN 1.0 1.5 0 0 1
C_253448544_251105277_0 RECT_OPEN 1.0 1.5 0 0 1
C_253448544_253448537_0 RECT_OPEN 1.0 1.5 0 0 1
C_251105285_10277091600_0 RECT_OPEN 1.0 1.5 0 0 1
C_251105285_1016228526_0 RECT_OPEN 1.0 1.5 0 0 1
C_10277091600_12157689023_0 RECT_OPEN 1.0 1.5 0 0 1
C_10277091600_12157689021_0 RECT_OPEN 1.0 1.5 0 0 1
C_1016228526_12196582428_0 RECT_OPEN 1.0 1.5 0 0 1
C_1016228526_1016228534_0 RECT_OPEN 1.0 1.5 0 0 1
C_1016228526_251105285_0 RECT_OPEN 1.0 1.5 0 0 1
C_251106545_6901363519_0 RECT_OPEN 1.0 1.5 0 0 1
C_251106545_251106828_0 RECT_OPEN 1.0 1.5 0 0 1
C_6901363519_6901363518_0 RECT_OPEN 1.0 1.5 0 0 1
C_6901363519_13360780446_0 RECT_OPEN 1.0 1.5 0 0 1
C_6901363519_251106545_0 RECT_OPEN 1.0 1.5 0 0 1
C_251106828_251106717_0 RECT_OPEN 1.0 1.5 0 0 1
C_251106828_6632652235_0 RECT_OPEN 1.0 1.5 0 0 1
C_251106717_13123179217_0 RECT_OPEN 1.0 1.5 0 0 1
C_251106717_13360780446_0 RECT_OPEN 1.0 1.5 0 0 1
C_251106717_251106828_0 RECT_OPEN 1.0 1.5 0 0 1
C_13123179217_251106717_0 RECT_OPEN 1.0 1.5 0 0 1
C_13123179217_5281691577_0 RECT_OPEN 1.0 1.5 0 0 1
C_13123179217_253447895_0 RECT_OPEN 1.0 1.5 0 0 1
C_13360780446_251106717_0 RECT_OPEN 1.0 1.5 0 0 1
C_13360780446_13360780445_0 RECT_OPEN 1.0 1.5 0 0 1
C_13360780446_6901363519_0 RECT_OPEN 1.0 1.5 0 0 1
C_6632652235_6632652240_0 RECT_OPEN 1.0 1.5 0 0 1
C_6632652235_6632652240_1 RECT_OPEN 1.0 1.5 0 0 1
C_253447895_9857850176_0 RECT_OPEN 1.0 1.5 0 0 1
C_253447895_13123179217_0 RECT_OPEN 1.0 1.5 0 0 1
C_253447895_12999157122_0 RECT_OPEN 1.0 1.5 0 0 1
C_253447895_10221065289_0 RECT_OPEN 1.0 1.5 0 0 1
C_9857850176_1262043909_0 RECT_OPEN 1.0 1.5 0 0 1
C_9857850176_1605954226_0 RECT_OPEN 1.0 1.5 0 0 1
C_9857850176_253447895_0 RECT_OPEN 1.0 1.5 0 0 1
C_12999157122_12999157124_0 RECT_OPEN 1.0 1.5 0 0 1
C_12999157122_12999157123_0 RECT_OPEN 1.0 1.5 0 0 1
C_12999157122_253447895_0 RECT_OPEN 1.0 1.5 0 0 1
C_10221065289_10221065294_0 RECT_OPEN 1.0 1.5 0 0 1
C_10221065289_10221065294_1 RECT_OPEN 1.0 1.5 0 0 1
C_10221065289_253447895_0 RECT_OPEN 1.0 1.5 0 0 1
C_253447898_253447899_0 RECT_OPEN 1.0 1.5 0 0 1
C_253447898_1605954226_0 RECT_OPEN 1.0 1.5 0 0 1
C_253447898_9700106334_0 RECT_OPEN 1.0 1.5 0 0 1
C_253447899_1262043911_0 RECT_OPEN 1.0 1.5 0 0 1
C_253447899_253447898_0 RECT_OPEN 1.0 1.5 0 0 1
C_253447899_5281691574_0 RECT_OPEN 1.0 1.5 0 0 1
C_1605954226_253447898_0 RECT_OPEN 1.0 1.5 0 0 1
C_1605954226_9857850176_0 RECT_OPEN 1.0 1.5 0 0 1
C_1605954226_1605954215_0 RECT_OPEN 1.0 1.5 0 0 1
C_9700106334_253447898_0 RECT_OPEN 1.0 1.5 0 0 1
C_1262043911_1262043932_0 RECT_OPEN 1.0 1.5 0 0 1
C_1262043911_253447899_0 RECT_OPEN 1.0 1.5 0 0 1
C_1262043911_9928560951_0 RECT_OPEN 1.0 1.5 0 0 1
C_5281691574_253447899_0 RECT_OPEN 1.0 1.5 0 0 1
C_253447903_12171179550_0 RECT_OPEN 1.0 1.5 0 0 1
C_253447903_9928560951_0 RECT_OPEN 1.0 1.5 0 0 1
C_12171179550_6884970118_0 RECT_OPEN 1.0 1.5 0 0 1
C_12171179550_13086731148_0 RECT_OPEN 1.0 1.5 0 0 1
C_9928560951_9928560952_0 RECT_OPEN 1.0 1.5 0 0 1
C_9928560951_253447903_0 RECT_OPEN 1.0 1.5 0 0 1
C_9928560951_1262043911_0 RECT_OPEN 1.0 1.5 0 0 1
C_253448523_5281691579_0 RECT_OPEN 1.0 1.5 0 0 1
C_253448523_5281842542_0 RECT_OPEN 1.0 1.5 0 0 1
C_253448523_253448524_0 RECT_OPEN 1.0 1.5 0 0 1
C_5281691579_253448523_0 RECT_OPEN 1.0 1.5 0 0 1
C_5281691579_5281842544_0 RECT_OPEN 1.0 1.5 0 0 1
C_5281691579_6632636571_0 RECT_OPEN 1.0 1.5 0 0 1
C_5281842542_253448523_0 RECT_OPEN 1.0 1.5 0 0 1
C_5281842542_5281842544_0 RECT_OPEN 1.0 1.5 0 0 1
C_5281842542_2048245857_0 RECT_OPEN 1.0 1.5 0 0 1
C_253448524_253448523_0 RECT_OPEN 1.0 1.5 0 0 1
C_253448524_1470833614_0 RECT_OPEN 1.0 1.5 0 0 1
C_253448524_5281842558_0 RECT_OPEN 1.0 1.5 0 0 1
C_1470833614_1470833636_0 RECT_OPEN 1.0 1.5 0 0 1
C_1470833614_1470833628_0 RECT_OPEN 1.0 1.5 0 0 1
C_1470833614_253448524_0 RECT_OPEN 1.0 1.5 0 0 1
C_5281842558_5281842557_0 RECT_OPEN 1.0 1.5 0 0 1
C_5281842558_253449679_0 RECT_OPEN 1.0 1.5 0 0 1
C_5281842558_253448524_0 RECT_OPEN 1.0 1.5 0 0 1
C_253448537_1492407638_0 RECT_OPEN 1.0 1.5 0 0 1
C_253448537_253448549_0 RECT_OPEN 1.0 1.5 0 0 1
C_253448537_253448544_0 RECT_OPEN 1.0 1.5 0 0 1
C_1492407638_1492407651_0 RECT_OPEN 1.0 1.5 0 0 1
C_1492407638_1492407663_0 RECT_OPEN 1.0 1.5 0 0 1
C_1492407638_253448537_0 RECT_OPEN 1.0 1.5 0 0 1
C_253448549_253448573_0 RECT_OPEN 1.0 1.5 0 0 1
C_253448549_253448537_0 RECT_OPEN 1.0 1.5 0 0 1
C_253448549_1368117314_0 RECT_OPEN 1.0 1.5 0 0 1
C_253448562_253448544_0 RECT_OPEN 1.0 1.5 0 0 1
C_253448562_1368117329_0 RECT_OPEN 1.0 1.5 0 0 1
C_253448562_253448573_0 RECT_OPEN 1.0 1.5 0 0 1
C_253448573_253448562_0 RECT_OPEN 1.0 1.5 0 0 1
C_253448573_254442569_0 RECT_OPEN 1.0 1.5 0 0 1
C_253448573_253448549_0 RECT_OPEN 1.0 1.5 0 0 1
C_1368117314_1368828980_0 RECT_OPEN 1.0 1.5 0 0 1
C_1368117314_253448549_0 RECT_OPEN 1.0 1.5 0 0 1
C_1368117314_1368117346_0 RECT_OPEN 1.0 1.5 0 0 1
C_253448561_1367922236_0 RECT_OPEN 1.0 1.5 0 0 1
C_253448561_253448582_0 RECT_OPEN 1.0 1.5 0 0 1
C_1367922236_1694231929_0 RECT_OPEN 1.0 1.5 0 0 1
C_1367922236_1472791625_0 RECT_OPEN 1.0 1.5 0 0 1
C_1367922236_253448561_0 RECT_OPEN 1.0 1.5 0 0 1
C_253448582_1694231929_0 RECT_OPEN 1.0 1.5 0 0 1
C_253448582_1368117387_0 RECT_OPEN 1.0 1.5 0 0 1
C_1368117329_253448566_0 RECT_OPEN 1.0 1.5 0 0 1
C_1368117329_253448562_0 RECT_OPEN 1.0 1.5 0 0 1
C_1368117329_1368117387_0 RECT_OPEN 1.0 1.5 0 0 1
C_253448566_254442569_0 RECT_OPEN 1.0 1.5 0 0 1
C_253448566_1368117329_0 RECT_OPEN 1.0 1.5 0 0 1
C_253448566_1694231929_0 RECT_OPEN 1.0 1.5 0 0 1
C_254442569_254442570_0 RECT_OPEN 1.0 1.5 0 0 1
C_254442569_253448573_0 RECT_OPEN 1.0 1.5 0 0 1
C_254442569_253448566_0 RECT_OPEN 1.0 1.5 0 0 1
C_1694231929_253448582_0 RECT_OPEN 1.0 1.5 0 0 1
C_1694231929_253448566_0 RECT_OPEN 1.0 1.5 0 0 1
C_1694231929_1367922236_0 RECT_OPEN 1.0 1.5 0 0 1
C_1368117387_251105277_0 RECT_OPEN 1.0 1.5 0 0 1
C_1368117387_1368117329_0 RECT_OPEN 1.0 1.5 0 0 1
C_253449679_13811792564_0 RECT_OPEN 1.0 1.5 0 0 1
C_253449679_5281842558_0 RECT_OPEN 1.0 1.5 0 0 1
C_253449679_2048245857_0 RECT_OPEN 1.0 1.5 0 0 1
C_13811792564_13811792565_0 RECT_OPEN 1.0 1.5 0 0 1
C_13811792564_5281842560_0 RECT_OPEN 1.0 1.5 0 0 1
C_13811792564_253449679_0 RECT_OPEN 1.0 1.5 0 0 1
C_2048245857_253449679_0 RECT_OPEN 1.0 1.5 0 0 1
C_2048245857_5281842542_0 RECT_OPEN 1.0 1.5 0 0 1
C_2048245857_2048245859_0 RECT_OPEN 1.0 1.5 0 0 1
C_253449681_10731123199_0 RECT_OPEN 1.0 1.5 0 0 1
C_253449681_7466386855_0 RECT_OPEN 1.0 1.5 0 0 1
C_253449681_5281842562_0 RECT_OPEN 1.0 1.5 0 0 1
C_10731123199_253449681_0 RECT_OPEN 1.0 1.5 0 0 1
C_10731123199_10731123200_0 RECT_OPEN 1.0 1.5 0 0 1
C_10731123199_253449683_0 RECT_OPEN 1.0 1.5 0 0 1
C_7466386855_253449681_0 RECT_OPEN 1.0 1.5 0 0 1
C_5281842562_5281842560_0 RECT_OPEN 1.0 1.5 0 0 1
C_5281842562_5281842561_0 RECT_OPEN 1.0 1.5 0 0 1
C_5281842562_253449681_0 RECT_OPEN 1.0 1.5 0 0 1
C_253449683_1492407642_0 RECT_OPEN 1.0 1.5 0 0 1
C_253449683_10731123199_0 RECT_OPEN 1.0 1.5 0 0 1
C_253449683_11002574624_0 RECT_OPEN 1.0 1.5 0 0 1
C_1492407642_253449686_0 RECT_OPEN 1.0 1.5 0 0 1
C_1492407642_253449683_0 RECT_OPEN 1.0 1.5 0 0 1
C_1492407642_10017481091_0 RECT_OPEN 1.0 1.5 0 0 1
C_1492407642_1634931733_0 RECT_OPEN 1.0 1.5 0 0 1
C_11002574624_253449683_0 RECT_OPEN 1.0 1.5 0 0 1
C_253449686_7466386858_0 RECT_OPEN 1.0 1.5 0 0 1
C_253449686_7466386856_0 RECT_OPEN 1.0 1.5 0 0 1
C_253449686_9870086764_0 RECT_OPEN 1.0 1.5 0 0 1
C_253449686_1492407642_0 RECT_OPEN 1.0 1.5 0 0 1
C_7466386858_253449686_0 RECT_OPEN 1.0 1.5 0 0 1
C_7466386858_10017481078_0 RECT_OPEN 1.0 1.5 0 0 1
C_7466386858_10017481082_0 RECT_OPEN 1.0 1.5 0 0 1
C_7466386856_253449686_0 RECT_OPEN 1.0 1.5 0 0 1
C_9870086764_9870086766_0 RECT_OPEN 1.0 1.5 0 0 1
C_9870086764_5281842564_0 RECT_OPEN 1.0 1.5 0 0 1
C_9870086764_253449686_0 RECT_OPEN 1.0 1.5 0 0 1
C_253449692_10044811668_0 RECT_OPEN 1.0 1.5 0 0 1
C_253449692_253449698_0 RECT_OPEN 1.0 1.5 0 0 1
C_253449692_10017481089_0 RECT_OPEN 1.0 1.5 0 0 1
C_10044811668_253449692_0 RECT_OPEN 1.0 1.5 0 0 1
C_253449698_9992581195_0 RECT_OPEN 1.0 1.5 0 0 1
C_253449698_5931305385_0 RECT_OPEN 1.0 1.5 0 0 1
C_253449698_253449692_0 RECT_OPEN 1.0 1.5 0 0 1
C_10017481089_5281842564_0 RECT_OPEN 1.0 1.5 0 0 1
C_10017481089_10017481090_0 RECT_OPEN 1.0 1.5 0 0 1
C_10017481089_253449692_0 RECT_OPEN 1.0 1.5 0 0 1
C_9992581195_253449698_0 RECT_OPEN 1.0 1.5 0 0 1
C_9992581195_10017481116_0 RECT_OPEN 1.0 1.5 0 0 1
C_9992581195_9992581197_0 RECT_OPEN 1.0 1.5 0 0 1
C_5931305385_253532871_0 RECT_OPEN 1.0 1.5 0 0 1
C_5931305385_253449698_0 RECT_OPEN 1.0 1.5 0 0 1
C_5931305385_10038712736_0 RECT_OPEN 1.0 1.5 0 0 1
C_253452075_6901407760_0 RECT_OPEN 1.0 1.5 0 0 1
C_253452075_1382528655_0 RECT_OPEN 1.0 1.5 0 0 1
C_253452075_7137902395_0 RECT_OPEN 1.0 1.5 0 0 1
C_6901407760_253452075_0 RECT_OPEN 1.0 1.5 0 0 1
C_1382528655_1382528609_0 RECT_OPEN 1.0 1.5 0 0 1
C_7137902395_3957948342_0 RECT_OPEN 1.0 1.5 0 0 1
C_7137902395_253452075_0 RECT_OPEN 1.0 1.5 0 0 1
C_7137902395_10719511590_0 RECT_OPEN 1.0 1.5 0 0 1
C_253452077_3957948342_0 RECT_OPEN 1.0 1.5 0 0 1
C_253452077_12155167311_0 RECT_OPEN 1.0 1.5 0 0 1
C_253452077_7466386863_0 RECT_OPEN 1.0 1.5 0 0 1
C_3957948342_253452077_0 RECT_OPEN 1.0 1.5 0 0 1
C_3957948342_2048245856_0 RECT_OPEN 1.0 1.5 0 0 1
C_3957948342_7137902395_0 RECT_OPEN 1.0 1.5 0 0 1
C_12155167311_12155167317_0 RECT_OPEN 1.0 1.5 0 0 1
C_12155167311_12155167315_0 RECT_OPEN 1.0 1.5 0 0 1
C_12155167311_253452077_0 RECT_OPEN 1.0 1.5 0 0 1
C_7466386863_253452077_0 RECT_OPEN 1.0 1.5 0 0 1
C_253532871_253532914_0 RECT_OPEN 1.0 1.5 0 0 1
C_253532871_5931305385_0 RECT_OPEN 1.0 1.5 0 0 1
C_253532871_5281842567_0 RECT_OPEN 1.0 1.5 0 0 1
C_253532914_253532871_0 RECT_OPEN 1.0 1.5 0 0 1
C_253532914_11135547223_0 RECT_OPEN 1.0 1.5 0 0 1
C_253532914_3545987055_0 RECT_OPEN 1.0 1.5 0 0 1
C_5281842567_5281842568_0 RECT_OPEN 1.0 1.5 0 0 1
C_5281842567_253532871_0 RECT_OPEN 1.0 1.5 0 0 1
C_5281842567_1443044904_0 RECT_OPEN 1.0 1.5 0 0 1
C_253532874_3545987055_0 RECT_OPEN 1.0 1.5 0 0 1
C_253532874_12206473568_0 RECT_OPEN 1.0 1.5 0 0 1
C_253532874_7121386221_0 RECT_OPEN 1.0 1.5 0 0 1
C_3545987055_253532874_0 RECT_OPEN 1.0 1.5 0 0 1
C_3545987055_253532896_0 RECT_OPEN 1.0 1.5 0 0 1
C_3545987055_253532914_0 RECT_OPEN 1.0 1.5 0 0 1
C_3545987055_3545987056_0 RECT_OPEN 1.0 1.5 0 0 1
C_12206473568_11003036767_0 RECT_OPEN 1.0 1.5 0 0 1
C_12206473568_253532874_0 RECT_OPEN 1.0 1.5 0 0 1
C_12206473568_12206473572_0 RECT_OPEN 1.0 1.5 0 0 1
C_7121386221_1368933536_0 RECT_OPEN 1.0 1.5 0 0 1
C_7121386221_253532874_0 RECT_OPEN 1.0 1.5 0 0 1
C_7121386221_7121386231_0 RECT_OPEN 1.0 1.5 0 0 1
C_253532894_11399419950_0 RECT_OPEN 1.0 1.5 0 0 1
C_253532894_7101760803_0 RECT_OPEN 1.0 1.5 0 0 1
C_253532894_1634932079_0 RECT_OPEN 1.0 1.5 0 0 1
C_11399419950_11826963020_0 RECT_OPEN 1.0 1.5 0 0 1
C_11399419950_1505269133_0 RECT_OPEN 1.0 1.5 0 0 1
C_11399419950_253532894_0 RECT_OPEN 1.0 1.5 0 0 1
C_7101760803_253532896_0 RECT_OPEN 1.0 1.5 0 0 1
C_7101760803_11021627219_0 RECT_OPEN 1.0 1.5 0 0 1
C_7101760803_253532894_0 RECT_OPEN 1.0 1.5 0 0 1
C_7101760803_11135547223_0 RECT_OPEN 1.0 1.5 0 0 1
C_1634932079_5281842568_0 RECT_OPEN 1.0 1.5 0 0 1
C_1634932079_253532894_0 RECT_OPEN 1.0 1.5 0 0 1
C_1634932079_5281842566_0 RECT_OPEN 1.0 1.5 0 0 1
C_253532896_3545987055_0 RECT_OPEN 1.0 1.5 0 0 1
C_253532896_7101760803_0 RECT_OPEN 1.0 1.5 0 0 1
C_253532896_11021627219_0 RECT_OPEN 1.0 1.5 0 0 1
C_11021627219_7101760803_0 RECT_OPEN 1.0 1.5 0 0 1
C_11021627219_11826963020_0 RECT_OPEN 1.0 1.5 0 0 1
C_11021627219_253532896_0 RECT_OPEN 1.0 1.5 0 0 1
C_253532905_7298289272_0 RECT_OPEN 1.0 1.5 0 0 1
C_253532905_253532978_0 RECT_OPEN 1.0 1.5 0 0 1
C_253532905_253532910_0 RECT_OPEN 1.0 1.5 0 0 1
C_7298289272_253532905_0 RECT_OPEN 1.0 1.5 0 0 1
C_7298289272_1634931831_0 RECT_OPEN 1.0 1.5 0 0 1
C_7298289272_7298289269_0 RECT_OPEN 1.0 1.5 0 0 1
C_253532978_331146193_0 RECT_OPEN 1.0 1.5 0 0 1
C_253532978_253532905_0 RECT_OPEN 1.0 1.5 0 0 1
C_253532978_253532971_0 RECT_OPEN 1.0 1.5 0 0 1
C_253532910_11021478367_0 RECT_OPEN 1.0 1.5 0 0 1
C_253532910_253532905_0 RECT_OPEN 1.0 1.5 0 0 1
C_253532910_1103017558_0 RECT_OPEN 1.0 1.5 0 0 1
C_11021478367_253532910_0 RECT_OPEN 1.0 1.5 0 0 1
C_11021478367_7291147483_0 RECT_OPEN 1.0 1.5 0 0 1
C_11021478367_11021478368_0 RECT_OPEN 1.0 1.5 0 0 1
C_1103017558_253532910_0 RECT_OPEN 1.0 1.5 0 0 1
C_1103017558_11021437035_0 RECT_OPEN 1.0 1.5 0 0 1
C_1103017558_11021437031_0 RECT_OPEN 1.0 1.5 0 0 1
C_11135547223_7101760800_0 RECT_OPEN 1.0 1.5 0 0 1
C_11135547223_253532914_0 RECT_OPEN 1.0 1.5 0 0 1
C_11135547223_7101760803_0 RECT_OPEN 1.0 1.5 0 0 1
C_253532931_11434296179_0 RECT_OPEN 1.0 1.5 0 0 1
C_253532931_253532934_0 RECT_OPEN 1.0 1.5 0 0 1
C_253532931_1443044870_0 RECT_OPEN 1.0 1.5 0 0 1
C_11434296179_12918642840_0 RECT_OPEN 1.0 1.5 0 0 1
C_11434296179_253532931_0 RECT_OPEN 1.0 1.5 0 0 1
C_11434296179_10038782704_0 RECT_OPEN 1.0 1.5 0 0 1
C_253532934_3530426108_0 RECT_OPEN 1.0 1.5 0 0 1
C_253532934_11002801404_0 RECT_OPEN 1.0 1.5 0 0 1
C_253532934_253532931_0 RECT_OPEN 1.0 1.5 0 0 1
C_1443044870_7298289268_0 RECT_OPEN 1.0 1.5 0 0 1
C_1443044870_253532931_0 RECT_OPEN 1.0 1.5 0 0 1
C_1443044870_1443044865_0 RECT_OPEN 1.0 1.5 0 0 1
C_3530426108_253532934_0 RECT_OPEN 1.0 1.5 0 0 1
C_3530426108_13130886315_0 RECT_OPEN 1.0 1.5 0 0 1
C_11002801404_11002890405_0 RECT_OPEN 1.0 1.5 0 0 1
C_11002801404_7101760813_0 RECT_OPEN 1.0 1.5 0 0 1
C_11002801404_253532934_0 RECT_OPEN 1.0 1.5 0 0 1
C_253532971_11121286748_0 RECT_OPEN 1.0 1.5 0 0 1
C_253532971_253532978_0 RECT_OPEN 1.0 1.5 0 0 1
C_253532971_11002878595_0 RECT_OPEN 1.0 1.5 0 0 1
C_11121286748_11021454465_0 RECT_OPEN 1.0 1.5 0 0 1
C_11121286748_11121286749_0 RECT_OPEN 1.0 1.5 0 0 1
C_11121286748_253532971_0 RECT_OPEN 1.0 1.5 0 0 1
C_11002878595_253532971_0 RECT_OPEN 1.0 1.5 0 0 1
C_331146193_7291167555_0 RECT_OPEN 1.0 1.5 0 0 1
C_331146193_253532978_0 RECT_OPEN 1.0 1.5 0 0 1
C_331146193_1368829030_0 RECT_OPEN 1.0 1.5 0 0 1
C_254442570_254442569_0 RECT_OPEN 1.0 1.5 0 0 1
C_254442570_1590229386_0 RECT_OPEN 1.0 1.5 0 0 1
C_254442570_1367922212_0 RECT_OPEN 1.0 1.5 0 0 1
C_254442570_1472791625_0 RECT_OPEN 1.0 1.5 0 0 1
C_1590229386_1470833642_0 RECT_OPEN 1.0 1.5 0 0 1
C_1590229386_1590229329_0 RECT_OPEN 1.0 1.5 0 0 1
C_1590229386_254442570_0 RECT_OPEN 1.0 1.5 0 0 1
C_1367922212_1634931753_0 RECT_OPEN 1.0 1.5 0 0 1
C_1367922212_1368117346_0 RECT_OPEN 1.0 1.5 0 0 1
C_1367922212_254442570_0 RECT_OPEN 1.0 1.5 0 0 1
C_1472791625_11182447927_0 RECT_OPEN 1.0 1.5 0 0 1
C_1472791625_254442570_0 RECT_OPEN 1.0 1.5 0 0 1
C_1472791625_1367922236_0 RECT_OPEN 1.0 1.5 0 0 1
C_307940137_9645445129_0 RECT_OPEN 1.0 1.5 0 0 1
C_307940137_1434089177_0 RECT_OPEN 1.0 1.5 0 0 1
C_9645445129_9645445153_0 RECT_OPEN 1.0 1.5 0 0 1
C_1434089177_1585741084_0 RECT_OPEN 1.0 1.5 0 0 1
C_320240652_1371807641_0 RECT_OPEN 1.0 1.5 0 0 1
C_320240652_1371807634_0 RECT_OPEN 1.0 1.5 0 0 1
C_320240652_9700074489_0 RECT_OPEN 1.0 1.5 0 0 1
C_1371807641_1371807645_0 RECT_OPEN 1.0 1.5 0 0 1
C_1371807641_3530277755_0 RECT_OPEN 1.0 1.5 0 0 1
C_1371807641_320240652_0 RECT_OPEN 1.0 1.5 0 0 1
C_1371807641_1371807657_0 RECT_OPEN 1.0 1.5 0 0 1
C_1371807634_320240652_0 RECT_OPEN 1.0 1.5 0 0 1
C_1371807634_11021417755_0 RECT_OPEN 1.0 1.5 0 0 1
C_1371807634_13654038308_0 RECT_OPEN 1.0 1.5 0 0 1
C_9700074489_320240654_0 RECT_OPEN 1.0 1.5 0 0 1
C_9700074489_11015641079_0 RECT_OPEN 1.0 1.5 0 0 1
C_9700074489_320240652_0 RECT_OPEN 1.0 1.5 0 0 1
C_320240654_1371807648_0 RECT_OPEN 1.0 1.5 0 0 1
C_320240654_320240656_0 RECT_OPEN 1.0 1.5 0 0 1
C_320240654_9700074489_0 RECT_OPEN 1.0 1.5 0 0 1
C_320240654_6193957625_0 RECT_OPEN 1.0 1.5 0 0 1
C_1371807648_320240654_0 RECT_OPEN 1.0 1.5 0 0 1
C_320240656_12141933091_0 RECT_OPEN 1.0 1.5 0 0 1
C_320240656_320240654_0 RECT_OPEN 1.0 1.5 0 0 1
C_320240656_11027638241_0 RECT_OPEN 1.0 1.5 0 0 1
C_6193957625_320240654_0 RECT_OPEN 1.0 1.5 0 0 1
C_6193957625_11015706619_0 RECT_OPEN 1.0 1.5 0 0 1
C_6193957625_13130422494_0 RECT_OPEN 1.0 1.5 0 0 1
C_12141933091_1371807542_0 RECT_OPEN 1.0 1.5 0 0 1
C_12141933091_320240656_0 RECT_OPEN 1.0 1.5 0 0 1
C_12141933091_12141933090_0 RECT_OPEN 1.0 1.5 0 0 1
C_11027638241_11027638242_0 RECT_OPEN 1.0 1.5 0 0 1
C_11027638241_2376774417_0 RECT_OPEN 1.0 1.5 0 0 1
C_11027638241_320240656_0 RECT_OPEN 1.0 1.5 0 0 1
C_320241385_6182692049_0 RECT_OPEN 1.0 1.5 0 0 1
C_320241385_11015226548_0 RECT_OPEN 1.0 1.5 0 0 1
C_320241385_11021479825_0 RECT_OPEN 1.0 1.5 0 0 1
C_6182692049_320241385_0 RECT_OPEN 1.0 1.5 0 0 1
C_6182692049_11419448879_0 RECT_OPEN 1.0 1.5 0 0 1
C_6182692049_11021479822_0 RECT_OPEN 1.0 1.5 0 0 1
C_11015226548_2225133167_0 RECT_OPEN 1.0 1.5 0 0 1
C_11015226548_320241385_0 RECT_OPEN 1.0 1.5 0 0 1
C_11015226548_11015226553_0 RECT_OPEN 1.0 1.5 0 0 1
C_11021479825_11021479822_0 RECT_OPEN 1.0 1.5 0 0 1
C_11021479825_320241385_0 RECT_OPEN 1.0 1.5 0 0 1
C_11021479825_5281842523_0 RECT_OPEN 1.0 1.5 0 0 1
C_320241388_1514989637_0 RECT_OPEN 1.0 1.5 0 0 1
C_320241388_7452692543_0 RECT_OPEN 1.0 1.5 0 0 1
C_320241388_2225133166_0 RECT_OPEN 1.0 1.5 0 0 1
C_1514989637_1514989648_0 RECT_OPEN 1.0 1.5 0 0 1
C_1514989637_320241388_0 RECT_OPEN 1.0 1.5 0 0 1
C_1514989637_11015173157_0 RECT_OPEN 1.0 1.5 0 0 1
C_7452692543_320241390_0 RECT_OPEN 1.0 1.5 0 0 1
C_7452692543_320241388_0 RECT_OPEN 1.0 1.5 0 0 1
C_7452692543_11015166119_0 RECT_OPEN 1.0 1.5 0 0 1
C_2225133166_320241388_0 RECT_OPEN 1.0 1.5 0 0 1
C_2225133166_1371807596_0 RECT_OPEN 1.0 1.5 0 0 1
C_2225133166_11434512223_0 RECT_OPEN 1.0 1.5 0 0 1
C_320241390_4458722678_0 RECT_OPEN 1.0 1.5 0 0 1
C_320241390_7452692543_0 RECT_OPEN 1.0 1.5 0 0 1
C_320241390_6194091031_0 RECT_OPEN 1.0 1.5 0 0 1
C_4458722678_320241390_0 RECT_OPEN 1.0 1.5 0 0 1
C_6194091031_7452692538_0 RECT_OPEN 1.0 1.5 0 0 1
C_6194091031_4458722689_0 RECT_OPEN 1.0 1.5 0 0 1
C_6194091031_320241390_0 RECT_OPEN 1.0 1.5 0 0 1
C_320242565_7453315390_0 RECT_OPEN 1.0 1.5 0 0 1
C_320242565_4458722615_0 RECT_OPEN 1.0 1.5 0 0 1
C_320242565_4458722596_0 RECT_OPEN 1.0 1.5 0 0 1
C_320242565_1514989618_0 RECT_OPEN 1.0 1.5 0 0 1
C_7453315390_7453315391_0 RECT_OPEN 1.0 1.5 0 0 1
C_7453315390_4458722572_0 RECT_OPEN 1.0 1.5 0 0 1
C_7453315390_320242565_0 RECT_OPEN 1.0 1.5 0 0 1
C_7453315390_7453315387_0 RECT_OPEN 1.0 1.5 0 0 1
C_4458722615_4458722553_0 RECT_OPEN 1.0 1.5 0 0 1
C_4458722615_320242565_0 RECT_OPEN 1.0 1.5 0 0 1
C_4458722615_11015153616_0 RECT_OPEN 1.0 1.5 0 0 1
C_4458722596_7138383902_0 RECT_OPEN 1.0 1.5 0 0 1
C_4458722596_320242565_0 RECT_OPEN 1.0 1.5 0 0 1
C_4458722596_11419446866_0 RECT_OPEN 1.0 1.5 0 0 1
C_1514989618_4458722643_0 RECT_OPEN 1.0 1.5 0 0 1
C_1514989618_320242565_0 RECT_OPEN 1.0 1.5 0 0 1
C_1514989618_4458722689_0 RECT_OPEN 1.0 1.5 0 0 1
C_320242567_4458722572_0 RECT_OPEN 1.0 1.5 0 0 1
C_320242567_6177428350_0 RECT_OPEN 1.0 1.5 0 0 1
C_320242567_7453315312_0 RECT_OPEN 1.0 1.5 0 0 1
C_4458722572_320242567_0 RECT_OPEN 1.0 1.5 0 0 1
C_4458722572_7453315390_0 RECT_OPEN 1.0 1.5 0 0 1
C_4458722572_7452673912_0 RECT_OPEN 1.0 1.5 0 0 1
C_6177428350_9899714417_0 RECT_OPEN 1.0 1.5 0 0 1
C_6177428350_6177428349_0 RECT_OPEN 1.0 1.5 0 0 1
C_6177428350_320242567_0 RECT_OPEN 1.0 1.5 0 0 1
C_7453315312_6749434106_0 RECT_OPEN 1.0 1.5 0 0 1
C_7453315312_320242567_0 RECT_OPEN 1.0 1.5 0 0 1
C_7453315312_7453315313_0 RECT_OPEN 1.0 1.5 0 0 1
C_320242571_7453315398_0 RECT_OPEN 1.0 1.5 0 0 1
C_320242571_2225133290_0 RECT_OPEN 1.0 1.5 0 0 1
C_320242571_6904168224_0 RECT_OPEN 1.0 1.5 0 0 1
C_7453315398_6904168225_0 RECT_OPEN 1.0 1.5 0 0 1
C_7453315398_320242571_0 RECT_OPEN 1.0 1.5 0 0 1
C_7453315398_7453315399_0 RECT_OPEN 1.0 1.5 0 0 1
C_2225133290_320242571_0 RECT_OPEN 1.0 1.5 0 0 1
C_2225133290_7453315392_0 RECT_OPEN 1.0 1.5 0 0 1
C_2225133290_2225133309_0 RECT_OPEN 1.0 1.5 0 0 1
C_6904168224_320242571_0 RECT_OPEN 1.0 1.5 0 0 1
C_320242582_6182547032_0 RECT_OPEN 1.0 1.5 0 0 1
C_320242582_6751829037_0 RECT_OPEN 1.0 1.5 0 0 1
C_320242582_2225133544_0 RECT_OPEN 1.0 1.5 0 0 1
C_6182547032_11021465194_0 RECT_OPEN 1.0 1.5 0 0 1
C_6182547032_320242582_0 RECT_OPEN 1.0 1.5 0 0 1
C_6182547032_11021533254_0 RECT_OPEN 1.0 1.5 0 0 1
C_6182547032_1759857345_0 RECT_OPEN 1.0 1.5 0 0 1
C_6751829037_320242582_0 RECT_OPEN 1.0 1.5 0 0 1
C_2225133544_7263139539_0 RECT_OPEN 1.0 1.5 0 0 1
C_2225133544_320242582_0 RECT_OPEN 1.0 1.5 0 0 1
C_2225133544_2225133551_0 RECT_OPEN 1.0 1.5 0 0 1
C_320242587_1347565272_0 RECT_OPEN 1.0 1.5 0 0 1
C_320242587_7465456804_0 RECT_OPEN 1.0 1.5 0 0 1
C_320242587_7138383916_0 RECT_OPEN 1.0 1.5 0 0 1
C_1347565272_320242587_0 RECT_OPEN 1.0 1.5 0 0 1
C_1347565272_7465456816_0 RECT_OPEN 1.0 1.5 0 0 1
C_1347565272_11021533254_0 RECT_OPEN 1.0 1.5 0 0 1
C_7465456804_11021578456_0 RECT_OPEN 1.0 1.5 0 0 1
C_7465456804_320242587_0 RECT_OPEN 1.0 1.5 0 0 1
C_7465456804_7465456803_0 RECT_OPEN 1.0 1.5 0 0 1
C_7138383916_1759857345_0 RECT_OPEN 1.0 1.5 0 0 1
C_7138383916_7138383912_0 RECT_OPEN 1.0 1.5 0 0 1
C_7138383916_320242587_0 RECT_OPEN 1.0 1.5 0 0 1
C_320242814_6901280942_0 RECT_OPEN 1.0 1.5 0 0 1
C_320242814_1371816433_0 RECT_OPEN 1.0 1.5 0 0 1
C_320242814_6758593405_0 RECT_OPEN 1.0 1.5 0 0 1
C_6901280942_320242814_0 RECT_OPEN 1.0 1.5 0 0 1
C_6901280942_11944239451_0 RECT_OPEN 1.0 1.5 0 0 1
C_6901280942_12187502877_0 RECT_OPEN 1.0 1.5 0 0 1
C_1371816433_4730103812_0 RECT_OPEN 1.0 1.5 0 0 1
C_1371816433_320242814_0 RECT_OPEN 1.0 1.5 0 0 1
C_1371816433_1371816435_0 RECT_OPEN 1.0 1.5 0 0 1
C_6758593405_6758593404_0 RECT_OPEN 1.0 1.5 0 0 1
C_6758593405_6902150001_0 RECT_OPEN 1.0 1.5 0 0 1
C_320242815_1371816389_0 RECT_OPEN 1.0 1.5 0 0 1
C_320242815_11885729668_0 RECT_OPEN 1.0 1.5 0 0 1
C_320242815_1371816411_0 RECT_OPEN 1.0 1.5 0 0 1
C_1371816389_1371816450_0 RECT_OPEN 1.0 1.5 0 0 1
C_1371816389_320242815_0 RECT_OPEN 1.0 1.5 0 0 1
C_1371816389_1371816422_0 RECT_OPEN 1.0 1.5 0 0 1
C_1371816389_1371816419_0 RECT_OPEN 1.0 1.5 0 0 1
C_11885729668_320242815_0 RECT_OPEN 1.0 1.5 0 0 1
C_11885729668_6901280956_0 RECT_OPEN 1.0 1.5 0 0 1
C_1371816411_1371816419_0 RECT_OPEN 1.0 1.5 0 0 1
C_1371816411_11885696210_0 RECT_OPEN 1.0 1.5 0 0 1
C_1371816411_1177705626_0 RECT_OPEN 1.0 1.5 0 0 1
C_320242819_6748996048_0 RECT_OPEN 1.0 1.5 0 0 1
C_320242819_11021428239_0 RECT_OPEN 1.0 1.5 0 0 1
C_320242819_2225133701_0 RECT_OPEN 1.0 1.5 0 0 1
C_6748996048_6748996047_0 RECT_OPEN 1.0 1.5 0 0 1
C_6748996048_6748996075_0 RECT_OPEN 1.0 1.5 0 0 1
C_6748996048_320242819_0 RECT_OPEN 1.0 1.5 0 0 1
C_11021428239_320242819_0 RECT_OPEN 1.0 1.5 0 0 1
C_11021428239_1384732709_0 RECT_OPEN 1.0 1.5 0 0 1
C_11021428239_11021428252_0 RECT_OPEN 1.0 1.5 0 0 1
C_2225133701_9982048431_0 RECT_OPEN 1.0 1.5 0 0 1
C_2225133701_6748996026_0 RECT_OPEN 1.0 1.5 0 0 1
C_2225133701_11846741326_0 RECT_OPEN 1.0 1.5 0 0 1
C_7291167555_331146193_0 RECT_OPEN 1.0 1.5 0 0 1
C_7291167555_1589223971_0 RECT_OPEN 1.0 1.5 0 0 1
C_7291167555_10991796882_0 RECT_OPEN 1.0 1.5 0 0 1
C_1368829030_1368828996_0 RECT_OPEN 1.0 1.5 0 0 1
C_1368829030_331146193_0 RECT_OPEN 1.0 1.5 0 0 1
C_1368829030_2066388564_0 RECT_OPEN 1.0 1.5 0 0 1
C_331146194_14072070989_0 RECT_OPEN 1.0 1.5 0 0 1
C_331146194_331146195_0 RECT_OPEN 1.0 1.5 0 0 1
C_331146194_12998590069_0 RECT_OPEN 1.0 1.5 0 0 1
C_14072070989_12393621582_0 RECT_OPEN 1.0 1.5 0 0 1
C_14072070989_331146194_0 RECT_OPEN 1.0 1.5 0 0 1
C_14072070989_14072070988_0 RECT_OPEN 1.0 1.5 0 0 1
C_331146195_331146194_0 RECT_OPEN 1.0 1.5 0 0 1
C_331146195_10991651169_0 RECT_OPEN 1.0 1.5 0 0 1
C_331146195_4315977113_0 RECT_OPEN 1.0 1.5 0 0 1
C_12998590069_331146194_0 RECT_OPEN 1.0 1.5 0 0 1
C_10991651169_331146195_0 RECT_OPEN 1.0 1.5 0 0 1
C_10991651169_331146196_0 RECT_OPEN 1.0 1.5 0 0 1
C_10991651169_10991651170_0 RECT_OPEN 1.0 1.5 0 0 1
C_4315977113_331146196_0 RECT_OPEN 1.0 1.5 0 0 1
C_4315977113_3649031394_0 RECT_OPEN 1.0 1.5 0 0 1
C_4315977113_331146195_0 RECT_OPEN 1.0 1.5 0 0 1
C_331146196_10991651169_0 RECT_OPEN 1.0 1.5 0 0 1
C_331146196_4315977113_0 RECT_OPEN 1.0 1.5 0 0 1
C_331146196_1016228579_0 RECT_OPEN 1.0 1.5 0 0 1
C_1016228579_331146196_0 RECT_OPEN 1.0 1.5 0 0 1
C_1016228579_1368828999_0 RECT_OPEN 1.0 1.5 0 0 1
C_1016228579_1016228610_0 RECT_OPEN 1.0 1.5 0 0 1
C_331146200_1470833642_0 RECT_OPEN 1.0 1.5 0 0 1
C_331146200_1718789013_0 RECT_OPEN 1.0 1.5 0 0 1
C_331146200_331146203_0 RECT_OPEN 1.0 1.5 0 0 1
C_1470833642_1590229386_0 RECT_OPEN 1.0 1.5 0 0 1
C_1470833642_331146200_0 RECT_OPEN 1.0 1.5 0 0 1
C_1470833642_10716532018_0 RECT_OPEN 1.0 1.5 0 0 1
C_1718789013_1718788929_0 RECT_OPEN 1.0 1.5 0 0 1
C_1718789013_3649031394_0 RECT_OPEN 1.0 1.5 0 0 1
C_1718789013_331146200_0 RECT_OPEN 1.0 1.5 0 0 1
C_331146203_10056189410_0 RECT_OPEN 1.0 1.5 0 0 1
C_331146203_331146200_0 RECT_OPEN 1.0 1.5 0 0 1
C_10056189410_10056189411_0 RECT_OPEN 1.0 1.5 0 0 1
C_10056189410_331147702_0 RECT_OPEN 1.0 1.5 0 0 1
C_331147616_7298289287_0 RECT_OPEN 1.0 1.5 0 0 1
C_7298289287_7298289290_0 RECT_OPEN 1.0 1.5 0 0 1
C_7298289287_11381136612_0 RECT_OPEN 1.0 1.5 0 0 1
C_7298289287_331147616_0 RECT_OPEN 1.0 1.5 0 0 1
C_331147621_11381136612_0 RECT_OPEN 1.0 1.5 0 0 1
C_11381136612_7298289289_0 RECT_OPEN 1.0 1.5 0 0 1
C_11381136612_7298289287_0 RECT_OPEN 1.0 1.5 0 0 1
C_11381136612_331147621_0 RECT_OPEN 1.0 1.5 0 0 1
C_331147627_1374396082_0 RECT_OPEN 1.0 1.5 0 0 1
C_331147627_1368814490_0 RECT_OPEN 1.0 1.5 0 0 1
C_331147627_7298289289_0 RECT_OPEN 1.0 1.5 0 0 1
C_1374396082_331146203_0 RECT_OPEN 1.0 1.5 0 0 1
C_1374396082_7298289290_0 RECT_OPEN 1.0 1.5 0 0 1
C_1368814490_331147627_0 RECT_OPEN 1.0 1.5 0 0 1
C_1368814490_1376905664_0 RECT_OPEN 1.0 1.5 0 0 1
C_7298289289_11381136612_0 RECT_OPEN 1.0 1.5 0 0 1
C_7298289289_7298289290_0 RECT_OPEN 1.0 1.5 0 0 1
C_7298289289_331147627_0 RECT_OPEN 1.0 1.5 0 0 1
C_331147702_1104250513_0 RECT_OPEN 1.0 1.5 0 0 1
C_331147702_253448561_0 RECT_OPEN 1.0 1.5 0 0 1
C_1104250513_331147702_0 RECT_OPEN 1.0 1.5 0 0 1
C_1104250513_1590229362_0 RECT_OPEN 1.0 1.5 0 0 1
C_1104250513_10056189411_0 RECT_OPEN 1.0 1.5 0 0 1
C_331147771_1371814186_0 RECT_OPEN 1.0 1.5 0 0 1
C_331147771_1371814178_0 RECT_OPEN 1.0 1.5 0 0 1
C_331147771_1371807570_0 RECT_OPEN 1.0 1.5 0 0 1
C_1371814186_10991440018_0 RECT_OPEN 1.0 1.5 0 0 1
C_1371814186_5281842533_0 RECT_OPEN 1.0 1.5 0 0 1
C_1371814186_331147771_0 RECT_OPEN 1.0 1.5 0 0 1
C_1371814178_1371814331_0 RECT_OPEN 1.0 1.5 0 0 1
C_1371814178_331147771_0 RECT_OPEN 1.0 1.5 0 0 1
C_1371814178_1371814332_0 RECT_OPEN 1.0 1.5 0 0 1
C_1371807570_7453315740_0 RECT_OPEN 1.0 1.5 0 0 1
C_1371807570_1371807549_0 RECT_OPEN 1.0 1.5 0 0 1
C_1371807570_331147771_0 RECT_OPEN 1.0 1.5 0 0 1
C_331147773_1371807583_0 RECT_OPEN 1.0 1.5 0 0 1
C_331147773_2225133203_0 RECT_OPEN 1.0 1.5 0 0 1
C_331147773_1371807553_0 RECT_OPEN 1.0 1.5 0 0 1
C_1371807583_1371807528_0 RECT_OPEN 1.0 1.5 0 0 1
C_1371807583_7147042929_0 RECT_OPEN 1.0 1.5 0 0 1
C_1371807583_331147773_0 RECT_OPEN 1.0 1.5 0 0 1
C_2225133203_331147773_0 RECT_OPEN 1.0 1.5 0 0 1
C_2225133203_11021676037_0 RECT_OPEN 1.0 1.5 0 0 1
C_2225133203_13645830539_0 RECT_OPEN 1.0 1.5 0 0 1
C_1371807553_331147773_0 RECT_OPEN 1.0 1.5 0 0 1
C_331150815_1103017563_0 RECT_OPEN 1.0 1.5 0 0 1
C_331150815_956958701_0 RECT_OPEN 1.0 1.5 0 0 1
C_331150815_11074670551_0 RECT_OPEN 1.0 1.5 0 0 1
C_1103017563_10637202311_0 RECT_OPEN 1.0 1.5 0 0 1
C_1103017563_331150815_0 RECT_OPEN 1.0 1.5 0 0 1
C_1103017563_9841504887_0 RECT_OPEN 1.0 1.5 0 0 1
C_956958701_12918665449_0 RECT_OPEN 1.0 1.5 0 0 1
C_956958701_331150815_0 RECT_OPEN 1.0 1.5 0 0 1
C_956958701_1078253085_0 RECT_OPEN 1.0 1.5 0 0 1
C_11074670551_1066041427_0 RECT_OPEN 1.0 1.5 0 0 1
C_11074670551_1066041419_0 RECT_OPEN 1.0 1.5 0 0 1
C_11074670551_331150815_0 RECT_OPEN 1.0 1.5 0 0 1
C_331150822_7298268883_0 RECT_OPEN 1.0 1.5 0 0 1
C_331150822_10637202311_0 RECT_OPEN 1.0 1.5 0 0 1
C_331150822_10038766779_0 RECT_OPEN 1.0 1.5 0 0 1
C_7298268883_7298268882_0 RECT_OPEN 1.0 1.5 0 0 1
C_7298268883_11640782969_0 RECT_OPEN 1.0 1.5 0 0 1
C_7298268883_331150822_0 RECT_OPEN 1.0 1.5 0 0 1
C_10637202311_10731125515_0 RECT_OPEN 1.0 1.5 0 0 1
C_10637202311_331150822_0 RECT_OPEN 1.0 1.5 0 0 1
C_10637202311_1103017563_0 RECT_OPEN 1.0 1.5 0 0 1
C_10038766779_331150822_0 RECT_OPEN 1.0 1.5 0 0 1
C_574872968_11885834679_0 RECT_OPEN 1.0 1.5 0 0 1
C_574872968_12961466033_0 RECT_OPEN 1.0 1.5 0 0 1
C_574872968_7465456821_0 RECT_OPEN 1.0 1.5 0 0 1
C_11885834679_574872968_0 RECT_OPEN 1.0 1.5 0 0 1
C_11885834679_11885834678_0 RECT_OPEN 1.0 1.5 0 0 1
C_12961466033_12961466031_0 RECT_OPEN 1.0 1.5 0 0 1
C_7465456821_11021569037_0 RECT_OPEN 1.0 1.5 0 0 1
C_7465456821_574872968_0 RECT_OPEN 1.0 1.5 0 0 1
C_7465456821_7465456817_0 RECT_OPEN 1.0 1.5 0 0 1
C_594600161_2376774439_0 RECT_OPEN 1.0 1.5 0 0 1
C_594600161_7452692549_0 RECT_OPEN 1.0 1.5 0 0 1
C_594600161_2225133157_0 RECT_OPEN 1.0 1.5 0 0 1
C_2376774439_2376774417_0 RECT_OPEN 1.0 1.5 0 0 1
C_2376774439_594600161_0 RECT_OPEN 1.0 1.5 0 0 1
C_2376774439_7453315632_0 RECT_OPEN 1.0 1.5 0 0 1
C_7452692549_594600161_0 RECT_OPEN 1.0 1.5 0 0 1
C_7452692549_9700074501_0 RECT_OPEN 1.0 1.5 0 0 1
C_7452692549_2225133157_0 RECT_OPEN 1.0 1.5 0 0 1
C_2225133157_2376774391_0 RECT_OPEN 1.0 1.5 0 0 1
C_2225133157_594600161_0 RECT_OPEN 1.0 1.5 0 0 1
C_2225133157_7452692549_0 RECT_OPEN 1.0 1.5 0 0 1
C_594600189_594600191_0 RECT_OPEN 1.0 1.5 0 0 1
C_594600189_7453315573_0 RECT_OPEN 1.0 1.5 0 0 1
C_594600191_594600189_0 RECT_OPEN 1.0 1.5 0 0 1
C_594600191_7453315574_0 RECT_OPEN 1.0 1.5 0 0 1
C_594600191_594600200_0 RECT_OPEN 1.0 1.5 0 0 1
C_7453315573_594600189_0 RECT_OPEN 1.0 1.5 0 0 1
C_7453315574_594600191_0 RECT_OPEN 1.0 1.5 0 0 1
C_7453315574_832572431_0 RECT_OPEN 1.0 1.5 0 0 1
C_7453315574_594600200_0 RECT_OPEN 1.0 1.5 0 0 1
C_594600200_7452692544_0 RECT_OPEN 1.0 1.5 0 0 1
C_594600200_594600191_0 RECT_OPEN 1.0 1.5 0 0 1
C_594600200_7453315574_0 RECT_OPEN 1.0 1.5 0 0 1
C_7452692544_9700074501_0 RECT_OPEN 1.0 1.5 0 0 1
C_7452692544_594600200_0 RECT_OPEN 1.0 1.5 0 0 1
C_7452692544_12697947081_0 RECT_OPEN 1.0 1.5 0 0 1
C_809461728_5485647354_0 RECT_OPEN 1.0 1.5 0 0 1
C_5485647354_809461728_0 RECT_OPEN 1.0 1.5 0 0 1
C_5485647354_809461787_0 RECT_OPEN 1.0 1.5 0 0 1
C_5485647354_7334211452_0 RECT_OPEN 1.0 1.5 0 0 1
C_809461787_3713858821_0 RECT_OPEN 1.0 1.5 0 0 1
C_809461787_1104250512_0 RECT_OPEN 1.0 1.5 0 0 1
C_809461787_5485647354_0 RECT_OPEN 1.0 1.5 0 0 1
C_3713858821_7147090917_0 RECT_OPEN 1.0 1.5 0 0 1
C_3713858821_809461787_0 RECT_OPEN 1.0 1.5 0 0 1
C_3713858821_13715446989_0 RECT_OPEN 1.0 1.5 0 0 1
C_1104250512_9645445144_0 RECT_OPEN 1.0 1.5 0 0 1
C_832572431_7453315574_0 RECT_OPEN 1.0 1.5 0 0 1
C_832572431_12604472593_0 RECT_OPEN 1.0 1.5 0 0 1
C_832572431_1633904753_0 RECT_OPEN 1.0 1.5 0 0 1
C_12604472593_7453315581_0 RECT_OPEN 1.0 1.5 0 0 1
C_12604472593_832572431_0 RECT_OPEN 1.0 1.5 0 0 1
C_12604472593_12604472596_0 RECT_OPEN 1.0 1.5 0 0 1
C_1633904753_832572431_0 RECT_OPEN 1.0 1.5 0 0 1
C_1633904753_10232936572_0 RECT_OPEN 1.0 1.5 0 0 1
C_955696066_9937603726_0 RECT_OPEN 1.0 1.5 0 0 1
C_9937603726_6632652201_0 RECT_OPEN 1.0 1.5 0 0 1
C_9937603726_6632652201_1 RECT_OPEN 1.0 1.5 0 0 1
C_12918665449_9866129292_0 RECT_OPEN 1.0 1.5 0 0 1
C_12918665449_956958701_0 RECT_OPEN 1.0 1.5 0 0 1
C_12918665449_10695024185_0 RECT_OPEN 1.0 1.5 0 0 1
C_1078253085_956958701_0 RECT_OPEN 1.0 1.5 0 0 1
C_1078253085_7261406108_0 RECT_OPEN 1.0 1.5 0 0 1
C_1078253085_14074138183_0 RECT_OPEN 1.0 1.5 0 0 1
C_956975072_1104250537_0 RECT_OPEN 1.0 1.5 0 0 1
C_956975072_1078253094_0 RECT_OPEN 1.0 1.5 0 0 1
C_1104250537_956975072_0 RECT_OPEN 1.0 1.5 0 0 1
C_1104250537_5281842535_0 RECT_OPEN 1.0 1.5 0 0 1
C_1104250537_10284858598_0 RECT_OPEN 1.0 1.5 0 0 1
C_1078253094_2623251185_0 RECT_OPEN 1.0 1.5 0 0 1
C_1078253094_1104250488_0 RECT_OPEN 1.0 1.5 0 0 1
C_1014648217_10760860021_0 RECT_OPEN 1.0 1.5 0 0 1
C_1014648217_2066388579_0 RECT_OPEN 1.0 1.5 0 0 1
C_1014648217_6043189067_0 RECT_OPEN 1.0 1.5 0 0 1
C_10760860021_1014648217_0 RECT_OPEN 1.0 1.5 0 0 1
C_10760860021_10760860023_0 RECT_OPEN 1.0 1.5 0 0 1
C_10760860021_10991832380_0 RECT_OPEN 1.0 1.5 0 0 1
C_2066388579_11056570933_0 RECT_OPEN 1.0 1.5 0 0 1
C_2066388579_2066388564_0 RECT_OPEN 1.0 1.5 0 0 1
C_2066388579_1014648217_0 RECT_OPEN 1.0 1.5 0 0 1
C_6043189067_1014648217_0 RECT_OPEN 1.0 1.5 0 0 1
C_6043189067_12196521966_0 RECT_OPEN 1.0 1.5 0 0 1
C_6043189067_2623258606_0 RECT_OPEN 1.0 1.5 0 0 1
C_1014707800_1371828536_0 RECT_OPEN 1.0 1.5 0 0 1
C_1014707800_1371828541_0 RECT_OPEN 1.0 1.5 0 0 1
C_1014707800_1014707856_0 RECT_OPEN 1.0 1.5 0 0 1
C_1371828536_1014707907_0 RECT_OPEN 1.0 1.5 0 0 1
C_1371828536_1014707800_0 RECT_OPEN 1.0 1.5 0 0 1
C_1371828536_1066108534_0 RECT_OPEN 1.0 1.5 0 0 1
C_1371828541_1371828544_0 RECT_OPEN 1.0 1.5 0 0 1
C_1371828541_1014707800_0 RECT_OPEN 1.0 1.5 0 0 1
C_1371828541_7140718121_0 RECT_OPEN 1.0 1.5 0 0 1
C_1014707856_7298289244_0 RECT_OPEN 1.0 1.5 0 0 1
C_1014707856_1014707800_0 RECT_OPEN 1.0 1.5 0 0 1
C_1014707856_7298289236_0 RECT_OPEN 1.0 1.5 0 0 1
C_1014707848_1371828527_0 RECT_OPEN 1.0 1.5 0 0 1
C_1014707848_13830086493_0 RECT_OPEN 1.0 1.5 0 0 1
C_1014707848_7298289213_0 RECT_OPEN 1.0 1.5 0 0 1
C_1371828527_1371828528_0 RECT_OPEN 1.0 1.5 0 0 1
C_1371828527_1014707848_0 RECT_OPEN 1.0 1.5 0 0 1
C_1371828527_1371828545_0 RECT_OPEN 1.0 1.5 0 0 1
C_13830086493_1371828543_0 RECT_OPEN 1.0 1.5 0 0 1
C_13830086493_1014707848_0 RECT_OPEN 1.0 1.5 0 0 1
C_13830086493_7298289303_0 RECT_OPEN 1.0 1.5 0 0 1
C_7298289213_13830105941_0 RECT_OPEN 1.0 1.5 0 0 1
C_7298289213_1014707848_0 RECT_OPEN 1.0 1.5 0 0 1
C_7298289213_7298289223_0 RECT_OPEN 1.0 1.5 0 0 1
C_7298289244_1014707856_0 RECT_OPEN 1.0 1.5 0 0 1
C_7298289244_7298289189_0 RECT_OPEN 1.0 1.5 0 0 1
C_7298289244_7298289246_0 RECT_OPEN 1.0 1.5 0 0 1
C_7298289236_7298289198_0 RECT_OPEN 1.0 1.5 0 0 1
C_7298289236_1014707856_0 RECT_OPEN 1.0 1.5 0 0 1
C_7298289236_7298289241_0 RECT_OPEN 1.0 1.5 0 0 1
C_1014707872_13830105941_0 RECT_OPEN 1.0 1.5 0 0 1
C_1014707872_7298289211_0 RECT_OPEN 1.0 1.5 0 0 1
C_1014707872_1371828542_0 RECT_OPEN 1.0 1.5 0 0 1
C_13830105941_1014707872_0 RECT_OPEN 1.0 1.5 0 0 1
C_13830105941_7298289213_0 RECT_OPEN 1.0 1.5 0 0 1
C_13830105941_13830105943_0 RECT_OPEN 1.0 1.5 0 0 1
C_7298289211_7298289212_0 RECT_OPEN 1.0 1.5 0 0 1
C_7298289211_1014707872_0 RECT_OPEN 1.0 1.5 0 0 1
C_7298289211_7140718132_0 RECT_OPEN 1.0 1.5 0 0 1
C_1371828542_1371828545_0 RECT_OPEN 1.0 1.5 0 0 1
C_1371828542_7140718121_0 RECT_OPEN 1.0 1.5 0 0 1
C_1371828542_1014707872_0 RECT_OPEN 1.0 1.5 0 0 1
C_1014707907_1371828544_0 RECT_OPEN 1.0 1.5 0 0 1
C_1014707907_1371828530_0 RECT_OPEN 1.0 1.5 0 0 1
C_1014707907_1371828536_0 RECT_OPEN 1.0 1.5 0 0 1
C_1014707907_1066108522_0 RECT_OPEN 1.0 1.5 0 0 1
C_1371828544_7140718123_0 RECT_OPEN 1.0 1.5 0 0 1
C_1371828544_1014707907_0 RECT_OPEN 1.0 1.5 0 0 1
C_1371828544_1371828541_0 RECT_OPEN 1.0 1.5 0 0 1
C_1371828544_1371828539_0 RECT_OPEN 1.0 1.5 0 0 1
C_1371828530_1014707907_0 RECT_OPEN 1.0 1.5 0 0 1
C_1371828530_7298289227_0 RECT_OPEN 1.0 1.5 0 0 1
C_1371828530_1371828539_0 RECT_OPEN 1.0 1.5 0 0 1
C_1066108522_1368801653_0 RECT_OPEN 1.0 1.5 0 0 1
C_1066108522_1014707907_0 RECT_OPEN 1.0 1.5 0 0 1
C_1066108522_1066108534_0 RECT_OPEN 1.0 1.5 0 0 1
C_1016228504_1104250503_0 RECT_OPEN 1.0 1.5 0 0 1
C_1104250503_1558993952_0 RECT_OPEN 1.0 1.5 0 0 1
C_1104250503_1016228504_0 RECT_OPEN 1.0 1.5 0 0 1
C_1016228517_1368117344_0 RECT_OPEN 1.0 1.5 0 0 1
C_1016228517_1368828980_0 RECT_OPEN 1.0 1.5 0 0 1
C_1016228517_1368829000_0 RECT_OPEN 1.0 1.5 0 0 1
C_1368117344_1368828999_0 RECT_OPEN 1.0 1.5 0 0 1
C_1368117344_1016228517_0 RECT_OPEN 1.0 1.5 0 0 1
C_1368117344_1368828980_0 RECT_OPEN 1.0 1.5 0 0 1
C_1368828980_1368117314_0 RECT_OPEN 1.0 1.5 0 0 1
C_1368828980_1368117344_0 RECT_OPEN 1.0 1.5 0 0 1
C_1368828980_1016228517_0 RECT_OPEN 1.0 1.5 0 0 1
C_1368829000_1368828999_0 RECT_OPEN 1.0 1.5 0 0 1
C_1368829000_1016228517_0 RECT_OPEN 1.0 1.5 0 0 1
C_1368829000_1016228610_0 RECT_OPEN 1.0 1.5 0 0 1
C_12196582428_1016228526_0 RECT_OPEN 1.0 1.5 0 0 1
C_12196582428_1016228596_0 RECT_OPEN 1.0 1.5 0 0 1
C_12196582428_11951620623_0 RECT_OPEN 1.0 1.5 0 0 1
C_1016228534_1683088958_0 RECT_OPEN 1.0 1.5 0 0 1
C_1016228534_1016228526_0 RECT_OPEN 1.0 1.5 0 0 1
C_1016228534_10991813477_0 RECT_OPEN 1.0 1.5 0 0 1
C_1683088958_1016228534_0 RECT_OPEN 1.0 1.5 0 0 1
C_10991813477_1016228534_0 RECT_OPEN 1.0 1.5 0 0 1
C_1016228556_1016228610_0 RECT_OPEN 1.0 1.5 0 0 1
C_1016228556_1634931711_0 RECT_OPEN 1.0 1.5 0 0 1
C_1016228556_1368828996_0 RECT_OPEN 1.0 1.5 0 0 1
C_1016228556_2066388589_0 RECT_OPEN 1.0 1.5 0 0 1
C_1016228610_1016228556_0 RECT_OPEN 1.0 1.5 0 0 1
C_1016228610_1368829000_0 RECT_OPEN 1.0 1.5 0 0 1
C_1016228610_1016228579_0 RECT_OPEN 1.0 1.5 0 0 1
C_1634931711_1016228556_0 RECT_OPEN 1.0 1.5 0 0 1
C_1634931711_7298289286_0 RECT_OPEN 1.0 1.5 0 0 1
C_1634931711_7298289285_0 RECT_OPEN 1.0 1.5 0 0 1
C_1368828996_7298289285_0 RECT_OPEN 1.0 1.5 0 0 1
C_1368828996_1016228556_0 RECT_OPEN 1.0 1.5 0 0 1
C_1368828996_1368829030_0 RECT_OPEN 1.0 1.5 0 0 1
C_2066388589_1016228556_0 RECT_OPEN 1.0 1.5 0 0 1
C_1368828999_1368117344_0 RECT_OPEN 1.0 1.5 0 0 1
C_1368828999_7291167549_0 RECT_OPEN 1.0 1.5 0 0 1
C_1368828999_1368829000_0 RECT_OPEN 1.0 1.5 0 0 1
C_1368828999_1016228579_0 RECT_OPEN 1.0 1.5 0 0 1
C_1016228596_12196582428_0 RECT_OPEN 1.0 1.5 0 0 1
C_1066041419_11074670551_0 RECT_OPEN 1.0 1.5 0 0 1
C_1066041427_11074670551_0 RECT_OPEN 1.0 1.5 0 0 1
C_1066041427_11021766298_0 RECT_OPEN 1.0 1.5 0 0 1
C_1066041427_11074670573_0 RECT_OPEN 1.0 1.5 0 0 1
C_11021766298_1066041427_0 RECT_OPEN 1.0 1.5 0 0 1
C_11021766298_11074670549_0 RECT_OPEN 1.0 1.5 0 0 1
C_11021766298_11021766299_0 RECT_OPEN 1.0 1.5 0 0 1
C_11074670573_11021766299_0 RECT_OPEN 1.0 1.5 0 0 1
C_11074670573_1066041427_0 RECT_OPEN 1.0 1.5 0 0 1
C_11074670573_12918642840_0 RECT_OPEN 1.0 1.5 0 0 1
C_1368801653_1066108522_0 RECT_OPEN 1.0 1.5 0 0 1
C_1368801653_7298295670_0 RECT_OPEN 1.0 1.5 0 0 1
C_1066108534_1368801668_0 RECT_OPEN 1.0 1.5 0 0 1
C_1066108534_1103012306_0 RECT_OPEN 1.0 1.5 0 0 1
C_1066108534_1371828536_0 RECT_OPEN 1.0 1.5 0 0 1
C_1368801668_1558993902_0 RECT_OPEN 1.0 1.5 0 0 1
C_1368801668_1066108534_0 RECT_OPEN 1.0 1.5 0 0 1
C_1103012306_1368117384_0 RECT_OPEN 1.0 1.5 0 0 1
C_1103012306_1502865751_0 RECT_OPEN 1.0 1.5 0 0 1
C_7261406108_7261406107_0 RECT_OPEN 1.0 1.5 0 0 1
C_7261406108_1078253085_0 RECT_OPEN 1.0 1.5 0 0 1
C_7261406108_1368117350_0 RECT_OPEN 1.0 1.5 0 0 1
C_14074138183_1078253103_0 RECT_OPEN 1.0 1.5 0 0 1
C_14074138183_14074138182_0 RECT_OPEN 1.0 1.5 0 0 1
C_14074138183_1078253085_0 RECT_OPEN 1.0 1.5 0 0 1
C_2623251185_1507064149_0 RECT_OPEN 1.0 1.5 0 0 1
C_2623251185_6194047462_0 RECT_OPEN 1.0 1.5 0 0 1
C_1104250488_1078253094_0 RECT_OPEN 1.0 1.5 0 0 1
C_1104250488_1078253167_0 RECT_OPEN 1.0 1.5 0 0 1
C_1104250488_1104250501_0 RECT_OPEN 1.0 1.5 0 0 1
C_1078253103_14074138183_0 RECT_OPEN 1.0 1.5 0 0 1
C_1078253103_11434298134_0 RECT_OPEN 1.0 1.5 0 0 1
C_1078253103_14074138200_0 RECT_OPEN 1.0 1.5 0 0 1
C_11434298134_1078253103_0 RECT_OPEN 1.0 1.5 0 0 1
C_11434298134_11434298150_0 RECT_OPEN 1.0 1.5 0 0 1
C_14074138200_1078253103_0 RECT_OPEN 1.0 1.5 0 0 1
C_1078253167_1104250488_0 RECT_OPEN 1.0 1.5 0 0 1
C_1080176720_5281842556_0 RECT_OPEN 1.0 1.5 0 0 1
C_1080176720_1437330565_0 RECT_OPEN 1.0 1.5 0 0 1
C_5281842556_1605954178_0 RECT_OPEN 1.0 1.5 0 0 1
C_5281842556_1080176720_0 RECT_OPEN 1.0 1.5 0 0 1
C_5281842556_11375356861_0 RECT_OPEN 1.0 1.5 0 0 1
C_1437330565_1327387692_0 RECT_OPEN 1.0 1.5 0 0 1
C_1437330565_11006982239_0 RECT_OPEN 1.0 1.5 0 0 1
C_1437330565_1605954141_0 RECT_OPEN 1.0 1.5 0 0 1
C_1080176721_1080176720_0 RECT_OPEN 1.0 1.5 0 0 1
C_1080176721_1605954184_0 RECT_OPEN 1.0 1.5 0 0 1
C_1605954184_1605954179_0 RECT_OPEN 1.0 1.5 0 0 1
C_1605954184_1605954206_0 RECT_OPEN 1.0 1.5 0 0 1
C_1605954184_1080176721_0 RECT_OPEN 1.0 1.5 0 0 1
C_1103012303_13535865211_0 RECT_OPEN 1.0 1.5 0 0 1
C_1103012303_1103012305_0 RECT_OPEN 1.0 1.5 0 0 1
C_1103012303_1368117382_0 RECT_OPEN 1.0 1.5 0 0 1
C_13535865211_1103012303_0 RECT_OPEN 1.0 1.5 0 0 1
C_13535865211_13535853200_0 RECT_OPEN 1.0 1.5 0 0 1
C_1103012305_1103012303_0 RECT_OPEN 1.0 1.5 0 0 1
C_1368117382_1368117325_0 RECT_OPEN 1.0 1.5 0 0 1
C_1368117382_1103012303_0 RECT_OPEN 1.0 1.5 0 0 1
C_1368117384_1103012306_0 RECT_OPEN 1.0 1.5 0 0 1
C_1368117384_11434400637_0 RECT_OPEN 1.0 1.5 0 0 1
C_1368117384_11926574593_0 RECT_OPEN 1.0 1.5 0 0 1
C_1502865751_1502865753_0 RECT_OPEN 1.0 1.5 0 0 1
C_1502865751_1368672364_0 RECT_OPEN 1.0 1.5 0 0 1
C_1502865751_7298289308_0 RECT_OPEN 1.0 1.5 0 0 1
C_11021437035_11021437034_0 RECT_OPEN 1.0 1.5 0 0 1
C_11021437035_1103017558_0 RECT_OPEN 1.0 1.5 0 0 1
C_11021437035_6137413125_0 RECT_OPEN 1.0 1.5 0 0 1
C_11021437031_11399465859_0 RECT_OPEN 1.0 1.5 0 0 1
C_11021437031_11021437034_0 RECT_OPEN 1.0 1.5 0 0 1
C_11021437031_1103017558_0 RECT_OPEN 1.0 1.5 0 0 1
C_9841504887_10695024184_0 RECT_OPEN 1.0 1.5 0 0 1
C_9841504887_9841504888_0 RECT_OPEN 1.0 1.5 0 0 1
C_9841504887_1103017563_0 RECT_OPEN 1.0 1.5 0 0 1
C_1104241031_1104241056_0 RECT_OPEN 1.0 1.5 0 0 1
C_1104241031_1104241056_1 RECT_OPEN 1.0 1.5 0 0 1
C_1104241056_11197334454_0 RECT_OPEN 1.0 1.5 0 0 1
C_11197334454_11197334457_0 RECT_OPEN 1.0 1.5 0 0 1
C_11197334454_1497326586_0 RECT_OPEN 1.0 1.5 0 0 1
C_1104250501_1507064152_0 RECT_OPEN 1.0 1.5 0 0 1
C_1104250501_3649025396_0 RECT_OPEN 1.0 1.5 0 0 1
C_1104250495_6194047462_0 RECT_OPEN 1.0 1.5 0 0 1
C_1104250495_6759139268_0 RECT_OPEN 1.0 1.5 0 0 1
C_1104250495_1507064149_0 RECT_OPEN 1.0 1.5 0 0 1
C_6194047462_1104250495_0 RECT_OPEN 1.0 1.5 0 0 1
C_6194047462_331147627_0 RECT_OPEN 1.0 1.5 0 0 1
C_6759139268_1104250495_0 RECT_OPEN 1.0 1.5 0 0 1
C_1507064149_2623251185_0 RECT_OPEN 1.0 1.5 0 0 1
C_1507064149_1104250488_0 RECT_OPEN 1.0 1.5 0 0 1
C_1507064149_1507064166_0 RECT_OPEN 1.0 1.5 0 0 1
C_1507064152_1104250503_0 RECT_OPEN 1.0 1.5 0 0 1
C_1507064152_13655652829_0 RECT_OPEN 1.0 1.5 0 0 1
C_3649025396_3649025375_0 RECT_OPEN 1.0 1.5 0 0 1
C_3649025396_3649025393_0 RECT_OPEN 1.0 1.5 0 0 1
C_3649025396_1104250501_0 RECT_OPEN 1.0 1.5 0 0 1
C_1558993952_10991915618_0 RECT_OPEN 1.0 1.5 0 0 1
C_1558993952_1104250537_0 RECT_OPEN 1.0 1.5 0 0 1
C_9645445144_9645445142_0 RECT_OPEN 1.0 1.5 0 0 1
C_1590229362_1590229489_0 RECT_OPEN 1.0 1.5 0 0 1
C_1590229362_1590229523_0 RECT_OPEN 1.0 1.5 0 0 1
C_1590229362_1104250513_0 RECT_OPEN 1.0 1.5 0 0 1
C_10056189411_10056189410_0 RECT_OPEN 1.0 1.5 0 0 1
C_10056189411_1368814490_0 RECT_OPEN 1.0 1.5 0 0 1
C_1104250524_12187447575_0 RECT_OPEN 1.0 1.5 0 0 1
C_1104250524_12098136116_0 RECT_OPEN 1.0 1.5 0 0 1
C_12187447575_1368117316_0 RECT_OPEN 1.0 1.5 0 0 1
C_12187447575_12187447576_0 RECT_OPEN 1.0 1.5 0 0 1
C_12098136116_1104250524_0 RECT_OPEN 1.0 1.5 0 0 1
C_5281842535_5281842534_0 RECT_OPEN 1.0 1.5 0 0 1
C_5281842535_5281842537_0 RECT_OPEN 1.0 1.5 0 0 1
C_5281842535_1104250537_0 RECT_OPEN 1.0 1.5 0 0 1
C_10284858598_1104250512_0 RECT_OPEN 1.0 1.5 0 0 1
C_10284858598_809461787_0 RECT_OPEN 1.0 1.5 0 0 1
C_1177705626_6901276163_0 RECT_OPEN 1.0 1.5 0 0 1
C_1177705626_12187502877_0 RECT_OPEN 1.0 1.5 0 0 1
C_6901276163_6901276162_0 RECT_OPEN 1.0 1.5 0 0 1
C_6901276163_320242814_0 RECT_OPEN 1.0 1.5 0 0 1
C_12187502877_1177705626_0 RECT_OPEN 1.0 1.5 0 0 1
C_12187502877_11885696210_0 RECT_OPEN 1.0 1.5 0 0 1
C_1177705914_11434710893_0 RECT_OPEN 1.0 1.5 0 0 1
C_1177705914_12961466034_0 RECT_OPEN 1.0 1.5 0 0 1
C_11434710893_11434710894_0 RECT_OPEN 1.0 1.5 0 0 1
C_11434710893_3528034343_0 RECT_OPEN 1.0 1.5 0 0 1
C_11434710893_1177705914_0 RECT_OPEN 1.0 1.5 0 0 1
C_12961466034_12961466033_0 RECT_OPEN 1.0 1.5 0 0 1
C_12961466034_11885834679_0 RECT_OPEN 1.0 1.5 0 0 1
C_1198163774_1374397406_0 RECT_OPEN 1.0 1.5 0 0 1
C_1198163774_12161557850_0 RECT_OPEN 1.0 1.5 0 0 1
C_1198163774_13802597960_0 RECT_OPEN 1.0 1.5 0 0 1
C_1374397406_1511238410_0 RECT_OPEN 1.0 1.5 0 0 1
C_1374397406_1511238410_1 RECT_OPEN 1.0 1.5 0 0 1
C_1374397406_1198163774_0 RECT_OPEN 1.0 1.5 0 0 1
C_12161557850_8935990993_0 RECT_OPEN 1.0 1.5 0 0 1
C_12161557850_12161557849_0 RECT_OPEN 1.0 1.5 0 0 1
C_13802597960_13802597961_0 RECT_OPEN 1.0 1.5 0 0 1
C_13802597960_8935990991_0 RECT_OPEN 1.0 1.5 0 0 1
C_1198169318_7465393503_0 RECT_OPEN 1.0 1.5 0 0 1
C_1198169318_7465393502_0 RECT_OPEN 1.0 1.5 0 0 1
C_1198169318_12362900668_0 RECT_OPEN 1.0 1.5 0 0 1
C_7465393503_6617328973_0 RECT_OPEN 1.0 1.5 0 0 1
C_7465393503_1371814145_0 RECT_OPEN 1.0 1.5 0 0 1
C_7465393503_1198169318_0 RECT_OPEN 1.0 1.5 0 0 1
C_7465393502_4204925697_0 RECT_OPEN 1.0 1.5 0 0 1
C_7465393502_1327387669_0 RECT_OPEN 1.0 1.5 0 0 1
C_7465393502_1198169318_0 RECT_OPEN 1.0 1.5 0 0 1
C_12362900668_5281840014_0 RECT_OPEN 1.0 1.5 0 0 1
C_12362900668_1923819587_0 RECT_OPEN 1.0 1.5 0 0 1
C_12362900668_1198169318_0 RECT_OPEN 1.0 1.5 0 0 1
C_1198169359_5281840014_0 RECT_OPEN 1.0 1.5 0 0 1
C_1198169359_7465393504_0 RECT_OPEN 1.0 1.5 0 0 1
C_1198169359_4458722757_0 RECT_OPEN 1.0 1.5 0 0 1
C_1198169359_11812221695_0 RECT_OPEN 1.0 1.5 0 0 1
C_5281840014_1198169359_0 RECT_OPEN 1.0 1.5 0 0 1
C_5281840014_5281842548_0 RECT_OPEN 1.0 1.5 0 0 1
C_5281840014_12362900668_0 RECT_OPEN 1.0 1.5 0 0 1
C_7465393504_1198169359_0 RECT_OPEN 1.0 1.5 0 0 1
C_7465393504_6617328973_0 RECT_OPEN 1.0 1.5 0 0 1
C_7465393504_7465393498_0 RECT_OPEN 1.0 1.5 0 0 1
C_4458722757_4458722675_0 RECT_OPEN 1.0 1.5 0 0 1
C_4458722757_1198169359_0 RECT_OPEN 1.0 1.5 0 0 1
C_4458722757_6617329692_0 RECT_OPEN 1.0 1.5 0 0 1
C_11812221695_1198169359_0 RECT_OPEN 1.0 1.5 0 0 1
C_11812221695_6620856859_0 RECT_OPEN 1.0 1.5 0 0 1
C_1262043907_1262043930_0 RECT_OPEN 1.0 1.5 0 0 1
C_1262043907_1770465756_0 RECT_OPEN 1.0 1.5 0 0 1
C_1262043907_1262043929_0 RECT_OPEN 1.0 1.5 0 0 1
C_1262043907_1262043916_0 RECT_OPEN 1.0 1.5 0 0 1
C_1262043930_1966466667_0 RECT_OPEN 1.0 1.5 0 0 1
C_1262043930_1262043907_0 RECT_OPEN 1.0 1.5 0 0 1
C_1262043930_1262043923_0 RECT_OPEN 1.0 1.5 0 0 1
C_1770465756_1262043907_0 RECT_OPEN 1.0 1.5 0 0 1
C_1770465756_1262043914_0 RECT_OPEN 1.0 1.5 0 0 1
C_1770465756_1262043938_0 RECT_OPEN 1.0 1.5 0 0 1
C_1770465756_1770465751_0 RECT_OPEN 1.0 1.5 0 0 1
C_1262043929_1262043907_0 RECT_OPEN 1.0 1.5 0 0 1
C_1262043916_1262043907_0 RECT_OPEN 1.0 1.5 0 0 1
C_1262043916_1262043931_0 RECT_OPEN 1.0 1.5 0 0 1
C_1262043909_9928560958_0 RECT_OPEN 1.0 1.5 0 0 1
C_1262043909_13105830030_0 RECT_OPEN 1.0 1.5 0 0 1
C_1262043909_9857850176_0 RECT_OPEN 1.0 1.5 0 0 1
C_1262043909_1262043934_0 RECT_OPEN 1.0 1.5 0 0 1
C_9928560958_1262043909_0 RECT_OPEN 1.0 1.5 0 0 1
C_13105830030_1262043909_0 RECT_OPEN 1.0 1.5 0 0 1
C_13105830030_1262043932_0 RECT_OPEN 1.0 1.5 0 0 1
C_13105830030_6144436485_0 RECT_OPEN 1.0 1.5 0 0 1
C_1262043934_9928560957_0 RECT_OPEN 1.0 1.5 0 0 1
C_1262043934_6144436485_0 RECT_OPEN 1.0 1.5 0 0 1
C_1262043934_1262043909_0 RECT_OPEN 1.0 1.5 0 0 1
C_1262043934_7466386825_0 RECT_OPEN 1.0 1.5 0 0 1
C_1262043910_1262043922_0 RECT_OPEN 1.0 1.5 0 0 1
C_1262043910_7466386826_0 RECT_OPEN 1.0 1.5 0 0 1
C_1262043922_1262043914_0 RECT_OPEN 1.0 1.5 0 0 1
C_1262043922_7466386830_0 RECT_OPEN 1.0 1.5 0 0 1
C_1262043922_1262043938_0 RECT_OPEN 1.0 1.5 0 0 1
C_1262043922_1262043910_0 RECT_OPEN 1.0 1.5 0 0 1
C_7466386826_1374397406_0 RECT_OPEN 1.0 1.5 0 0 1
C_7466386826_13807649466_0 RECT_OPEN 1.0 1.5 0 0 1
C_1262043932_13105830030_0 RECT_OPEN 1.0 1.5 0 0 1
C_1262043932_1262043919_0 RECT_OPEN 1.0 1.5 0 0 1
C_1262043932_1262043911_0 RECT_OPEN 1.0 1.5 0 0 1
C_1262043932_1966466667_0 RECT_OPEN 1.0 1.5 0 0 1
C_1262043912_1262043947_0 RECT_OPEN 1.0 1.5 0 0 1
C_1262043912_1262043933_0 RECT_OPEN 1.0 1.5 0 0 1
C_1262043912_7466386827_0 RECT_OPEN 1.0 1.5 0 0 1
C_1262043947_1262043912_0 RECT_OPEN 1.0 1.5 0 0 1
C_1262043947_13807649806_0 RECT_OPEN 1.0 1.5 0 0 1
C_1262043947_1770465743_0 RECT_OPEN 1.0 1.5 0 0 1
C_1262043933_1262043938_0 RECT_OPEN 1.0 1.5 0 0 1
C_1262043933_1262043912_0 RECT_OPEN 1.0 1.5 0 0 1
C_1262043933_1770465746_0 RECT_OPEN 1.0 1.5 0 0 1
C_7466386827_1770465746_0 RECT_OPEN 1.0 1.5 0 0 1
C_7466386827_13807649466_0 RECT_OPEN 1.0 1.5 0 0 1
C_7466386827_1262043912_0 RECT_OPEN 1.0 1.5 0 0 1
C_1262043914_1770465756_0 RECT_OPEN 1.0 1.5 0 0 1
C_1262043914_1262043936_0 RECT_OPEN 1.0 1.5 0 0 1
C_1262043914_1262043922_0 RECT_OPEN 1.0 1.5 0 0 1
C_1262043936_1262043914_0 RECT_OPEN 1.0 1.5 0 0 1
C_1262043931_1262043919_0 RECT_OPEN 1.0 1.5 0 0 1
C_1262043931_13807649806_0 RECT_OPEN 1.0 1.5 0 0 1
C_1262043919_1262043931_0 RECT_OPEN 1.0 1.5 0 0 1
C_1262043919_1262043932_0 RECT_OPEN 1.0 1.5 0 0 1
C_1262043919_6144436485_0 RECT_OPEN 1.0 1.5 0 0 1
C_1262043919_1966466667_0 RECT_OPEN 1.0 1.5 0 0 1
C_6144436485_1262043934_0 RECT_OPEN 1.0 1.5 0 0 1
C_6144436485_1262043919_0 RECT_OPEN 1.0 1.5 0 0 1
C_6144436485_13105830030_0 RECT_OPEN 1.0 1.5 0 0 1
C_6144436485_1770465743_0 RECT_OPEN 1.0 1.5 0 0 1
C_1966466667_1262043930_0 RECT_OPEN 1.0 1.5 0 0 1
C_1966466667_1262043919_0 RECT_OPEN 1.0 1.5 0 0 1
C_1966466667_1262043932_0 RECT_OPEN 1.0 1.5 0 0 1
C_1262043920_1262043938_0 RECT_OPEN 1.0 1.5 0 0 1
C_1262043920_1262043916_0 RECT_OPEN 1.0 1.5 0 0 1
C_1262043938_1262043933_0 RECT_OPEN 1.0 1.5 0 0 1
C_1262043938_1770465756_0 RECT_OPEN 1.0 1.5 0 0 1
C_1262043938_1262043922_0 RECT_OPEN 1.0 1.5 0 0 1
C_1262043938_1262043920_0 RECT_OPEN 1.0 1.5 0 0 1
C_7466386830_1262043922_0 RECT_OPEN 1.0 1.5 0 0 1
C_7466386830_1770465753_0 RECT_OPEN 1.0 1.5 0 0 1
C_7466386830_1770465746_0 RECT_OPEN 1.0 1.5 0 0 1
C_1262043923_1262043930_0 RECT_OPEN 1.0 1.5 0 0 1
C_13807649806_1262043947_0 RECT_OPEN 1.0 1.5 0 0 1
C_13807649806_1262043920_0 RECT_OPEN 1.0 1.5 0 0 1
C_1770465746_7466386827_0 RECT_OPEN 1.0 1.5 0 0 1
C_1770465746_1262043933_0 RECT_OPEN 1.0 1.5 0 0 1
C_1770465746_7466386830_0 RECT_OPEN 1.0 1.5 0 0 1
C_9928560957_1262043934_0 RECT_OPEN 1.0 1.5 0 0 1
C_7466386825_1770465743_0 RECT_OPEN 1.0 1.5 0 0 1
C_7466386825_13807649550_0 RECT_OPEN 1.0 1.5 0 0 1
C_7466386825_1262043934_0 RECT_OPEN 1.0 1.5 0 0 1
C_7466386825_9928560993_0 RECT_OPEN 1.0 1.5 0 0 1
C_1770465743_1262043947_0 RECT_OPEN 1.0 1.5 0 0 1
C_1770465743_7466386825_0 RECT_OPEN 1.0 1.5 0 0 1
C_1770465743_6144436485_0 RECT_OPEN 1.0 1.5 0 0 1
C_1327387669_1371814296_0 RECT_OPEN 1.0 1.5 0 0 1
C_1327387669_7465393502_0 RECT_OPEN 1.0 1.5 0 0 1
C_1327387669_1371814145_0 RECT_OPEN 1.0 1.5 0 0 1
C_1327387669_4204925697_0 RECT_OPEN 1.0 1.5 0 0 1
C_1371814296_1371814191_0 RECT_OPEN 1.0 1.5 0 0 1
C_1371814296_1327387669_0 RECT_OPEN 1.0 1.5 0 0 1
C_1371814296_7465393486_0 RECT_OPEN 1.0 1.5 0 0 1
C_1371814145_7465393503_0 RECT_OPEN 1.0 1.5 0 0 1
C_1371814145_1371814316_0 RECT_OPEN 1.0 1.5 0 0 1
C_1371814145_1327387669_0 RECT_OPEN 1.0 1.5 0 0 1
C_4204925697_7465393502_0 RECT_OPEN 1.0 1.5 0 0 1
C_4204925697_4204925699_0 RECT_OPEN 1.0 1.5 0 0 1
C_4204925697_1327387669_0 RECT_OPEN 1.0 1.5 0 0 1
C_1327387674_1371814201_0 RECT_OPEN 1.0 1.5 0 0 1
C_1327387674_1371814219_0 RECT_OPEN 1.0 1.5 0 0 1
C_1327387674_1923819587_0 RECT_OPEN 1.0 1.5 0 0 1
C_1371814201_4204925699_0 RECT_OPEN 1.0 1.5 0 0 1
C_1371814201_1327387674_0 RECT_OPEN 1.0 1.5 0 0 1
C_1371814201_1371814327_0 RECT_OPEN 1.0 1.5 0 0 1
C_1371814219_1327387674_0 RECT_OPEN 1.0 1.5 0 0 1
C_1371814219_1327387675_0 RECT_OPEN 1.0 1.5 0 0 1
C_1371814219_11395452270_0 RECT_OPEN 1.0 1.5 0 0 1
C_1923819587_7465614235_0 RECT_OPEN 1.0 1.5 0 0 1
C_1923819587_1327387674_0 RECT_OPEN 1.0 1.5 0 0 1
C_1923819587_12362900668_0 RECT_OPEN 1.0 1.5 0 0 1
C_1327387675_1371814219_0 RECT_OPEN 1.0 1.5 0 0 1
C_1327387675_1327387677_0 RECT_OPEN 1.0 1.5 0 0 1
C_1327387675_1327387676_0 RECT_OPEN 1.0 1.5 0 0 1
C_1327387677_1327387675_0 RECT_OPEN 1.0 1.5 0 0 1
C_1327387677_1327387682_0 RECT_OPEN 1.0 1.5 0 0 1
C_1327387677_6194157441_0 RECT_OPEN 1.0 1.5 0 0 1
C_1327387677_1371814252_0 RECT_OPEN 1.0 1.5 0 0 1
C_1327387676_1371814282_0 RECT_OPEN 1.0 1.5 0 0 1
C_1327387676_7465614235_0 RECT_OPEN 1.0 1.5 0 0 1
C_1327387676_1327387675_0 RECT_OPEN 1.0 1.5 0 0 1
C_1371814282_6194157441_0 RECT_OPEN 1.0 1.5 0 0 1
C_1371814282_1327387676_0 RECT_OPEN 1.0 1.5 0 0 1
C_1371814282_1371814205_0 RECT_OPEN 1.0 1.5 0 0 1
C_7465614235_1923819587_0 RECT_OPEN 1.0 1.5 0 0 1
C_7465614235_9700074465_0 RECT_OPEN 1.0 1.5 0 0 1
C_7465614235_1327387676_0 RECT_OPEN 1.0 1.5 0 0 1
C_1327387682_1327387677_0 RECT_OPEN 1.0 1.5 0 0 1
C_1327387682_1327387685_0 RECT_OPEN 1.0 1.5 0 0 1
C_1327387682_1327387681_0 RECT_OPEN 1.0 1.5 0 0 1
C_1327387682_1371814312_0 RECT_OPEN 1.0 1.5 0 0 1
C_6194157441_1371814282_0 RECT_OPEN 1.0 1.5 0 0 1
C_6194157441_1327387677_0 RECT_OPEN 1.0 1.5 0 0 1
C_6194157441_1327387681_0 RECT_OPEN 1.0 1.5 0 0 1
C_1371814252_1327387677_0 RECT_OPEN 1.0 1.5 0 0 1
C_1327387679_1327387681_0 RECT_OPEN 1.0 1.5 0 0 1
C_1327387679_1371814205_0 RECT_OPEN 1.0 1.5 0 0 1
C_1327387679_1327387683_0 RECT_OPEN 1.0 1.5 0 0 1
C_1327387679_7465614240_0 RECT_OPEN 1.0 1.5 0 0 1
C_1327387681_1327387679_0 RECT_OPEN 1.0 1.5 0 0 1
C_1327387681_1327387682_0 RECT_OPEN 1.0 1.5 0 0 1
C_1327387681_1327387684_0 RECT_OPEN 1.0 1.5 0 0 1
C_1327387681_6194157441_0 RECT_OPEN 1.0 1.5 0 0 1
C_1371814205_1371814282_0 RECT_OPEN 1.0 1.5 0 0 1
C_1371814205_1327387679_0 RECT_OPEN 1.0 1.5 0 0 1
C_1371814205_7465614239_0 RECT_OPEN 1.0 1.5 0 0 1
C_1327387683_7465614246_0 RECT_OPEN 1.0 1.5 0 0 1
C_1327387683_1327387684_0 RECT_OPEN 1.0 1.5 0 0 1
C_1327387683_1327387679_0 RECT_OPEN 1.0 1.5 0 0 1
C_1327387683_11009508675_0 RECT_OPEN 1.0 1.5 0 0 1
C_7465614240_1327387679_0 RECT_OPEN 1.0 1.5 0 0 1
C_1327387684_1327387683_0 RECT_OPEN 1.0 1.5 0 0 1
C_1327387684_1327387685_0 RECT_OPEN 1.0 1.5 0 0 1
C_1327387684_1327387681_0 RECT_OPEN 1.0 1.5 0 0 1
C_1327387684_1327387687_0 RECT_OPEN 1.0 1.5 0 0 1
C_1327387685_1327387682_0 RECT_OPEN 1.0 1.5 0 0 1
C_1327387685_1327387689_0 RECT_OPEN 1.0 1.5 0 0 1
C_1327387685_1327387684_0 RECT_OPEN 1.0 1.5 0 0 1
C_1327387685_1371814209_0 RECT_OPEN 1.0 1.5 0 0 1
C_1371814312_1327387682_0 RECT_OPEN 1.0 1.5 0 0 1
C_7465614246_1371816462_0 RECT_OPEN 1.0 1.5 0 0 1
C_7465614246_1327387683_0 RECT_OPEN 1.0 1.5 0 0 1
C_7465614246_7465614245_0 RECT_OPEN 1.0 1.5 0 0 1
C_11009508675_1327387683_0 RECT_OPEN 1.0 1.5 0 0 1
C_11009508675_1327387686_0 RECT_OPEN 1.0 1.5 0 0 1
C_11009508675_7465614245_0 RECT_OPEN 1.0 1.5 0 0 1
C_1327387687_1327387684_0 RECT_OPEN 1.0 1.5 0 0 1
C_1327387687_1327387694_0 RECT_OPEN 1.0 1.5 0 0 1
C_1327387687_1327387686_0 RECT_OPEN 1.0 1.5 0 0 1
C_1327387687_1327387689_0 RECT_OPEN 1.0 1.5 0 0 1
C_1327387689_1327387685_0 RECT_OPEN 1.0 1.5 0 0 1
C_1327387689_1327387695_0 RECT_OPEN 1.0 1.5 0 0 1
C_1327387689_1327387687_0 RECT_OPEN 1.0 1.5 0 0 1
C_1327387689_1371814298_0 RECT_OPEN 1.0 1.5 0 0 1
C_1371814209_1327387685_0 RECT_OPEN 1.0 1.5 0 0 1
C_1327387686_1371816431_0 RECT_OPEN 1.0 1.5 0 0 1
C_1327387686_11009508675_0 RECT_OPEN 1.0 1.5 0 0 1
C_1327387686_1327387687_0 RECT_OPEN 1.0 1.5 0 0 1
C_1371816431_1327387686_0 RECT_OPEN 1.0 1.5 0 0 1
C_1371816431_1371816413_0 RECT_OPEN 1.0 1.5 0 0 1
C_1371816431_5281842548_0 RECT_OPEN 1.0 1.5 0 0 1
C_1327387694_1371816413_0 RECT_OPEN 1.0 1.5 0 0 1
C_1327387694_1327387695_0 RECT_OPEN 1.0 1.5 0 0 1
C_1327387694_1327387687_0 RECT_OPEN 1.0 1.5 0 0 1
C_1327387694_1327387697_0 RECT_OPEN 1.0 1.5 0 0 1
C_1327387695_1327387689_0 RECT_OPEN 1.0 1.5 0 0 1
C_1327387695_1327387698_0 RECT_OPEN 1.0 1.5 0 0 1
C_1327387695_1327387694_0 RECT_OPEN 1.0 1.5 0 0 1
C_1327387695_11395452271_0 RECT_OPEN 1.0 1.5 0 0 1
C_1371814298_1327387689_0 RECT_OPEN 1.0 1.5 0 0 1
C_1371814298_1327387690_0 RECT_OPEN 1.0 1.5 0 0 1
C_1371814298_9700074460_0 RECT_OPEN 1.0 1.5 0 0 1
C_1327387690_6152762851_0 RECT_OPEN 1.0 1.5 0 0 1
C_1327387690_1371814298_0 RECT_OPEN 1.0 1.5 0 0 1
C_1327387690_1327387692_0 RECT_OPEN 1.0 1.5 0 0 1
C_6152762851_1327387690_0 RECT_OPEN 1.0 1.5 0 0 1
C_6152762851_5281727083_0 RECT_OPEN 1.0 1.5 0 0 1
C_6152762851_1327387698_0 RECT_OPEN 1.0 1.5 0 0 1
C_1327387692_1437330565_0 RECT_OPEN 1.0 1.5 0 0 1
C_1327387692_1327387690_0 RECT_OPEN 1.0 1.5 0 0 1
C_1327387692_4204925700_0 RECT_OPEN 1.0 1.5 0 0 1
C_4204925700_6132933105_0 RECT_OPEN 1.0 1.5 0 0 1
C_4204925700_13064733100_0 RECT_OPEN 1.0 1.5 0 0 1
C_4204925700_1485730751_0 RECT_OPEN 1.0 1.5 0 0 1
C_1371816413_1327387694_0 RECT_OPEN 1.0 1.5 0 0 1
C_1371816413_1371816431_0 RECT_OPEN 1.0 1.5 0 0 1
C_1371816413_1327387701_0 RECT_OPEN 1.0 1.5 0 0 1
C_1327387697_1327387694_0 RECT_OPEN 1.0 1.5 0 0 1
C_1327387697_1327387702_0 RECT_OPEN 1.0 1.5 0 0 1
C_1327387697_1327387696_0 RECT_OPEN 1.0 1.5 0 0 1
C_1327387697_1327387698_0 RECT_OPEN 1.0 1.5 0 0 1
C_1327387698_1327387695_0 RECT_OPEN 1.0 1.5 0 0 1
C_1327387698_5281727082_0 RECT_OPEN 1.0 1.5 0 0 1
C_1327387698_1327387697_0 RECT_OPEN 1.0 1.5 0 0 1
C_1327387698_6152762851_0 RECT_OPEN 1.0 1.5 0 0 1
C_11395452271_1327387695_0 RECT_OPEN 1.0 1.5 0 0 1
C_1327387696_1371816442_0 RECT_OPEN 1.0 1.5 0 0 1
C_1327387696_1371816427_0 RECT_OPEN 1.0 1.5 0 0 1
C_1327387696_1327387697_0 RECT_OPEN 1.0 1.5 0 0 1
C_1371816442_1371816427_0 RECT_OPEN 1.0 1.5 0 0 1
C_1371816442_1371816401_0 RECT_OPEN 1.0 1.5 0 0 1
C_1371816442_1327387696_0 RECT_OPEN 1.0 1.5 0 0 1
C_1371816427_1371816442_0 RECT_OPEN 1.0 1.5 0 0 1
C_1371816427_1371816463_0 RECT_OPEN 1.0 1.5 0 0 1
C_1371816427_1327387696_0 RECT_OPEN 1.0 1.5 0 0 1
C_1327387702_1327387697_0 RECT_OPEN 1.0 1.5 0 0 1
C_1327387702_7465614251_0 RECT_OPEN 1.0 1.5 0 0 1
C_1327387702_1371816459_0 RECT_OPEN 1.0 1.5 0 0 1
C_1327387702_7465614249_0 RECT_OPEN 1.0 1.5 0 0 1
C_5281727082_1327387698_0 RECT_OPEN 1.0 1.5 0 0 1
C_5281727082_1327387704_0 RECT_OPEN 1.0 1.5 0 0 1
C_5281727082_5281727083_0 RECT_OPEN 1.0 1.5 0 0 1
C_1327387699_1327387701_0 RECT_OPEN 1.0 1.5 0 0 1
C_1327387699_1371816463_0 RECT_OPEN 1.0 1.5 0 0 1
C_1327387699_1371816459_0 RECT_OPEN 1.0 1.5 0 0 1
C_1327387701_7465614249_0 RECT_OPEN 1.0 1.5 0 0 1
C_1327387701_1327387699_0 RECT_OPEN 1.0 1.5 0 0 1
C_1327387701_1371816413_0 RECT_OPEN 1.0 1.5 0 0 1
C_1371816463_1371816401_0 RECT_OPEN 1.0 1.5 0 0 1
C_1371816463_1327387699_0 RECT_OPEN 1.0 1.5 0 0 1
C_1371816463_1371816427_0 RECT_OPEN 1.0 1.5 0 0 1
C_1371816459_1371816401_0 RECT_OPEN 1.0 1.5 0 0 1
C_1371816459_1327387702_0 RECT_OPEN 1.0 1.5 0 0 1
C_1371816459_1327387699_0 RECT_OPEN 1.0 1.5 0 0 1
C_7465614249_1327387701_0 RECT_OPEN 1.0 1.5 0 0 1
C_7465614249_7465614250_0 RECT_OPEN 1.0 1.5 0 0 1
C_7465614249_1327387702_0 RECT_OPEN 1.0 1.5 0 0 1
C_7465614251_7465614253_0 RECT_OPEN 1.0 1.5 0 0 1
C_7465614251_1327387702_0 RECT_OPEN 1.0 1.5 0 0 1
C_7465614251_7465614250_0 RECT_OPEN 1.0 1.5 0 0 1
C_1327387704_5281727082_0 RECT_OPEN 1.0 1.5 0 0 1
C_1327387704_7465614253_0 RECT_OPEN 1.0 1.5 0 0 1
C_1327387704_7465614254_0 RECT_OPEN 1.0 1.5 0 0 1
C_7465614253_1327387704_0 RECT_OPEN 1.0 1.5 0 0 1
C_7465614253_7465614251_0 RECT_OPEN 1.0 1.5 0 0 1
C_7465614253_7465614252_0 RECT_OPEN 1.0 1.5 0 0 1
C_7465614254_1327387704_0 RECT_OPEN 1.0 1.5 0 0 1
C_1347565267_7465646179_0 RECT_OPEN 1.0 1.5 0 0 1
C_1347565267_6620856876_0 RECT_OPEN 1.0 1.5 0 0 1
C_1347565267_2225133603_0 RECT_OPEN 1.0 1.5 0 0 1
C_1347565267_7465646180_0 RECT_OPEN 1.0 1.5 0 0 1
C_7465646179_7465646171_0 RECT_OPEN 1.0 1.5 0 0 1
C_7465646179_1347565267_0 RECT_OPEN 1.0 1.5 0 0 1
C_7465646179_7465646173_0 RECT_OPEN 1.0 1.5 0 0 1
C_6620856876_12635196524_0 RECT_OPEN 1.0 1.5 0 0 1
C_6620856876_1347565267_0 RECT_OPEN 1.0 1.5 0 0 1
C_6620856876_1633904682_0 RECT_OPEN 1.0 1.5 0 0 1
C_2225133603_1347565269_0 RECT_OPEN 1.0 1.5 0 0 1
C_2225133603_1347565267_0 RECT_OPEN 1.0 1.5 0 0 1
C_2225133603_7465456797_0 RECT_OPEN 1.0 1.5 0 0 1
C_7465646180_1347565267_0 RECT_OPEN 1.0 1.5 0 0 1
C_1347565269_2225133603_0 RECT_OPEN 1.0 1.5 0 0 1
C_1347565269_1347565270_0 RECT_OPEN 1.0 1.5 0 0 1
C_1347565269_11021533254_0 RECT_OPEN 1.0 1.5 0 0 1
C_1347565270_1347565269_0 RECT_OPEN 1.0 1.5 0 0 1
C_1347565270_7465456816_0 RECT_OPEN 1.0 1.5 0 0 1
C_1347565270_7465672901_0 RECT_OPEN 1.0 1.5 0 0 1
C_11021533254_1347565269_0 RECT_OPEN 1.0 1.5 0 0 1
C_11021533254_6182547032_0 RECT_OPEN 1.0 1.5 0 0 1
C_11021533254_1347565272_0 RECT_OPEN 1.0 1.5 0 0 1
C_7465456816_1347565270_0 RECT_OPEN 1.0 1.5 0 0 1
C_7465456816_9700303072_0 RECT_OPEN 1.0 1.5 0 0 1
C_7465456816_1347565272_0 RECT_OPEN 1.0 1.5 0 0 1
C_7465672901_1347565270_0 RECT_OPEN 1.0 1.5 0 0 1
C_1634931753_1367922212_0 RECT_OPEN 1.0 1.5 0 0 1
C_1368117346_1368117304_0 RECT_OPEN 1.0 1.5 0 0 1
C_1368117346_1368117314_0 RECT_OPEN 1.0 1.5 0 0 1
C_1368117346_1367922212_0 RECT_OPEN 1.0 1.5 0 0 1
C_1368117304_1368117346_0 RECT_OPEN 1.0 1.5 0 0 1
C_1368117316_1371814142_0 RECT_OPEN 1.0 1.5 0 0 1
C_1368117316_9700074482_0 RECT_OPEN 1.0 1.5 0 0 1
C_1371814142_9897294963_0 RECT_OPEN 1.0 1.5 0 0 1
C_1371814142_1104250513_0 RECT_OPEN 1.0 1.5 0 0 1
C_9700074482_1368117316_0 RECT_OPEN 1.0 1.5 0 0 1
C_1368117325_1368801668_0 RECT_OPEN 1.0 1.5 0 0 1
C_1368117325_9900960189_0 RECT_OPEN 1.0 1.5 0 0 1
C_9900960189_1368117325_0 RECT_OPEN 1.0 1.5 0 0 1
C_1368117350_1502865753_0 RECT_OPEN 1.0 1.5 0 0 1
C_1368117350_7261406108_0 RECT_OPEN 1.0 1.5 0 0 1
C_1502865753_1502865751_0 RECT_OPEN 1.0 1.5 0 0 1
C_1502865753_1368117384_0 RECT_OPEN 1.0 1.5 0 0 1
C_1368117363_5281842539_0 RECT_OPEN 1.0 1.5 0 0 1
C_1368117363_9645445154_0 RECT_OPEN 1.0 1.5 0 0 1
C_5281842539_5281842538_0 RECT_OPEN 1.0 1.5 0 0 1
C_5281842539_10991832380_0 RECT_OPEN 1.0 1.5 0 0 1
C_5281842539_1368117363_0 RECT_OPEN 1.0 1.5 0 0 1
C_9645445154_9645445151_0 RECT_OPEN 1.0 1.5 0 0 1
C_9645445154_3300742565_0 RECT_OPEN 1.0 1.5 0 0 1
C_11434400637_1368117384_0 RECT_OPEN 1.0 1.5 0 0 1
C_11926574593_9900960190_0 RECT_OPEN 1.0 1.5 0 0 1
C_11926574593_11028858435_0 RECT_OPEN 1.0 1.5 0 0 1
C_1368672364_1701004552_0 RECT_OPEN 1.0 1.5 0 0 1
C_1368672364_1558993987_0 RECT_OPEN 1.0 1.5 0 0 1
C_1701004552_1701004555_0 RECT_OPEN 1.0 1.5 0 0 1
C_1558993987_1558994048_0 RECT_OPEN 1.0 1.5 0 0 1
C_1558993987_1368672364_0 RECT_OPEN 1.0 1.5 0 0 1
C_1558993987_1852671167_0 RECT_OPEN 1.0 1.5 0 0 1
C_7298295670_10284858574_0 RECT_OPEN 1.0 1.5 0 0 1
C_7298295670_10084814543_0 RECT_OPEN 1.0 1.5 0 0 1
C_1368801655_6182817159_0 RECT_OPEN 1.0 1.5 0 0 1
C_1368801655_7101732711_0 RECT_OPEN 1.0 1.5 0 0 1
C_6182817159_1368801655_0 RECT_OPEN 1.0 1.5 0 0 1
C_6182817159_10185513621_0 RECT_OPEN 1.0 1.5 0 0 1
C_7101732711_1368801655_0 RECT_OPEN 1.0 1.5 0 0 1
C_7101732711_7101732723_0 RECT_OPEN 1.0 1.5 0 0 1
C_7101732711_11027804587_0 RECT_OPEN 1.0 1.5 0 0 1
C_1368801659_1368801669_0 RECT_OPEN 1.0 1.5 0 0 1
C_1368801659_11027804585_0 RECT_OPEN 1.0 1.5 0 0 1
C_1368801659_11077269487_0 RECT_OPEN 1.0 1.5 0 0 1
C_1368801669_1558994002_0 RECT_OPEN 1.0 1.5 0 0 1
C_1368801669_1368801659_0 RECT_OPEN 1.0 1.5 0 0 1
C_1368801669_11397593720_0 RECT_OPEN 1.0 1.5 0 0 1
C_11027804585_1368801659_0 RECT_OPEN 1.0 1.5 0 0 1
C_11027804585_11027804587_0 RECT_OPEN 1.0 1.5 0 0 1
C_11027804585_11027804586_0 RECT_OPEN 1.0 1.5 0 0 1
C_11077269487_7175614342_0 RECT_OPEN 1.0 1.5 0 0 1
C_11077269487_11077269488_0 RECT_OPEN 1.0 1.5 0 0 1
C_11077269487_1368801659_0 RECT_OPEN 1.0 1.5 0 0 1
C_1558993902_9901111715_0 RECT_OPEN 1.0 1.5 0 0 1
C_1558993902_1558993988_0 RECT_OPEN 1.0 1.5 0 0 1
C_1558994002_7101732723_0 RECT_OPEN 1.0 1.5 0 0 1
C_1558994002_1368801669_0 RECT_OPEN 1.0 1.5 0 0 1
C_1558994002_7298289310_0 RECT_OPEN 1.0 1.5 0 0 1
C_11397593720_11176392352_0 RECT_OPEN 1.0 1.5 0 0 1
C_11397593720_10209123011_0 RECT_OPEN 1.0 1.5 0 0 1
C_11397593720_11397593723_0 RECT_OPEN 1.0 1.5 0 0 1
C_11397593720_1368801669_0 RECT_OPEN 1.0 1.5 0 0 1
C_1368801673_1371828535_0 RECT_OPEN 1.0 1.5 0 0 1
C_1368801673_10738521350_0 RECT_OPEN 1.0 1.5 0 0 1
C_1371828535_10084814543_0 RECT_OPEN 1.0 1.5 0 0 1
C_1371828535_7298289227_0 RECT_OPEN 1.0 1.5 0 0 1
C_10738521350_1368801692_0 RECT_OPEN 1.0 1.5 0 0 1
C_10738521350_12185458377_0 RECT_OPEN 1.0 1.5 0 0 1
C_1368801692_9681688971_0 RECT_OPEN 1.0 1.5 0 0 1
C_1368801692_1368117363_0 RECT_OPEN 1.0 1.5 0 0 1
C_9681688971_1368801673_0 RECT_OPEN 1.0 1.5 0 0 1
C_1376905664_1104250495_0 RECT_OPEN 1.0 1.5 0 0 1
C_1376905664_1376905673_0 RECT_OPEN 1.0 1.5 0 0 1
C_1368828978_7298289285_0 RECT_OPEN 1.0 1.5 0 0 1
C_7298289285_1368828996_0 RECT_OPEN 1.0 1.5 0 0 1
C_7298289285_1368828978_0 RECT_OPEN 1.0 1.5 0 0 1
C_7298289285_1634931711_0 RECT_OPEN 1.0 1.5 0 0 1
C_7291167549_1368828999_0 RECT_OPEN 1.0 1.5 0 0 1
C_2066388564_2066388579_0 RECT_OPEN 1.0 1.5 0 0 1
C_2066388564_1634931847_0 RECT_OPEN 1.0 1.5 0 0 1
C_2066388564_1368829030_0 RECT_OPEN 1.0 1.5 0 0 1
C_1368933533_11640782969_0 RECT_OPEN 1.0 1.5 0 0 1
C_1368933533_1368933536_0 RECT_OPEN 1.0 1.5 0 0 1
C_1368933533_14066684544_0 RECT_OPEN 1.0 1.5 0 0 1
C_11640782969_1368933533_0 RECT_OPEN 1.0 1.5 0 0 1
C_11640782969_7298268883_0 RECT_OPEN 1.0 1.5 0 0 1
C_11640782969_12196909080_0 RECT_OPEN 1.0 1.5 0 0 1
C_1368933536_1368933533_0 RECT_OPEN 1.0 1.5 0 0 1
C_1368933536_7121386221_0 RECT_OPEN 1.0 1.5 0 0 1
C_1368933536_7298268884_0 RECT_OPEN 1.0 1.5 0 0 1
C_14066684544_1368933533_0 RECT_OPEN 1.0 1.5 0 0 1
C_7298268884_1368933536_0 RECT_OPEN 1.0 1.5 0 0 1
C_1371807527_1371807599_0 RECT_OPEN 1.0 1.5 0 0 1
C_1371807527_1371807607_0 RECT_OPEN 1.0 1.5 0 0 1
C_1371807527_5281839991_0 RECT_OPEN 1.0 1.5 0 0 1
C_1371807599_1371807527_0 RECT_OPEN 1.0 1.5 0 0 1
C_1371807607_1371807559_0 RECT_OPEN 1.0 1.5 0 0 1
C_1371807607_1371807533_0 RECT_OPEN 1.0 1.5 0 0 1
C_1371807607_1371807527_0 RECT_OPEN 1.0 1.5 0 0 1
C_5281839991_5281839990_0 RECT_OPEN 1.0 1.5 0 0 1
C_5281839991_1371807527_0 RECT_OPEN 1.0 1.5 0 0 1
C_5281839991_1371807540_0 RECT_OPEN 1.0 1.5 0 0 1
C_1371807528_1371807583_0 RECT_OPEN 1.0 1.5 0 0 1
C_1371807530_13654038141_0 RECT_OPEN 1.0 1.5 0 0 1
C_13654038141_1371807602_0 RECT_OPEN 1.0 1.5 0 0 1
C_13654038141_9700074492_0 RECT_OPEN 1.0 1.5 0 0 1
C_13654038141_1371807530_0 RECT_OPEN 1.0 1.5 0 0 1
C_1371807531_1371807645_0 RECT_OPEN 1.0 1.5 0 0 1
C_1371807645_1371807641_0 RECT_OPEN 1.0 1.5 0 0 1
C_1371807645_1371807602_0 RECT_OPEN 1.0 1.5 0 0 1
C_1371807645_1371807531_0 RECT_OPEN 1.0 1.5 0 0 1
C_1371807533_1371807607_0 RECT_OPEN 1.0 1.5 0 0 1
C_1371807533_13654038123_0 RECT_OPEN 1.0 1.5 0 0 1
C_1371807533_1371807573_0 RECT_OPEN 1.0 1.5 0 0 1
C_13654038123_1371807533_0 RECT_OPEN 1.0 1.5 0 0 1
C_1371807573_9700074494_0 RECT_OPEN 1.0 1.5 0 0 1
C_1371807573_11021806270_0 RECT_OPEN 1.0 1.5 0 0 1
C_1371807573_9700074492_0 RECT_OPEN 1.0 1.5 0 0 1
C_1371807573_1371807533_0 RECT_OPEN 1.0 1.5 0 0 1
C_1371807534_1371807587_0 RECT_OPEN 1.0 1.5 0 0 1
C_1371807587_1371807534_0 RECT_OPEN 1.0 1.5 0 0 1
C_1371807587_5281842526_0 RECT_OPEN 1.0 1.5 0 0 1
C_1371807587_5283547061_0 RECT_OPEN 1.0 1.5 0 0 1
C_1371807535_1371807649_0 RECT_OPEN 1.0 1.5 0 0 1
C_1371807649_1371807586_0 RECT_OPEN 1.0 1.5 0 0 1
C_1371807649_1371807598_0 RECT_OPEN 1.0 1.5 0 0 1
C_1371807649_1371807535_0 RECT_OPEN 1.0 1.5 0 0 1
C_1371807537_2486617762_0 RECT_OPEN 1.0 1.5 0 0 1
C_1371807537_9884546155_0 RECT_OPEN 1.0 1.5 0 0 1
C_1371807537_7453315722_0 RECT_OPEN 1.0 1.5 0 0 1
C_2486617762_1371807537_0 RECT_OPEN 1.0 1.5 0 0 1
C_2486617762_13656305932_0 RECT_OPEN 1.0 1.5 0 0 1
C_2486617762_1371807572_0 RECT_OPEN 1.0 1.5 0 0 1
C_9884546155_1371807537_0 RECT_OPEN 1.0 1.5 0 0 1
C_7453315722_1371807551_0 RECT_OPEN 1.0 1.5 0 0 1
C_7453315722_1371807537_0 RECT_OPEN 1.0 1.5 0 0 1
C_7453315722_13667500433_0 RECT_OPEN 1.0 1.5 0 0 1
C_1371807538_13667500256_0 RECT_OPEN 1.0 1.5 0 0 1
C_13667500256_1371807592_0 RECT_OPEN 1.0 1.5 0 0 1
C_13667500256_1371807538_0 RECT_OPEN 1.0 1.5 0 0 1
C_13667500256_1371807644_0 RECT_OPEN 1.0 1.5 0 0 1
C_1371807540_1371807651_0 RECT_OPEN 1.0 1.5 0 0 1
C_1371807540_5281839991_0 RECT_OPEN 1.0 1.5 0 0 1
C_1371807540_1371807595_0 RECT_OPEN 1.0 1.5 0 0 1
C_1371807540_13654030352_0 RECT_OPEN 1.0 1.5 0 0 1
C_1371807651_1371807540_0 RECT_OPEN 1.0 1.5 0 0 1
C_1371807651_1371807620_0 RECT_OPEN 1.0 1.5 0 0 1
C_1371807651_13654030378_0 RECT_OPEN 1.0 1.5 0 0 1
C_1371807595_1371807540_0 RECT_OPEN 1.0 1.5 0 0 1
C_13654030352_7453315612_0 RECT_OPEN 1.0 1.5 0 0 1
C_13654030352_7453315613_0 RECT_OPEN 1.0 1.5 0 0 1
C_13654030352_1371807540_0 RECT_OPEN 1.0 1.5 0 0 1
C_1371807542_12141933091_0 RECT_OPEN 1.0 1.5 0 0 1
C_1371807542_11027638242_0 RECT_OPEN 1.0 1.5 0 0 1
C_11027638242_11027638241_0 RECT_OPEN 1.0 1.5 0 0 1
C_11027638242_13656305937_0 RECT_OPEN 1.0 1.5 0 0 1
C_11027638242_1371807542_0 RECT_OPEN 1.0 1.5 0 0 1
C_1371807544_1371807598_0 RECT_OPEN 1.0 1.5 0 0 1
C_1371807544_1371807657_0 RECT_OPEN 1.0 1.5 0 0 1
C_1371807544_3649025393_0 RECT_OPEN 1.0 1.5 0 0 1
C_1371807598_1371807649_0 RECT_OPEN 1.0 1.5 0 0 1
C_1371807598_1371807544_0 RECT_OPEN 1.0 1.5 0 0 1
C_1371807598_7453315652_0 RECT_OPEN 1.0 1.5 0 0 1
C_1371807657_1371807641_0 RECT_OPEN 1.0 1.5 0 0 1
C_1371807657_1371807544_0 RECT_OPEN 1.0 1.5 0 0 1
C_1371807657_1371807586_0 RECT_OPEN 1.0 1.5 0 0 1
C_3649025393_3649025396_0 RECT_OPEN 1.0 1.5 0 0 1
C_3649025393_1371807544_0 RECT_OPEN 1.0 1.5 0 0 1
C_3649025393_13655652480_0 RECT_OPEN 1.0 1.5 0 0 1
C_1371807546_1371807616_0 RECT_OPEN 1.0 1.5 0 0 1
C_1371807546_13130350871_0 RECT_OPEN 1.0 1.5 0 0 1
C_1371807546_13654038433_0 RECT_OPEN 1.0 1.5 0 0 1
C_1371807616_1371807546_0 RECT_OPEN 1.0 1.5 0 0 1
C_1371807616_13654038308_0 RECT_OPEN 1.0 1.5 0 0 1
C_1371807616_1371807558_0 RECT_OPEN 1.0 1.5 0 0 1
C_13130350871_1371807546_0 RECT_OPEN 1.0 1.5 0 0 1
C_13654038433_13654038432_0 RECT_OPEN 1.0 1.5 0 0 1
C_13654038433_6194238914_0 RECT_OPEN 1.0 1.5 0 0 1
C_13654038433_1371807546_0 RECT_OPEN 1.0 1.5 0 0 1
C_1371807549_1371807564_0 RECT_OPEN 1.0 1.5 0 0 1
C_1371807549_1371807666_0 RECT_OPEN 1.0 1.5 0 0 1
C_1371807549_1371807570_0 RECT_OPEN 1.0 1.5 0 0 1
C_1371807564_1371807549_0 RECT_OPEN 1.0 1.5 0 0 1
C_1371807564_1371807612_0 RECT_OPEN 1.0 1.5 0 0 1
C_1371807564_7453315612_0 RECT_OPEN 1.0 1.5 0 0 1
C_1371807666_1371807549_0 RECT_OPEN 1.0 1.5 0 0 1
C_1371807551_5281840020_0 RECT_OPEN 1.0 1.5 0 0 1
C_1371807551_7453315722_0 RECT_OPEN 1.0 1.5 0 0 1
C_1371807551_13503417936_0 RECT_OPEN 1.0 1.5 0 0 1
C_5281840020_1371807551_0 RECT_OPEN 1.0 1.5 0 0 1
C_5281840020_5281842521_0 RECT_OPEN 1.0 1.5 0 0 1
C_5281840020_6168910216_0 RECT_OPEN 1.0 1.5 0 0 1
C_13503417936_1371807551_0 RECT_OPEN 1.0 1.5 0 0 1
C_1371807558_1371807616_0 RECT_OPEN 1.0 1.5 0 0 1
C_1371807559_1371807607_0 RECT_OPEN 1.0 1.5 0 0 1
C_1371807561_1371807620_0 RECT_OPEN 1.0 1.5 0 0 1
C_1371807620_1371807561_0 RECT_OPEN 1.0 1.5 0 0 1
C_1371807620_1371807651_0 RECT_OPEN 1.0 1.5 0 0 1
C_1371807620_11397275311_0 RECT_OPEN 1.0 1.5 0 0 1
C_1371807563_13667500010_0 RECT_OPEN 1.0 1.5 0 0 1
C_1371807563_1371807631_0 RECT_OPEN 1.0 1.5 0 0 1
C_1371807563_1578236015_0 RECT_OPEN 1.0 1.5 0 0 1
C_13667500010_1371807606_0 RECT_OPEN 1.0 1.5 0 0 1
C_13667500010_1371807563_0 RECT_OPEN 1.0 1.5 0 0 1
C_13667500010_13667500009_0 RECT_OPEN 1.0 1.5 0 0 1
C_1371807631_1371807563_0 RECT_OPEN 1.0 1.5 0 0 1
C_1371807631_1371814339_0 RECT_OPEN 1.0 1.5 0 0 1
C_1371807631_2225133216_0 RECT_OPEN 1.0 1.5 0 0 1
C_1578236015_1371807563_0 RECT_OPEN 1.0 1.5 0 0 1
C_1578236015_1371807626_0 RECT_OPEN 1.0 1.5 0 0 1
C_1578236015_1371807593_0 RECT_OPEN 1.0 1.5 0 0 1
C_1578236015_1371807660_0 RECT_OPEN 1.0 1.5 0 0 1
C_1371807612_1371807606_0 RECT_OPEN 1.0 1.5 0 0 1
C_1371807612_1371807661_0 RECT_OPEN 1.0 1.5 0 0 1
C_1371807612_1371807564_0 RECT_OPEN 1.0 1.5 0 0 1
C_7453315612_7453315735_0 RECT_OPEN 1.0 1.5 0 0 1
C_7453315612_13654030352_0 RECT_OPEN 1.0 1.5 0 0 1
C_7453315612_1371807564_0 RECT_OPEN 1.0 1.5 0 0 1
C_7453315740_1371807570_0 RECT_OPEN 1.0 1.5 0 0 1
C_1371807571_1371807652_0 RECT_OPEN 1.0 1.5 0 0 1
C_1371807571_7452673911_0 RECT_OPEN 1.0 1.5 0 0 1
C_1371807571_5283343749_0 RECT_OPEN 1.0 1.5 0 0 1
C_1371807571_11021488563_0 RECT_OPEN 1.0 1.5 0 0 1
C_1371807652_7452673919_0 RECT_OPEN 1.0 1.5 0 0 1
C_1371807652_1371807571_0 RECT_OPEN 1.0 1.5 0 0 1
C_1371807652_11021648174_0 RECT_OPEN 1.0 1.5 0 0 1
C_7452673911_1514989685_0 RECT_OPEN 1.0 1.5 0 0 1
C_7452673911_1371807571_0 RECT_OPEN 1.0 1.5 0 0 1
C_7452673911_11021488560_0 RECT_OPEN 1.0 1.5 0 0 1
C_5283343749_5283343748_0 RECT_OPEN 1.0 1.5 0 0 1
C_5283343749_13127664189_0 RECT_OPEN 1.0 1.5 0 0 1
C_5283343749_1371807571_0 RECT_OPEN 1.0 1.5 0 0 1
C_11021488563_11021488560_0 RECT_OPEN 1.0 1.5 0 0 1
C_11021488563_1371807571_0 RECT_OPEN 1.0 1.5 0 0 1
C_11021488563_1371807644_0 RECT_OPEN 1.0 1.5 0 0 1
C_1371807572_1371807661_0 RECT_OPEN 1.0 1.5 0 0 1
C_1371807572_2486617762_0 RECT_OPEN 1.0 1.5 0 0 1
C_1371807572_13667500433_0 RECT_OPEN 1.0 1.5 0 0 1
C_1371807661_1371807572_0 RECT_OPEN 1.0 1.5 0 0 1
C_1371807661_2486617761_0 RECT_OPEN 1.0 1.5 0 0 1
C_1371807661_1371807612_0 RECT_OPEN 1.0 1.5 0 0 1
C_13667500433_7453315731_0 RECT_OPEN 1.0 1.5 0 0 1
C_13667500433_7453315722_0 RECT_OPEN 1.0 1.5 0 0 1
C_13667500433_1371807572_0 RECT_OPEN 1.0 1.5 0 0 1
C_9700074494_1371807573_0 RECT_OPEN 1.0 1.5 0 0 1
C_11021806270_1371807573_0 RECT_OPEN 1.0 1.5 0 0 1
C_9700074492_1371807658_0 RECT_OPEN 1.0 1.5 0 0 1
C_9700074492_13654038141_0 RECT_OPEN 1.0 1.5 0 0 1
C_9700074492_1371807633_0 RECT_OPEN 1.0 1.5 0 0 1
C_9700074492_1371807573_0 RECT_OPEN 1.0 1.5 0 0 1
C_1371807575_1371807639_0 RECT_OPEN 1.0 1.5 0 0 1
C_1371807639_1371807637_0 RECT_OPEN 1.0 1.5 0 0 1
C_1371807639_1371807586_0 RECT_OPEN 1.0 1.5 0 0 1
C_1371807639_1371807575_0 RECT_OPEN 1.0 1.5 0 0 1
C_1371807578_1371807627_0 RECT_OPEN 1.0 1.5 0 0 1
C_1371807578_1371807637_0 RECT_OPEN 1.0 1.5 0 0 1
C_1371807578_1371807659_0 RECT_OPEN 1.0 1.5 0 0 1
C_1371807627_11021417755_0 RECT_OPEN 1.0 1.5 0 0 1
C_1371807627_1371807578_0 RECT_OPEN 1.0 1.5 0 0 1
C_1371807627_1371807646_0 RECT_OPEN 1.0 1.5 0 0 1
C_1371807637_1371807578_0 RECT_OPEN 1.0 1.5 0 0 1
C_1371807637_1371807639_0 RECT_OPEN 1.0 1.5 0 0 1
C_1371807637_3530277755_0 RECT_OPEN 1.0 1.5 0 0 1
C_1371807637_1371807655_0 RECT_OPEN 1.0 1.5 0 0 1
C_1371807659_1371807578_0 RECT_OPEN 1.0 1.5 0 0 1
C_7147042929_7147042927_0 RECT_OPEN 1.0 1.5 0 0 1
C_7147042929_2225133199_0 RECT_OPEN 1.0 1.5 0 0 1
C_7147042929_1371807583_0 RECT_OPEN 1.0 1.5 0 0 1
C_1371807586_1371807639_0 RECT_OPEN 1.0 1.5 0 0 1
C_1371807586_1371807649_0 RECT_OPEN 1.0 1.5 0 0 1
C_1371807586_1371807657_0 RECT_OPEN 1.0 1.5 0 0 1
C_5281842526_5283547058_0 RECT_OPEN 1.0 1.5 0 0 1
C_5281842526_5283547059_0 RECT_OPEN 1.0 1.5 0 0 1
C_5281842526_1371807587_0 RECT_OPEN 1.0 1.5 0 0 1
C_5281842526_13667500182_0 RECT_OPEN 1.0 1.5 0 0 1
C_5283547061_1371807587_0 RECT_OPEN 1.0 1.5 0 0 1
C_5283547061_2225133195_0 RECT_OPEN 1.0 1.5 0 0 1
C_5283547061_7147063884_0 RECT_OPEN 1.0 1.5 0 0 1
C_1371807592_5283547056_0 RECT_OPEN 1.0 1.5 0 0 1
C_1371807592_13667500256_0 RECT_OPEN 1.0 1.5 0 0 1
C_1371807592_1371807642_0 RECT_OPEN 1.0 1.5 0 0 1
C_5283547056_1371807592_0 RECT_OPEN 1.0 1.5 0 0 1
C_1371807642_1371807665_0 RECT_OPEN 1.0 1.5 0 0 1
C_1371807642_1371807592_0 RECT_OPEN 1.0 1.5 0 0 1
C_1371807642_5283547059_0 RECT_OPEN 1.0 1.5 0 0 1
C_1371807593_1578236015_0 RECT_OPEN 1.0 1.5 0 0 1
C_1371807593_1371807654_0 RECT_OPEN 1.0 1.5 0 0 1
C_1371807593_2225133216_0 RECT_OPEN 1.0 1.5 0 0 1
C_1371807654_1371807626_0 RECT_OPEN 1.0 1.5 0 0 1
C_1371807654_2225133206_0 RECT_OPEN 1.0 1.5 0 0 1
C_1371807654_1371807593_0 RECT_OPEN 1.0 1.5 0 0 1
C_2225133216_1371807593_0 RECT_OPEN 1.0 1.5 0 0 1
C_2225133216_2225133295_0 RECT_OPEN 1.0 1.5 0 0 1
C_2225133216_1371807631_0 RECT_OPEN 1.0 1.5 0 0 1
C_1371807596_1514989648_0 RECT_OPEN 1.0 1.5 0 0 1
C_1371807596_2225133166_0 RECT_OPEN 1.0 1.5 0 0 1
C_1371807596_11015226552_0 RECT_OPEN 1.0 1.5 0 0 1
C_1514989648_1371807596_0 RECT_OPEN 1.0 1.5 0 0 1
C_1514989648_1514989637_0 RECT_OPEN 1.0 1.5 0 0 1
C_1514989648_1371807608_0 RECT_OPEN 1.0 1.5 0 0 1
C_11015226552_1371807596_0 RECT_OPEN 1.0 1.5 0 0 1
C_11015226552_11015226553_0 RECT_OPEN 1.0 1.5 0 0 1
C_11015226552_2225133167_0 RECT_OPEN 1.0 1.5 0 0 1
C_7453315652_7453315654_0 RECT_OPEN 1.0 1.5 0 0 1
C_7453315652_7453315653_0 RECT_OPEN 1.0 1.5 0 0 1
C_7453315652_1371807598_0 RECT_OPEN 1.0 1.5 0 0 1
C_1371807602_1371807645_0 RECT_OPEN 1.0 1.5 0 0 1
C_1371807602_1371807630_0 RECT_OPEN 1.0 1.5 0 0 1
C_1371807602_13654038141_0 RECT_OPEN 1.0 1.5 0 0 1
C_1371807630_1371807602_0 RECT_OPEN 1.0 1.5 0 0 1
C_1371807630_11015643600_0 RECT_OPEN 1.0 1.5 0 0 1
C_1371807630_13654030332_0 RECT_OPEN 1.0 1.5 0 0 1
C_1371807606_1371807660_0 RECT_OPEN 1.0 1.5 0 0 1
C_1371807606_1371807612_0 RECT_OPEN 1.0 1.5 0 0 1
C_1371807606_13667500010_0 RECT_OPEN 1.0 1.5 0 0 1
C_1371807660_1371807606_0 RECT_OPEN 1.0 1.5 0 0 1
C_1371807660_1578236015_0 RECT_OPEN 1.0 1.5 0 0 1
C_1371807660_1371807626_0 RECT_OPEN 1.0 1.5 0 0 1
C_1371807608_1514989684_0 RECT_OPEN 1.0 1.5 0 0 1
C_1371807608_1514989648_0 RECT_OPEN 1.0 1.5 0 0 1
C_1371807608_7453315436_0 RECT_OPEN 1.0 1.5 0 0 1
C_1514989684_7452673917_0 RECT_OPEN 1.0 1.5 0 0 1
C_1514989684_1371807608_0 RECT_OPEN 1.0 1.5 0 0 1
C_1514989684_11015173157_0 RECT_OPEN 1.0 1.5 0 0 1
C_7453315436_1371807608_0 RECT_OPEN 1.0 1.5 0 0 1
C_1371807614_1590229489_0 RECT_OPEN 1.0 1.5 0 0 1
C_1371807614_1371814159_0 RECT_OPEN 1.0 1.5 0 0 1
C_1590229489_1590229591_0 RECT_OPEN 1.0 1.5 0 0 1
C_1590229489_1371807614_0 RECT_OPEN 1.0 1.5 0 0 1
C_1590229489_1590229362_0 RECT_OPEN 1.0 1.5 0 0 1
C_1371814159_1371814265_0 RECT_OPEN 1.0 1.5 0 0 1
C_1371814159_1371807625_0 RECT_OPEN 1.0 1.5 0 0 1
C_1371814159_1371807614_0 RECT_OPEN 1.0 1.5 0 0 1
C_13654038308_1371807616_0 RECT_OPEN 1.0 1.5 0 0 1
C_13654038308_1371807634_0 RECT_OPEN 1.0 1.5 0 0 1
C_13654038308_13654038306_0 RECT_OPEN 1.0 1.5 0 0 1
C_11397275311_1371807620_0 RECT_OPEN 1.0 1.5 0 0 1
C_1371807625_1371814174_0 RECT_OPEN 1.0 1.5 0 0 1
C_1371807625_1371814159_0 RECT_OPEN 1.0 1.5 0 0 1
C_1371807625_12186088999_0 RECT_OPEN 1.0 1.5 0 0 1
C_1371814174_1371814156_0 RECT_OPEN 1.0 1.5 0 0 1
C_1371814174_1371807625_0 RECT_OPEN 1.0 1.5 0 0 1
C_1371814174_1371814332_0 RECT_OPEN 1.0 1.5 0 0 1
C_1371807626_1371807654_0 RECT_OPEN 1.0 1.5 0 0 1
C_1371807626_1578236015_0 RECT_OPEN 1.0 1.5 0 0 1
C_1371807626_5281842527_0 RECT_OPEN 1.0 1.5 0 0 1
C_1371807626_1371807660_0 RECT_OPEN 1.0 1.5 0 0 1
C_5281842527_1371807626_0 RECT_OPEN 1.0 1.5 0 0 1
C_11021417755_1371807627_0 RECT_OPEN 1.0 1.5 0 0 1
C_11021417755_1371807634_0 RECT_OPEN 1.0 1.5 0 0 1
C_11021417755_3530277755_0 RECT_OPEN 1.0 1.5 0 0 1
C_1371807646_1371807627_0 RECT_OPEN 1.0 1.5 0 0 1
C_11015643600_1371807630_0 RECT_OPEN 1.0 1.5 0 0 1
C_13654030332_1371807630_0 RECT_OPEN 1.0 1.5 0 0 1
C_1371814339_5281840019_0 RECT_OPEN 1.0 1.5 0 0 1
C_1371814339_1371807631_0 RECT_OPEN 1.0 1.5 0 0 1
C_1371814339_5283343739_0 RECT_OPEN 1.0 1.5 0 0 1
C_1371814339_1371814130_0 RECT_OPEN 1.0 1.5 0 0 1
C_1371807633_9700074492_0 RECT_OPEN 1.0 1.5 0 0 1
C_1371807636_5283343745_0 RECT_OPEN 1.0 1.5 0 0 1
C_1371807636_7138383879_0 RECT_OPEN 1.0 1.5 0 0 1
C_1371807636_7453315624_0 RECT_OPEN 1.0 1.5 0 0 1
C_5283343745_1371807636_0 RECT_OPEN 1.0 1.5 0 0 1
C_5283343745_7452673917_0 RECT_OPEN 1.0 1.5 0 0 1
C_5283343745_5283343744_0 RECT_OPEN 1.0 1.5 0 0 1
C_7138383879_1371807636_0 RECT_OPEN 1.0 1.5 0 0 1
C_7138383879_7138383883_0 RECT_OPEN 1.0 1.5 0 0 1
C_7138383879_11419446866_0 RECT_OPEN 1.0 1.5 0 0 1
C_7453315624_1371807636_0 RECT_OPEN 1.0 1.5 0 0 1
C_7453315624_5283343753_0 RECT_OPEN 1.0 1.5 0 0 1
C_7453315624_7453315627_0 RECT_OPEN 1.0 1.5 0 0 1
C_3530277755_1371807641_0 RECT_OPEN 1.0 1.5 0 0 1
C_3530277755_1371807637_0 RECT_OPEN 1.0 1.5 0 0 1
C_3530277755_11021417755_0 RECT_OPEN 1.0 1.5 0 0 1
C_1371807655_1371807637_0 RECT_OPEN 1.0 1.5 0 0 1
C_1371807665_1371807642_0 RECT_OPEN 1.0 1.5 0 0 1
C_5283547059_1371807642_0 RECT_OPEN 1.0 1.5 0 0 1
C_5283547059_5281842526_0 RECT_OPEN 1.0 1.5 0 0 1
C_5283547059_10687414876_0 RECT_OPEN 1.0 1.5 0 0 1
C_1371807644_12598616677_0 RECT_OPEN 1.0 1.5 0 0 1
C_1371807644_11021488563_0 RECT_OPEN 1.0 1.5 0 0 1
C_1371807644_13667500256_0 RECT_OPEN 1.0 1.5 0 0 1
C_12598616677_7452673919_0 RECT_OPEN 1.0 1.5 0 0 1
C_12598616677_1371807644_0 RECT_OPEN 1.0 1.5 0 0 1
C_12598616677_7453315301_0 RECT_OPEN 1.0 1.5 0 0 1
C_13654030378_1371807651_0 RECT_OPEN 1.0 1.5 0 0 1
C_7452673919_1371807652_0 RECT_OPEN 1.0 1.5 0 0 1
C_7452673919_7452673916_0 RECT_OPEN 1.0 1.5 0 0 1
C_7452673919_12598616677_0 RECT_OPEN 1.0 1.5 0 0 1
C_11021648174_1371807652_0 RECT_OPEN 1.0 1.5 0 0 1
C_2225133206_7453315614_0 RECT_OPEN 1.0 1.5 0 0 1
C_2225133206_11021676037_0 RECT_OPEN 1.0 1.5 0 0 1
C_2225133206_1371807654_0 RECT_OPEN 1.0 1.5 0 0 1
C_1371807658_9700074492_0 RECT_OPEN 1.0 1.5 0 0 1
C_2486617761_12141933090_0 RECT_OPEN 1.0 1.5 0 0 1
C_2486617761_1371807661_0 RECT_OPEN 1.0 1.5 0 0 1
C_2486617761_13656305932_0 RECT_OPEN 1.0 1.5 0 0 1
C_1371814115_1371814269_0 RECT_OPEN 1.0 1.5 0 0 1
C_1371814115_1371814238_0 RECT_OPEN 1.0 1.5 0 0 1
C_1371814115_1371814161_0 RECT_OPEN 1.0 1.5 0 0 1
C_1371814269_1371814115_0 RECT_OPEN 1.0 1.5 0 0 1
C_1371814269_1371814158_0 RECT_OPEN 1.0 1.5 0 0 1
C_1371814269_1371814308_0 RECT_OPEN 1.0 1.5 0 0 1
C_1371814238_1371814115_0 RECT_OPEN 1.0 1.5 0 0 1
C_1371814161_1371814115_0 RECT_OPEN 1.0 1.5 0 0 1
C_1371814117_1371814138_0 RECT_OPEN 1.0 1.5 0 0 1
C_1371814117_3324726802_0 RECT_OPEN 1.0 1.5 0 0 1
C_1371814117_1371814248_0 RECT_OPEN 1.0 1.5 0 0 1
C_1371814138_1371814162_0 RECT_OPEN 1.0 1.5 0 0 1
C_1371814138_1598804290_0 RECT_OPEN 1.0 1.5 0 0 1
C_1371814138_1371814117_0 RECT_OPEN 1.0 1.5 0 0 1
C_3324726802_1371814117_0 RECT_OPEN 1.0 1.5 0 0 1
C_3324726802_9897294963_0 RECT_OPEN 1.0 1.5 0 0 1
C_3324726802_3324730976_0 RECT_OPEN 1.0 1.5 0 0 1
C_1371814248_1371814117_0 RECT_OPEN 1.0 1.5 0 0 1
C_1371814124_1371814175_0 RECT_OPEN 1.0 1.5 0 0 1
C_1371814124_1371814188_0 RECT_OPEN 1.0 1.5 0 0 1
C_1371814124_1371814251_0 RECT_OPEN 1.0 1.5 0 0 1
C_1371814124_1371814172_0 RECT_OPEN 1.0 1.5 0 0 1
C_1371814175_1371814124_0 RECT_OPEN 1.0 1.5 0 0 1
C_1371814188_1371814124_0 RECT_OPEN 1.0 1.5 0 0 1
C_1371814188_1371814294_0 RECT_OPEN 1.0 1.5 0 0 1
C_1371814188_1371814310_0 RECT_OPEN 1.0 1.5 0 0 1
C_1371814188_1371814194_0 RECT_OPEN 1.0 1.5 0 0 1
C_1371814251_1371814176_0 RECT_OPEN 1.0 1.5 0 0 1
C_1371814251_1371814148_0 RECT_OPEN 1.0 1.5 0 0 1
C_1371814251_1371814124_0 RECT_OPEN 1.0 1.5 0 0 1
C_1371814172_7465393489_0 RECT_OPEN 1.0 1.5 0 0 1
C_1371814172_1371814194_0 RECT_OPEN 1.0 1.5 0 0 1
C_1371814172_1371814124_0 RECT_OPEN 1.0 1.5 0 0 1
C_1371814128_1371814230_0 RECT_OPEN 1.0 1.5 0 0 1
C_1371814128_9700074467_0 RECT_OPEN 1.0 1.5 0 0 1
C_1371814128_1578238465_0 RECT_OPEN 1.0 1.5 0 0 1
C_1371814128_6617329692_0 RECT_OPEN 1.0 1.5 0 0 1
C_1371814230_1371814281_0 RECT_OPEN 1.0 1.5 0 0 1
C_1371814230_1371814128_0 RECT_OPEN 1.0 1.5 0 0 1
C_1371814230_1371814316_0 RECT_OPEN 1.0 1.5 0 0 1
C_1371814230_6617328973_0 RECT_OPEN 1.0 1.5 0 0 1
C_9700074467_1578238465_0 RECT_OPEN 1.0 1.5 0 0 1
C_9700074467_1371814281_0 RECT_OPEN 1.0 1.5 0 0 1
C_9700074467_1371814128_0 RECT_OPEN 1.0 1.5 0 0 1
C_9700074467_10991478286_0 RECT_OPEN 1.0 1.5 0 0 1
C_1578238465_1371814132_0 RECT_OPEN 1.0 1.5 0 0 1
C_1578238465_9700074467_0 RECT_OPEN 1.0 1.5 0 0 1
C_1578238465_1371814239_0 RECT_OPEN 1.0 1.5 0 0 1
C_1578238465_1371814128_0 RECT_OPEN 1.0 1.5 0 0 1
C_6617329692_1371814128_0 RECT_OPEN 1.0 1.5 0 0 1
C_6617329692_6617329698_0 RECT_OPEN 1.0 1.5 0 0 1
C_6617329692_4458722757_0 RECT_OPEN 1.0 1.5 0 0 1
C_1371814129_1371814193_0 RECT_OPEN 1.0 1.5 0 0 1
C_1371814193_1371814316_0 RECT_OPEN 1.0 1.5 0 0 1
C_1371814193_1371814191_0 RECT_OPEN 1.0 1.5 0 0 1
C_1371814193_1371814129_0 RECT_OPEN 1.0 1.5 0 0 1
C_1371814193_7465393486_0 RECT_OPEN 1.0 1.5 0 0 1
C_1371814130_1371814339_0 RECT_OPEN 1.0 1.5 0 0 1
C_1371814132_1371814194_0 RECT_OPEN 1.0 1.5 0 0 1
C_1371814132_1578238465_0 RECT_OPEN 1.0 1.5 0 0 1
C_1371814132_1371814294_0 RECT_OPEN 1.0 1.5 0 0 1
C_1371814194_1371814172_0 RECT_OPEN 1.0 1.5 0 0 1
C_1371814194_1371814132_0 RECT_OPEN 1.0 1.5 0 0 1
C_1371814194_1371814188_0 RECT_OPEN 1.0 1.5 0 0 1
C_1371814294_1371814188_0 RECT_OPEN 1.0 1.5 0 0 1
C_1371814294_1371814267_0 RECT_OPEN 1.0 1.5 0 0 1
C_1371814294_1371814314_0 RECT_OPEN 1.0 1.5 0 0 1
C_1371814294_1371814132_0 RECT_OPEN 1.0 1.5 0 0 1
C_1371814162_1371814138_0 RECT_OPEN 1.0 1.5 0 0 1
C_1598804290_5281840018_0 RECT_OPEN 1.0 1.5 0 0 1
C_1598804290_1371814138_0 RECT_OPEN 1.0 1.5 0 0 1
C_1598804290_1598804288_0 RECT_OPEN 1.0 1.5 0 0 1
C_1371814140_1578237528_0 RECT_OPEN 1.0 1.5 0 0 1
C_1371814140_1371814297_0 RECT_OPEN 1.0 1.5 0 0 1
C_1371814140_1371814255_0 RECT_OPEN 1.0 1.5 0 0 1
C_1371814140_1371814237_0 RECT_OPEN 1.0 1.5 0 0 1
C_1578237528_1371814280_0 RECT_OPEN 1.0 1.5 0 0 1
C_1578237528_1371814140_0 RECT_OPEN 1.0 1.5 0 0 1
C_1578237528_1371814316_0 RECT_OPEN 1.0 1.5 0 0 1
C_1578237528_1371814331_0 RECT_OPEN 1.0 1.5 0 0 1
C_1371814297_1371814140_0 RECT_OPEN 1.0 1.5 0 0 1
C_1371814297_1371814285_0 RECT_OPEN 1.0 1.5 0 0 1
C_1371814297_7097657282_0 RECT_OPEN 1.0 1.5 0 0 1
C_1371814297_7465393486_0 RECT_OPEN 1.0 1.5 0 0 1
C_1371814255_1371814140_0 RECT_OPEN 1.0 1.5 0 0 1
C_1371814237_1371814140_0 RECT_OPEN 1.0 1.5 0 0 1
C_9897294963_3324726802_0 RECT_OPEN 1.0 1.5 0 0 1
C_9897294963_9897294964_0 RECT_OPEN 1.0 1.5 0 0 1
C_9897294963_1371814142_0 RECT_OPEN 1.0 1.5 0 0 1
C_1371814316_1371814230_0 RECT_OPEN 1.0 1.5 0 0 1
C_1371814316_1371814193_0 RECT_OPEN 1.0 1.5 0 0 1
C_1371814316_1371814145_0 RECT_OPEN 1.0 1.5 0 0 1
C_1371814316_1578237528_0 RECT_OPEN 1.0 1.5 0 0 1
C_1371814146_1371814246_0 RECT_OPEN 1.0 1.5 0 0 1
C_1371814246_1371814331_0 RECT_OPEN 1.0 1.5 0 0 1
C_1371814246_1371814223_0 RECT_OPEN 1.0 1.5 0 0 1
C_1371814246_1371814146_0 RECT_OPEN 1.0 1.5 0 0 1
C_1371814148_1371814251_0 RECT_OPEN 1.0 1.5 0 0 1
C_1371814154_1371814281_0 RECT_OPEN 1.0 1.5 0 0 1
C_1371814281_9700074467_0 RECT_OPEN 1.0 1.5 0 0 1
C_1371814281_1371814230_0 RECT_OPEN 1.0 1.5 0 0 1
C_1371814281_1371814154_0 RECT_OPEN 1.0 1.5 0 0 1
C_1371814156_1371814265_0 RECT_OPEN 1.0 1.5 0 0 1
C_1371814156_1371814174_0 RECT_OPEN 1.0 1.5 0 0 1
C_1371814156_1457451923_0 RECT_OPEN 1.0 1.5 0 0 1
C_1371814265_1371814159_0 RECT_OPEN 1.0 1.5 0 0 1
C_1371814265_1371814156_0 RECT_OPEN 1.0 1.5 0 0 1
C_1371814265_5281840018_0 RECT_OPEN 1.0 1.5 0 0 1
C_1371814265_5281840016_0 RECT_OPEN 1.0 1.5 0 0 1
C_1457451923_5281840016_0 RECT_OPEN 1.0 1.5 0 0 1
C_1457451923_1371814156_0 RECT_OPEN 1.0 1.5 0 0 1
C_1457451923_1457451930_0 RECT_OPEN 1.0 1.5 0 0 1
C_1371814158_1371814269_0 RECT_OPEN 1.0 1.5 0 0 1
C_1371814160_1371814267_0 RECT_OPEN 1.0 1.5 0 0 1
C_1371814267_1371814294_0 RECT_OPEN 1.0 1.5 0 0 1
C_1371814267_1371814280_0 RECT_OPEN 1.0 1.5 0 0 1
C_1371814267_1371814160_0 RECT_OPEN 1.0 1.5 0 0 1
C_1371814267_5281842545_0 RECT_OPEN 1.0 1.5 0 0 1
C_7465393489_1371814284_0 RECT_OPEN 1.0 1.5 0 0 1
C_7465393489_1371814172_0 RECT_OPEN 1.0 1.5 0 0 1
C_7465393489_7465393488_0 RECT_OPEN 1.0 1.5 0 0 1
C_1371814332_1371814206_0 RECT_OPEN 1.0 1.5 0 0 1
C_1371814332_1371814178_0 RECT_OPEN 1.0 1.5 0 0 1
C_1371814332_1371814174_0 RECT_OPEN 1.0 1.5 0 0 1
C_1371814176_1371814300_0 RECT_OPEN 1.0 1.5 0 0 1
C_1371814176_1371814251_0 RECT_OPEN 1.0 1.5 0 0 1
C_1371814176_1371814326_0 RECT_OPEN 1.0 1.5 0 0 1
C_1371814300_1371814176_0 RECT_OPEN 1.0 1.5 0 0 1
C_1371814326_1371814176_0 RECT_OPEN 1.0 1.5 0 0 1
C_1371814331_1371814246_0 RECT_OPEN 1.0 1.5 0 0 1
C_1371814331_1371814178_0 RECT_OPEN 1.0 1.5 0 0 1
C_1371814331_1371814324_0 RECT_OPEN 1.0 1.5 0 0 1
C_1371814331_1578237528_0 RECT_OPEN 1.0 1.5 0 0 1
C_10991440018_5281842528_0 RECT_OPEN 1.0 1.5 0 0 1
C_10991440018_1371814186_0 RECT_OPEN 1.0 1.5 0 0 1
C_10991440018_10991440020_0 RECT_OPEN 1.0 1.5 0 0 1
C_5281842533_5281842532_0 RECT_OPEN 1.0 1.5 0 0 1
C_5281842533_5283343737_0 RECT_OPEN 1.0 1.5 0 0 1
C_5281842533_1371814186_0 RECT_OPEN 1.0 1.5 0 0 1
C_1371814310_1371814188_0 RECT_OPEN 1.0 1.5 0 0 1
C_1371814191_1371814193_0 RECT_OPEN 1.0 1.5 0 0 1
C_1371814191_1371814296_0 RECT_OPEN 1.0 1.5 0 0 1
C_1371814191_1371814254_0 RECT_OPEN 1.0 1.5 0 0 1
C_1371814191_1371814222_0 RECT_OPEN 1.0 1.5 0 0 1
C_1371814254_1371814191_0 RECT_OPEN 1.0 1.5 0 0 1
C_1371814222_1371814191_0 RECT_OPEN 1.0 1.5 0 0 1
C_7465393486_1371814297_0 RECT_OPEN 1.0 1.5 0 0 1
C_7465393486_1371814296_0 RECT_OPEN 1.0 1.5 0 0 1
C_7465393486_1371814193_0 RECT_OPEN 1.0 1.5 0 0 1
C_4204925699_1371814201_0 RECT_OPEN 1.0 1.5 0 0 1
C_4204925699_4204925697_0 RECT_OPEN 1.0 1.5 0 0 1
C_4204925699_13064733100_0 RECT_OPEN 1.0 1.5 0 0 1
C_1371814327_1371814201_0 RECT_OPEN 1.0 1.5 0 0 1
C_7465614239_1371814205_0 RECT_OPEN 1.0 1.5 0 0 1
C_1371814206_1371814223_0 RECT_OPEN 1.0 1.5 0 0 1
C_1371814206_5281842546_0 RECT_OPEN 1.0 1.5 0 0 1
C_1371814206_1371814332_0 RECT_OPEN 1.0 1.5 0 0 1
C_1371814206_5281839988_0 RECT_OPEN 1.0 1.5 0 0 1
C_1371814223_1371814246_0 RECT_OPEN 1.0 1.5 0 0 1
C_1371814223_1371814206_0 RECT_OPEN 1.0 1.5 0 0 1
C_1371814223_12765426026_0 RECT_OPEN 1.0 1.5 0 0 1
C_5281842546_1371814206_0 RECT_OPEN 1.0 1.5 0 0 1
C_5281839988_1371814285_0 RECT_OPEN 1.0 1.5 0 0 1
C_5281839988_5281839987_0 RECT_OPEN 1.0 1.5 0 0 1
C_5281839988_1371814206_0 RECT_OPEN 1.0 1.5 0 0 1
C_1371814207_1371814280_0 RECT_OPEN 1.0 1.5 0 0 1
C_1371814280_1371814267_0 RECT_OPEN 1.0 1.5 0 0 1
C_1371814280_1578237528_0 RECT_OPEN 1.0 1.5 0 0 1
C_1371814280_1371814207_0 RECT_OPEN 1.0 1.5 0 0 1
C_1371814280_10991475142_0 RECT_OPEN 1.0 1.5 0 0 1
C_11395452270_1371814219_0 RECT_OPEN 1.0 1.5 0 0 1
C_12765426026_1371814223_0 RECT_OPEN 1.0 1.5 0 0 1
C_6617328973_7465393504_0 RECT_OPEN 1.0 1.5 0 0 1
C_6617328973_7465393503_0 RECT_OPEN 1.0 1.5 0 0 1
C_6617328973_1371814230_0 RECT_OPEN 1.0 1.5 0 0 1
C_1371814232_1371814285_0 RECT_OPEN 1.0 1.5 0 0 1
C_1371814285_1371814297_0 RECT_OPEN 1.0 1.5 0 0 1
C_1371814285_5281839988_0 RECT_OPEN 1.0 1.5 0 0 1
C_1371814285_1371814232_0 RECT_OPEN 1.0 1.5 0 0 1
C_1371814239_1578238465_0 RECT_OPEN 1.0 1.5 0 0 1
C_5281840018_1371814265_0 RECT_OPEN 1.0 1.5 0 0 1
C_5281840018_1598804290_0 RECT_OPEN 1.0 1.5 0 0 1
C_5281840018_5281840017_0 RECT_OPEN 1.0 1.5 0 0 1
C_5281840016_1371814265_0 RECT_OPEN 1.0 1.5 0 0 1
C_5281840016_1598804288_0 RECT_OPEN 1.0 1.5 0 0 1
C_5281840016_1457451923_0 RECT_OPEN 1.0 1.5 0 0 1
C_5281842545_1371814267_0 RECT_OPEN 1.0 1.5 0 0 1
C_1371814308_1371814324_0 RECT_OPEN 1.0 1.5 0 0 1
C_1371814308_7452673893_0 RECT_OPEN 1.0 1.5 0 0 1
C_1371814308_1371814269_0 RECT_OPEN 1.0 1.5 0 0 1
C_10991475142_1371814280_0 RECT_OPEN 1.0 1.5 0 0 1
C_10991475142_1371814324_0 RECT_OPEN 1.0 1.5 0 0 1
C_10991475142_10991475147_0 RECT_OPEN 1.0 1.5 0 0 1
C_1371814284_7465393489_0 RECT_OPEN 1.0 1.5 0 0 1
C_1371814314_1371814294_0 RECT_OPEN 1.0 1.5 0 0 1
C_7097657282_7097657283_0 RECT_OPEN 1.0 1.5 0 0 1
C_7097657282_7465393495_0 RECT_OPEN 1.0 1.5 0 0 1
C_7097657282_1371814297_0 RECT_OPEN 1.0 1.5 0 0 1
C_9700074460_1371814298_0 RECT_OPEN 1.0 1.5 0 0 1
C_1371814324_1371814308_0 RECT_OPEN 1.0 1.5 0 0 1
C_1371814324_10991475142_0 RECT_OPEN 1.0 1.5 0 0 1
C_1371814324_1371814331_0 RECT_OPEN 1.0 1.5 0 0 1
C_7452673893_1371814308_0 RECT_OPEN 1.0 1.5 0 0 1
C_5281840019_1371814339_0 RECT_OPEN 1.0 1.5 0 0 1
C_5283343739_1371814339_0 RECT_OPEN 1.0 1.5 0 0 1
C_5283343739_5281842531_0 RECT_OPEN 1.0 1.5 0 0 1
C_5283343739_11395872426_0 RECT_OPEN 1.0 1.5 0 0 1
C_1371816450_1371816389_0 RECT_OPEN 1.0 1.5 0 0 1
C_1371816422_1371816446_0 RECT_OPEN 1.0 1.5 0 0 1
C_1371816422_1371816391_0 RECT_OPEN 1.0 1.5 0 0 1
C_1371816422_1371816400_0 RECT_OPEN 1.0 1.5 0 0 1
C_1371816422_1371816389_0 RECT_OPEN 1.0 1.5 0 0 1
C_1371816419_1371816389_0 RECT_OPEN 1.0 1.5 0 0 1
C_1371816419_1371816411_0 RECT_OPEN 1.0 1.5 0 0 1
C_1371816419_1371816417_0 RECT_OPEN 1.0 1.5 0 0 1
C_1371816391_1371816422_0 RECT_OPEN 1.0 1.5 0 0 1
C_1371816391_320242815_0 RECT_OPEN 1.0 1.5 0 0 1
C_1371816400_1371816415_0 RECT_OPEN 1.0 1.5 0 0 1
C_1371816400_1371816443_0 RECT_OPEN 1.0 1.5 0 0 1
C_1371816400_1371816460_0 RECT_OPEN 1.0 1.5 0 0 1
C_1371816400_1371816422_0 RECT_OPEN 1.0 1.5 0 0 1
C_1371816415_1371816400_0 RECT_OPEN 1.0 1.5 0 0 1
C_1371816443_1371816400_0 RECT_OPEN 1.0 1.5 0 0 1
C_1371816443_6901280956_0 RECT_OPEN 1.0 1.5 0 0 1
C_1371816443_1371816391_0 RECT_OPEN 1.0 1.5 0 0 1
C_1371816460_1371816400_0 RECT_OPEN 1.0 1.5 0 0 1
C_1371816460_1371816402_0 RECT_OPEN 1.0 1.5 0 0 1
C_1371816460_1371816441_0 RECT_OPEN 1.0 1.5 0 0 1
C_1371816460_7465456827_0 RECT_OPEN 1.0 1.5 0 0 1
C_1371816401_1371816463_0 RECT_OPEN 1.0 1.5 0 0 1
C_1371816401_1371816459_0 RECT_OPEN 1.0 1.5 0 0 1
C_1371816401_1371816442_0 RECT_OPEN 1.0 1.5 0 0 1
C_1371816402_1371816464_0 RECT_OPEN 1.0 1.5 0 0 1
C_1371816402_1371816425_0 RECT_OPEN 1.0 1.5 0 0 1
C_1371816402_1371816460_0 RECT_OPEN 1.0 1.5 0 0 1
C_1371816464_1371816402_0 RECT_OPEN 1.0 1.5 0 0 1
C_1371816425_1371816402_0 RECT_OPEN 1.0 1.5 0 0 1
C_1371816407_1371816435_0 RECT_OPEN 1.0 1.5 0 0 1
C_1371816407_11438418704_0 RECT_OPEN 1.0 1.5 0 0 1
C_1371816407_1371816440_0 RECT_OPEN 1.0 1.5 0 0 1
C_1371816435_1371816407_0 RECT_OPEN 1.0 1.5 0 0 1
C_1371816435_1371816433_0 RECT_OPEN 1.0 1.5 0 0 1
C_1371816435_1371816440_0 RECT_OPEN 1.0 1.5 0 0 1
C_11438418704_11438418705_0 RECT_OPEN 1.0 1.5 0 0 1
C_11438418704_1371816417_0 RECT_OPEN 1.0 1.5 0 0 1
C_11438418704_1371816407_0 RECT_OPEN 1.0 1.5 0 0 1
C_1371816440_1371816407_0 RECT_OPEN 1.0 1.5 0 0 1
C_1371816440_1371816435_0 RECT_OPEN 1.0 1.5 0 0 1
C_1371816440_1371816417_0 RECT_OPEN 1.0 1.5 0 0 1
C_11885696210_1371816411_0 RECT_OPEN 1.0 1.5 0 0 1
C_11885696210_11885729668_0 RECT_OPEN 1.0 1.5 0 0 1
C_1371816417_11438418704_0 RECT_OPEN 1.0 1.5 0 0 1
C_1371816417_1371816440_0 RECT_OPEN 1.0 1.5 0 0 1
C_1371816417_1371816419_0 RECT_OPEN 1.0 1.5 0 0 1
C_1371816446_1371816422_0 RECT_OPEN 1.0 1.5 0 0 1
C_5281842548_5281840014_0 RECT_OPEN 1.0 1.5 0 0 1
C_5281842548_4730103812_0 RECT_OPEN 1.0 1.5 0 0 1
C_5281842548_1371816431_0 RECT_OPEN 1.0 1.5 0 0 1
C_4730103812_5281842548_0 RECT_OPEN 1.0 1.5 0 0 1
C_4730103812_1371816433_0 RECT_OPEN 1.0 1.5 0 0 1
C_4730103812_4730103806_0 RECT_OPEN 1.0 1.5 0 0 1
C_1371816441_1371816460_0 RECT_OPEN 1.0 1.5 0 0 1
C_1371816441_1371816443_0 RECT_OPEN 1.0 1.5 0 0 1
C_6901280956_1371816443_0 RECT_OPEN 1.0 1.5 0 0 1
C_6901280956_11885820562_0 RECT_OPEN 1.0 1.5 0 0 1
C_7465456827_9982048419_0 RECT_OPEN 1.0 1.5 0 0 1
C_7465456827_10687741966_0 RECT_OPEN 1.0 1.5 0 0 1
C_7465456827_1371816460_0 RECT_OPEN 1.0 1.5 0 0 1
C_1371816462_7465614246_0 RECT_OPEN 1.0 1.5 0 0 1
C_1371828528_7298289263_0 RECT_OPEN 1.0 1.5 0 0 1
C_1371828528_1371828527_0 RECT_OPEN 1.0 1.5 0 0 1
C_1371828528_1371828540_0 RECT_OPEN 1.0 1.5 0 0 1
C_1371828545_1371828542_0 RECT_OPEN 1.0 1.5 0 0 1
C_1371828545_1371828527_0 RECT_OPEN 1.0 1.5 0 0 1
C_1371828545_7140718123_0 RECT_OPEN 1.0 1.5 0 0 1
C_1371828545_1371828540_0 RECT_OPEN 1.0 1.5 0 0 1
C_7298289263_7298289316_0 RECT_OPEN 1.0 1.5 0 0 1
C_7298289263_1371828528_0 RECT_OPEN 1.0 1.5 0 0 1
C_7298289263_7298289248_0 RECT_OPEN 1.0 1.5 0 0 1
C_1371828540_7140718125_0 RECT_OPEN 1.0 1.5 0 0 1
C_1371828540_1371828528_0 RECT_OPEN 1.0 1.5 0 0 1
C_1371828540_1371828545_0 RECT_OPEN 1.0 1.5 0 0 1
C_7298289227_1371828530_0 RECT_OPEN 1.0 1.5 0 0 1
C_7298289227_7298289226_0 RECT_OPEN 1.0 1.5 0 0 1
C_7298289227_1371828535_0 RECT_OPEN 1.0 1.5 0 0 1
C_1371828539_1371828530_0 RECT_OPEN 1.0 1.5 0 0 1
C_1371828539_7140718125_0 RECT_OPEN 1.0 1.5 0 0 1
C_1371828539_1371828544_0 RECT_OPEN 1.0 1.5 0 0 1
C_1371828531_13830106177_0 RECT_OPEN 1.0 1.5 0 0 1
C_1371828531_9900960144_0 RECT_OPEN 1.0 1.5 0 0 1
C_1371828531_11397402715_0 RECT_OPEN 1.0 1.5 0 0 1
C_13830106177_1371828531_0 RECT_OPEN 1.0 1.5 0 0 1
C_13830106177_13830106203_0 RECT_OPEN 1.0 1.5 0 0 1
C_13830106177_13830106176_0 RECT_OPEN 1.0 1.5 0 0 1
C_9900960144_1558994024_0 RECT_OPEN 1.0 1.5 0 0 1
C_9900960144_1371828531_0 RECT_OPEN 1.0 1.5 0 0 1
C_11397402715_1371828531_0 RECT_OPEN 1.0 1.5 0 0 1
C_1371828533_7298289303_0 RECT_OPEN 1.0 1.5 0 0 1
C_7298289303_7298289304_0 RECT_OPEN 1.0 1.5 0 0 1
C_7298289303_13830086493_0 RECT_OPEN 1.0 1.5 0 0 1
C_7298289303_1371828533_0 RECT_OPEN 1.0 1.5 0 0 1
C_10084814543_7298295670_0 RECT_OPEN 1.0 1.5 0 0 1
C_10084814543_1066108522_0 RECT_OPEN 1.0 1.5 0 0 1
C_7140718125_1371828540_0 RECT_OPEN 1.0 1.5 0 0 1
C_7140718125_1371828539_0 RECT_OPEN 1.0 1.5 0 0 1
C_7140718125_7140718123_0 RECT_OPEN 1.0 1.5 0 0 1
C_7140718121_1371828542_0 RECT_OPEN 1.0 1.5 0 0 1
C_7140718121_1371828541_0 RECT_OPEN 1.0 1.5 0 0 1
C_7140718121_7140718123_0 RECT_OPEN 1.0 1.5 0 0 1
C_7140718121_7298289230_0 RECT_OPEN 1.0 1.5 0 0 1
C_1371828543_13830086493_0 RECT_OPEN 1.0 1.5 0 0 1
C_1371828543_7298289304_0 RECT_OPEN 1.0 1.5 0 0 1
C_1371828543_10266837398_0 RECT_OPEN 1.0 1.5 0 0 1
C_7298289304_13830106205_0 RECT_OPEN 1.0 1.5 0 0 1
C_7298289304_7298289303_0 RECT_OPEN 1.0 1.5 0 0 1
C_7298289304_1371828543_0 RECT_OPEN 1.0 1.5 0 0 1
C_10266837398_3649025381_0 RECT_OPEN 1.0 1.5 0 0 1
C_10266837398_12210693584_0 RECT_OPEN 1.0 1.5 0 0 1
C_10266837398_1371828543_0 RECT_OPEN 1.0 1.5 0 0 1
C_7140718123_1371828544_0 RECT_OPEN 1.0 1.5 0 0 1
C_7140718123_1371828545_0 RECT_OPEN 1.0 1.5 0 0 1
C_7140718123_7140718121_0 RECT_OPEN 1.0 1.5 0 0 1
C_7140718123_7140718125_0 RECT_OPEN 1.0 1.5 0 0 1
C_7298289290_7298289287_0 RECT_OPEN 1.0 1.5 0 0 1
C_7298289290_7298289289_0 RECT_OPEN 1.0 1.5 0 0 1
C_7298289290_1374396082_0 RECT_OPEN 1.0 1.5 0 0 1
C_1511238410_1511238406_0 RECT_OPEN 1.0 1.5 0 0 1
C_1511238410_6901363516_0 RECT_OPEN 1.0 1.5 0 0 1
C_1376905673_13655653225_0 RECT_OPEN 1.0 1.5 0 0 1
C_1376905673_1376905671_0 RECT_OPEN 1.0 1.5 0 0 1
C_1376905673_1376905664_0 RECT_OPEN 1.0 1.5 0 0 1
C_1376905667_1376905672_0 RECT_OPEN 1.0 1.5 0 0 1
C_1376905672_7452712421_0 RECT_OPEN 1.0 1.5 0 0 1
C_1376905672_13655653225_0 RECT_OPEN 1.0 1.5 0 0 1
C_1376905672_1376905667_0 RECT_OPEN 1.0 1.5 0 0 1
C_1376905671_1376905673_0 RECT_OPEN 1.0 1.5 0 0 1
C_7452712421_1376905672_0 RECT_OPEN 1.0 1.5 0 0 1
C_7452712421_9990058602_0 RECT_OPEN 1.0 1.5 0 0 1
C_7452712421_9700074486_0 RECT_OPEN 1.0 1.5 0 0 1
C_13655653225_1376905672_0 RECT_OPEN 1.0 1.5 0 0 1
C_13655653225_1376905673_0 RECT_OPEN 1.0 1.5 0 0 1
C_13655653225_13655653224_0 RECT_OPEN 1.0 1.5 0 0 1
C_1382528610_1382528655_0 RECT_OPEN 1.0 1.5 0 0 1
C_1382528610_6901407760_0 RECT_OPEN 1.0 1.5 0 0 1
C_1384732339_9982048425_0 RECT_OPEN 1.0 1.5 0 0 1
C_1384732339_7465456846_0 RECT_OPEN 1.0 1.5 0 0 1
C_1384732339_11885832888_0 RECT_OPEN 1.0 1.5 0 0 1
C_9982048425_1384732339_0 RECT_OPEN 1.0 1.5 0 0 1
C_9982048425_11397285061_0 RECT_OPEN 1.0 1.5 0 0 1
C_9982048425_7465672893_0 RECT_OPEN 1.0 1.5 0 0 1
C_7465456846_1384732339_0 RECT_OPEN 1.0 1.5 0 0 1
C_11885832888_11885832889_0 RECT_OPEN 1.0 1.5 0 0 1
C_11885832888_320242819_0 RECT_OPEN 1.0 1.5 0 0 1
C_1384732709_11885832889_0 RECT_OPEN 1.0 1.5 0 0 1
C_1384732709_7465456828_0 RECT_OPEN 1.0 1.5 0 0 1
C_11885832889_7465456831_0 RECT_OPEN 1.0 1.5 0 0 1
C_11885832889_11885832888_0 RECT_OPEN 1.0 1.5 0 0 1
C_7465456828_1384732709_0 RECT_OPEN 1.0 1.5 0 0 1
C_1384732910_7465456843_0 RECT_OPEN 1.0 1.5 0 0 1
C_1384732910_9982048419_0 RECT_OPEN 1.0 1.5 0 0 1
C_1384732910_11409245945_0 RECT_OPEN 1.0 1.5 0 0 1
C_7465456843_2508149195_0 RECT_OPEN 1.0 1.5 0 0 1
C_7465456843_1384732910_0 RECT_OPEN 1.0 1.5 0 0 1
C_7465456843_7465456839_0 RECT_OPEN 1.0 1.5 0 0 1
C_9982048419_7465456827_0 RECT_OPEN 1.0 1.5 0 0 1
C_9982048419_1384732910_0 RECT_OPEN 1.0 1.5 0 0 1
C_9982048419_11885820563_0 RECT_OPEN 1.0 1.5 0 0 1
C_11409245945_11409245946_0 RECT_OPEN 1.0 1.5 0 0 1
C_11409245945_1384733202_0 RECT_OPEN 1.0 1.5 0 0 1
C_1384733202_1384732339_0 RECT_OPEN 1.0 1.5 0 0 1
C_1384733202_11397260844_0 RECT_OPEN 1.0 1.5 0 0 1
C_11397260844_1384733202_0 RECT_OPEN 1.0 1.5 0 0 1
C_1585741084_10978640856_0 RECT_OPEN 1.0 1.5 0 0 1
C_1585741084_7291167618_0 RECT_OPEN 1.0 1.5 0 0 1
C_11006982239_11006982240_0 RECT_OPEN 1.0 1.5 0 0 1
C_11006982239_253447903_0 RECT_OPEN 1.0 1.5 0 0 1
C_1605954141_1605954172_0 RECT_OPEN 1.0 1.5 0 0 1
C_1605954141_1605954220_0 RECT_OPEN 1.0 1.5 0 0 1
C_1605954141_1437330565_0 RECT_OPEN 1.0 1.5 0 0 1
C_1439027926_1505269146_0 RECT_OPEN 1.0 1.5 0 0 1
C_1439027926_1443044904_0 RECT_OPEN 1.0 1.5 0 0 1
C_1439027926_1631443363_0 RECT_OPEN 1.0 1.5 0 0 1
C_1505269146_1439027926_0 RECT_OPEN 1.0 1.5 0 0 1
C_1505269146_7101760810_0 RECT_OPEN 1.0 1.5 0 0 1
C_1505269146_1505269186_0 RECT_OPEN 1.0 1.5 0 0 1
C_1443044904_1439027926_0 RECT_OPEN 1.0 1.5 0 0 1
C_1443044904_5281842567_0 RECT_OPEN 1.0 1.5 0 0 1
C_1443044904_1631443235_0 RECT_OPEN 1.0 1.5 0 0 1
C_1631443363_1631443235_0 RECT_OPEN 1.0 1.5 0 0 1
C_1631443363_1443044865_0 RECT_OPEN 1.0 1.5 0 0 1
C_1631443363_1439027926_0 RECT_OPEN 1.0 1.5 0 0 1
C_1443044792_11002846646_0 RECT_OPEN 1.0 1.5 0 0 1
C_1443044792_13130886315_0 RECT_OPEN 1.0 1.5 0 0 1
C_1443044792_9867253967_0 RECT_OPEN 1.0 1.5 0 0 1
C_1443044792_11002846647_0 RECT_OPEN 1.0 1.5 0 0 1
C_11002846646_1443044792_0 RECT_OPEN 1.0 1.5 0 0 1
C_11002846646_7101760813_0 RECT_OPEN 1.0 1.5 0 0 1
C_11002846646_11002846647_0 RECT_OPEN 1.0 1.5 0 0 1
C_13130886315_1443044792_0 RECT_OPEN 1.0 1.5 0 0 1
C_13130886315_5931305386_0 RECT_OPEN 1.0 1.5 0 0 1
C_13130886315_3530426108_0 RECT_OPEN 1.0 1.5 0 0 1
C_9867253967_5931305386_0 RECT_OPEN 1.0 1.5 0 0 1
C_9867253967_11002921849_0 RECT_OPEN 1.0 1.5 0 0 1
C_9867253967_1443044792_0 RECT_OPEN 1.0 1.5 0 0 1
C_9867253967_12180012794_0 RECT_OPEN 1.0 1.5 0 0 1
C_11002846647_1443044792_0 RECT_OPEN 1.0 1.5 0 0 1
C_11002846647_7101760816_0 RECT_OPEN 1.0 1.5 0 0 1
C_11002846647_11002846646_0 RECT_OPEN 1.0 1.5 0 0 1
C_1443044865_1443044896_0 RECT_OPEN 1.0 1.5 0 0 1
C_1443044865_1443044870_0 RECT_OPEN 1.0 1.5 0 0 1
C_1443044865_1631443363_0 RECT_OPEN 1.0 1.5 0 0 1
C_1443044896_1443044900_0 RECT_OPEN 1.0 1.5 0 0 1
C_1443044896_1443044865_0 RECT_OPEN 1.0 1.5 0 0 1
C_1443044896_1631443235_0 RECT_OPEN 1.0 1.5 0 0 1
C_7298289268_10038722876_0 RECT_OPEN 1.0 1.5 0 0 1
C_7298289268_1443044870_0 RECT_OPEN 1.0 1.5 0 0 1
C_7298289268_14066685083_0 RECT_OPEN 1.0 1.5 0 0 1
C_1443044900_1443044896_0 RECT_OPEN 1.0 1.5 0 0 1
C_1631443235_1631443363_0 RECT_OPEN 1.0 1.5 0 0 1
C_1631443235_1443044896_0 RECT_OPEN 1.0 1.5 0 0 1
C_1631443235_1443044904_0 RECT_OPEN 1.0 1.5 0 0 1
C_1631443235_7291147477_0 RECT_OPEN 1.0 1.5 0 0 1
C_1457451930_1457451925_0 RECT_OPEN 1.0 1.5 0 0 1
C_1457451930_5281839987_0 RECT_OPEN 1.0 1.5 0 0 1
C_1457451930_1457451923_0 RECT_OPEN 1.0 1.5 0 0 1
C_1457451925_1457451930_0 RECT_OPEN 1.0 1.5 0 0 1
C_1457451925_1598804288_0 RECT_OPEN 1.0 1.5 0 0 1
C_1457451925_5281839987_0 RECT_OPEN 1.0 1.5 0 0 1
C_1598804288_1598804290_0 RECT_OPEN 1.0 1.5 0 0 1
C_1598804288_5281840016_0 RECT_OPEN 1.0 1.5 0 0 1
C_1598804288_1457451925_0 RECT_OPEN 1.0 1.5 0 0 1
C_5281839987_5281839988_0 RECT_OPEN 1.0 1.5 0 0 1
C_5281839987_1457451930_0 RECT_OPEN 1.0 1.5 0 0 1
C_5281839987_1457451925_0 RECT_OPEN 1.0 1.5 0 0 1
C_1470833636_6632636571_0 RECT_OPEN 1.0 1.5 0 0 1
C_1470833636_1470833614_0 RECT_OPEN 1.0 1.5 0 0 1
C_1470833636_1470833630_0 RECT_OPEN 1.0 1.5 0 0 1
C_1470833628_1470833630_0 RECT_OPEN 1.0 1.5 0 0 1
C_1470833628_1470833614_0 RECT_OPEN 1.0 1.5 0 0 1
C_1470833628_1470833645_0 RECT_OPEN 1.0 1.5 0 0 1
C_1470833622_1470833646_0 RECT_OPEN 1.0 1.5 0 0 1
C_1470833646_1470833650_0 RECT_OPEN 1.0 1.5 0 0 1
C_1470833646_1470833645_0 RECT_OPEN 1.0 1.5 0 0 1
C_1470833646_1470833630_0 RECT_OPEN 1.0 1.5 0 0 1
C_1470833646_1470833622_0 RECT_OPEN 1.0 1.5 0 0 1
C_1470833630_1470833628_0 RECT_OPEN 1.0 1.5 0 0 1
C_1470833630_1470833639_0 RECT_OPEN 1.0 1.5 0 0 1
C_1470833630_1470833636_0 RECT_OPEN 1.0 1.5 0 0 1
C_1470833630_1470833646_0 RECT_OPEN 1.0 1.5 0 0 1
C_1470833645_1470833646_0 RECT_OPEN 1.0 1.5 0 0 1
C_1470833645_1470833643_0 RECT_OPEN 1.0 1.5 0 0 1
C_1470833645_1470833628_0 RECT_OPEN 1.0 1.5 0 0 1
C_1470833629_10716532018_0 RECT_OPEN 1.0 1.5 0 0 1
C_10716532018_1470833629_0 RECT_OPEN 1.0 1.5 0 0 1
C_10716532018_1470833642_0 RECT_OPEN 1.0 1.5 0 0 1
C_10716532018_10716532019_0 RECT_OPEN 1.0 1.5 0 0 1
C_1470833639_1470833630_0 RECT_OPEN 1.0 1.5 0 0 1
C_1470833634_1470833650_0 RECT_OPEN 1.0 1.5 0 0 1
C_1470833650_1470833646_0 RECT_OPEN 1.0 1.5 0 0 1
C_1470833650_11017633319_0 RECT_OPEN 1.0 1.5 0 0 1
C_1470833650_1470833634_0 RECT_OPEN 1.0 1.5 0 0 1
C_1470833650_11414136196_0 RECT_OPEN 1.0 1.5 0 0 1
C_6632636571_1470833636_0 RECT_OPEN 1.0 1.5 0 0 1
C_6632636571_10221065294_0 RECT_OPEN 1.0 1.5 0 0 1
C_6632636571_5281691579_0 RECT_OPEN 1.0 1.5 0 0 1
C_1470833643_11017633319_0 RECT_OPEN 1.0 1.5 0 0 1
C_1470833643_1492407658_0 RECT_OPEN 1.0 1.5 0 0 1
C_1470833643_1470833645_0 RECT_OPEN 1.0 1.5 0 0 1
C_11017633319_1470833650_0 RECT_OPEN 1.0 1.5 0 0 1
C_11017633319_1470833643_0 RECT_OPEN 1.0 1.5 0 0 1
C_11017633319_11017633320_0 RECT_OPEN 1.0 1.5 0 0 1
C_1492407658_1492407663_0 RECT_OPEN 1.0 1.5 0 0 1
C_1492407658_1492407651_0 RECT_OPEN 1.0 1.5 0 0 1
C_1492407658_1470833643_0 RECT_OPEN 1.0 1.5 0 0 1
C_11414136196_1634963569_0 RECT_OPEN 1.0 1.5 0 0 1
C_11414136196_11414136197_0 RECT_OPEN 1.0 1.5 0 0 1
C_11414136196_1470833650_0 RECT_OPEN 1.0 1.5 0 0 1
C_11182447927_1718788930_0 RECT_OPEN 1.0 1.5 0 0 1
C_11182447927_11182447928_0 RECT_OPEN 1.0 1.5 0 0 1
C_11182447927_1472791625_0 RECT_OPEN 1.0 1.5 0 0 1
C_1485730731_6180767894_0 RECT_OPEN 1.0 1.5 0 0 1
C_6180767894_1485730731_0 RECT_OPEN 1.0 1.5 0 0 1
C_6180767894_6142628592_0 RECT_OPEN 1.0 1.5 0 0 1
C_6180767894_6142680813_0 RECT_OPEN 1.0 1.5 0 0 1
C_1485730738_6142680814_0 RECT_OPEN 1.0 1.5 0 0 1
C_1485730738_1485730754_0 RECT_OPEN 1.0 1.5 0 0 1
C_1485730738_1485730751_0 RECT_OPEN 1.0 1.5 0 0 1
C_6142680814_1485730775_0 RECT_OPEN 1.0 1.5 0 0 1
C_6142680814_1485730738_0 RECT_OPEN 1.0 1.5 0 0 1
C_6142680814_6142680813_0 RECT_OPEN 1.0 1.5 0 0 1
C_1485730754_1485730776_0 RECT_OPEN 1.0 1.5 0 0 1
C_1485730754_1485730738_0 RECT_OPEN 1.0 1.5 0 0 1
C_1485730754_6142680813_0 RECT_OPEN 1.0 1.5 0 0 1
C_1485730751_1485730738_0 RECT_OPEN 1.0 1.5 0 0 1
C_1485730751_1104250524_0 RECT_OPEN 1.0 1.5 0 0 1
C_1485730776_1485730754_0 RECT_OPEN 1.0 1.5 0 0 1
C_1485730776_6142628592_0 RECT_OPEN 1.0 1.5 0 0 1
C_1485730776_1485730755_0 RECT_OPEN 1.0 1.5 0 0 1
C_6142680813_1485730774_0 RECT_OPEN 1.0 1.5 0 0 1
C_6142680813_1485730754_0 RECT_OPEN 1.0 1.5 0 0 1
C_6142680813_6180767894_0 RECT_OPEN 1.0 1.5 0 0 1
C_6142680813_6142680814_0 RECT_OPEN 1.0 1.5 0 0 1
C_1485730755_1485730776_0 RECT_OPEN 1.0 1.5 0 0 1
C_1485730774_6142680813_0 RECT_OPEN 1.0 1.5 0 0 1
C_1485730775_6142680814_0 RECT_OPEN 1.0 1.5 0 0 1
C_6142628592_6180767894_0 RECT_OPEN 1.0 1.5 0 0 1
C_6142628592_1485730776_0 RECT_OPEN 1.0 1.5 0 0 1
C_6142628592_6142628590_0 RECT_OPEN 1.0 1.5 0 0 1
C_1492407651_7466375684_0 RECT_OPEN 1.0 1.5 0 0 1
C_1492407651_1492407638_0 RECT_OPEN 1.0 1.5 0 0 1
C_1492407651_1492407658_0 RECT_OPEN 1.0 1.5 0 0 1
C_1492407663_1492407638_0 RECT_OPEN 1.0 1.5 0 0 1
C_1492407663_1492407652_0 RECT_OPEN 1.0 1.5 0 0 1
C_1492407663_1492407658_0 RECT_OPEN 1.0 1.5 0 0 1
C_1492407639_9839093177_0 RECT_OPEN 1.0 1.5 0 0 1
C_1492407639_9839093175_0 RECT_OPEN 1.0 1.5 0 0 1
C_1492407639_1492407640_0 RECT_OPEN 1.0 1.5 0 0 1
C_9839093177_1492407639_0 RECT_OPEN 1.0 1.5 0 0 1
C_9839093177_1492407646_0 RECT_OPEN 1.0 1.5 0 0 1
C_9839093177_9839093178_0 RECT_OPEN 1.0 1.5 0 0 1
C_9839093175_1492407639_0 RECT_OPEN 1.0 1.5 0 0 1
C_1492407640_1492407639_0 RECT_OPEN 1.0 1.5 0 0 1
C_10017481091_10017481092_0 RECT_OPEN 1.0 1.5 0 0 1
C_10017481091_13041011657_0 RECT_OPEN 1.0 1.5 0 0 1
C_10017481091_1492407642_0 RECT_OPEN 1.0 1.5 0 0 1
C_1634931733_10044811669_0 RECT_OPEN 1.0 1.5 0 0 1
C_1634931733_1634931610_0 RECT_OPEN 1.0 1.5 0 0 1
C_1634931733_1492407642_0 RECT_OPEN 1.0 1.5 0 0 1
C_1492407645_13041011660_0 RECT_OPEN 1.0 1.5 0 0 1
C_1492407645_2048245856_0 RECT_OPEN 1.0 1.5 0 0 1
C_1492407645_11184922059_0 RECT_OPEN 1.0 1.5 0 0 1
C_13041011660_13041011654_0 RECT_OPEN 1.0 1.5 0 0 1
C_13041011660_13041011653_0 RECT_OPEN 1.0 1.5 0 0 1
C_13041011660_1492407645_0 RECT_OPEN 1.0 1.5 0 0 1
C_13041011660_13041011657_0 RECT_OPEN 1.0 1.5 0 0 1
C_2048245856_3957948342_0 RECT_OPEN 1.0 1.5 0 0 1
C_2048245856_1492407645_0 RECT_OPEN 1.0 1.5 0 0 1
C_2048245856_13041011663_0 RECT_OPEN 1.0 1.5 0 0 1
C_11184922059_1492407645_0 RECT_OPEN 1.0 1.5 0 0 1
C_1492407646_9839093177_0 RECT_OPEN 1.0 1.5 0 0 1
C_1492407646_7466375684_0 RECT_OPEN 1.0 1.5 0 0 1
C_1492407646_11017641140_0 RECT_OPEN 1.0 1.5 0 0 1
C_7466375684_1492407646_0 RECT_OPEN 1.0 1.5 0 0 1
C_7466375684_1492407651_0 RECT_OPEN 1.0 1.5 0 0 1
C_7466375684_7466375683_0 RECT_OPEN 1.0 1.5 0 0 1
C_11017641140_1492407646_0 RECT_OPEN 1.0 1.5 0 0 1
C_1492407652_1492407663_0 RECT_OPEN 1.0 1.5 0 0 1
C_1497326586_5281840005_0 RECT_OPEN 1.0 1.5 0 0 1
C_1497326586_10841617807_0 RECT_OPEN 1.0 1.5 0 0 1
C_5281840005_1497326586_0 RECT_OPEN 1.0 1.5 0 0 1
C_5281840005_11197334457_0 RECT_OPEN 1.0 1.5 0 0 1
C_10841617807_5281840000_0 RECT_OPEN 1.0 1.5 0 0 1
C_10841617807_12187507077_0 RECT_OPEN 1.0 1.5 0 0 1
C_7298289308_7298289306_0 RECT_OPEN 1.0 1.5 0 0 1
C_7298289308_7298289309_0 RECT_OPEN 1.0 1.5 0 0 1
C_7298289308_1502865751_0 RECT_OPEN 1.0 1.5 0 0 1
C_1502865760_7101732724_0 RECT_OPEN 1.0 1.5 0 0 1
C_1502865760_1558993985_0 RECT_OPEN 1.0 1.5 0 0 1
C_1502865760_1502865776_0 RECT_OPEN 1.0 1.5 0 0 1
C_7101732724_1558994055_0 RECT_OPEN 1.0 1.5 0 0 1
C_7101732724_1502865760_0 RECT_OPEN 1.0 1.5 0 0 1
C_7101732724_7101732726_0 RECT_OPEN 1.0 1.5 0 0 1
C_1558993985_7101732727_0 RECT_OPEN 1.0 1.5 0 0 1
C_1558993985_1502865760_0 RECT_OPEN 1.0 1.5 0 0 1
C_1558993985_1558994048_0 RECT_OPEN 1.0 1.5 0 0 1
C_1558993985_7101732710_0 RECT_OPEN 1.0 1.5 0 0 1
C_1502865776_1502865774_0 RECT_OPEN 1.0 1.5 0 0 1
C_1502865776_1502865760_0 RECT_OPEN 1.0 1.5 0 0 1
C_1502865776_1558994048_0 RECT_OPEN 1.0 1.5 0 0 1
C_1502865762_10209103447_0 RECT_OPEN 1.0 1.5 0 0 1
C_1502865762_7140718119_0 RECT_OPEN 1.0 1.5 0 0 1
C_1502865762_1852671167_0 RECT_OPEN 1.0 1.5 0 0 1
C_10209103447_1502865762_0 RECT_OPEN 1.0 1.5 0 0 1
C_10209103447_1502865774_0 RECT_OPEN 1.0 1.5 0 0 1
C_10209103447_10209103448_0 RECT_OPEN 1.0 1.5 0 0 1
C_7140718119_7101732723_0 RECT_OPEN 1.0 1.5 0 0 1
C_7140718119_1502865762_0 RECT_OPEN 1.0 1.5 0 0 1
C_7140718119_7140718117_0 RECT_OPEN 1.0 1.5 0 0 1
C_1852671167_1502865762_0 RECT_OPEN 1.0 1.5 0 0 1
C_1852671167_7298295682_0 RECT_OPEN 1.0 1.5 0 0 1
C_1852671167_1558993987_0 RECT_OPEN 1.0 1.5 0 0 1
C_1502865774_10209103447_0 RECT_OPEN 1.0 1.5 0 0 1
C_1502865774_1502865776_0 RECT_OPEN 1.0 1.5 0 0 1
C_1502865774_1558993906_0 RECT_OPEN 1.0 1.5 0 0 1
C_1558993906_1558993939_0 RECT_OPEN 1.0 1.5 0 0 1
C_1558993906_7298289310_0 RECT_OPEN 1.0 1.5 0 0 1
C_1558993906_1502865774_0 RECT_OPEN 1.0 1.5 0 0 1
C_1558994048_1558993987_0 RECT_OPEN 1.0 1.5 0 0 1
C_1558994048_1558993985_0 RECT_OPEN 1.0 1.5 0 0 1
C_1558994048_1502865776_0 RECT_OPEN 1.0 1.5 0 0 1
C_1505269133_1505269186_0 RECT_OPEN 1.0 1.5 0 0 1
C_1505269133_1505269186_1 RECT_OPEN 1.0 1.5 0 0 1
C_1505269133_11399419950_0 RECT_OPEN 1.0 1.5 0 0 1
C_1505269186_1505269146_0 RECT_OPEN 1.0 1.5 0 0 1
C_1505269186_1505269133_0 RECT_OPEN 1.0 1.5 0 0 1
C_1505269186_1505269133_1 RECT_OPEN 1.0 1.5 0 0 1
C_7101760810_1505269146_0 RECT_OPEN 1.0 1.5 0 0 1
C_7101760810_5281842568_0 RECT_OPEN 1.0 1.5 0 0 1
C_7101760810_7101760812_0 RECT_OPEN 1.0 1.5 0 0 1
C_1505269171_7298289243_0 RECT_OPEN 1.0 1.5 0 0 1
C_1505269171_7298289210_0 RECT_OPEN 1.0 1.5 0 0 1
C_1505269171_11028823357_0 RECT_OPEN 1.0 1.5 0 0 1
C_7298289243_1505269171_0 RECT_OPEN 1.0 1.5 0 0 1
C_7298289210_7298289198_0 RECT_OPEN 1.0 1.5 0 0 1
C_7298289210_1505269171_0 RECT_OPEN 1.0 1.5 0 0 1
C_7298289210_7140718128_0 RECT_OPEN 1.0 1.5 0 0 1
C_11028823357_7298289189_0 RECT_OPEN 1.0 1.5 0 0 1
C_11028823357_11028823358_0 RECT_OPEN 1.0 1.5 0 0 1
C_11028823357_1505269171_0 RECT_OPEN 1.0 1.5 0 0 1
C_1507064166_1507064149_0 RECT_OPEN 1.0 1.5 0 0 1
C_13655652829_1507064152_0 RECT_OPEN 1.0 1.5 0 0 1
C_1511238406_12999157124_0 RECT_OPEN 1.0 1.5 0 0 1
C_1511238406_1511238410_0 RECT_OPEN 1.0 1.5 0 0 1
C_1511238406_9928561082_0 RECT_OPEN 1.0 1.5 0 0 1
C_12999157124_12999157122_0 RECT_OPEN 1.0 1.5 0 0 1
C_12999157124_12999157125_0 RECT_OPEN 1.0 1.5 0 0 1
C_12999157124_1511238406_0 RECT_OPEN 1.0 1.5 0 0 1
C_9928561082_13807649550_0 RECT_OPEN 1.0 1.5 0 0 1
C_9928561082_9928561083_0 RECT_OPEN 1.0 1.5 0 0 1
C_9928561082_1511238406_0 RECT_OPEN 1.0 1.5 0 0 1
C_6901363516_251106545_0 RECT_OPEN 1.0 1.5 0 0 1
C_6901363516_6901363518_0 RECT_OPEN 1.0 1.5 0 0 1
C_4458722643_1514989618_0 RECT_OPEN 1.0 1.5 0 0 1
C_4458722643_7138383899_0 RECT_OPEN 1.0 1.5 0 0 1
C_4458722643_7138383902_0 RECT_OPEN 1.0 1.5 0 0 1
C_4458722689_7453315717_0 RECT_OPEN 1.0 1.5 0 0 1
C_4458722689_1514989618_0 RECT_OPEN 1.0 1.5 0 0 1
C_4458722689_6194091031_0 RECT_OPEN 1.0 1.5 0 0 1
C_11015173157_1514989656_0 RECT_OPEN 1.0 1.5 0 0 1
C_11015173157_1514989637_0 RECT_OPEN 1.0 1.5 0 0 1
C_11015173157_1514989684_0 RECT_OPEN 1.0 1.5 0 0 1
C_1514989656_11015173157_0 RECT_OPEN 1.0 1.5 0 0 1
C_1514989656_7453315306_0 RECT_OPEN 1.0 1.5 0 0 1
C_1514989656_7453315718_0 RECT_OPEN 1.0 1.5 0 0 1
C_7453315306_7453315307_0 RECT_OPEN 1.0 1.5 0 0 1
C_7453315306_1514989656_0 RECT_OPEN 1.0 1.5 0 0 1
C_7453315306_7138383899_0 RECT_OPEN 1.0 1.5 0 0 1
C_7453315718_1514989656_0 RECT_OPEN 1.0 1.5 0 0 1
C_7452673917_5283343745_0 RECT_OPEN 1.0 1.5 0 0 1
C_7452673917_1514989684_0 RECT_OPEN 1.0 1.5 0 0 1
C_7452673917_11021648177_0 RECT_OPEN 1.0 1.5 0 0 1
C_1514989685_7452673911_0 RECT_OPEN 1.0 1.5 0 0 1
C_9901111715_1368801653_0 RECT_OPEN 1.0 1.5 0 0 1
C_9901111715_9901111716_0 RECT_OPEN 1.0 1.5 0 0 1
C_1558993988_1558993902_0 RECT_OPEN 1.0 1.5 0 0 1
C_1558993939_10209123011_0 RECT_OPEN 1.0 1.5 0 0 1
C_1558993939_6142293179_0 RECT_OPEN 1.0 1.5 0 0 1
C_1558993939_1558993906_0 RECT_OPEN 1.0 1.5 0 0 1
C_7298289310_1558993906_0 RECT_OPEN 1.0 1.5 0 0 1
C_7298289310_1558994002_0 RECT_OPEN 1.0 1.5 0 0 1
C_7298289310_7298289314_0 RECT_OPEN 1.0 1.5 0 0 1
C_1558993929_1558994010_0 RECT_OPEN 1.0 1.5 0 0 1
C_1558993929_11397404812_0 RECT_OPEN 1.0 1.5 0 0 1
C_1558993929_1558993961_0 RECT_OPEN 1.0 1.5 0 0 1
C_1558994010_1558993929_0 RECT_OPEN 1.0 1.5 0 0 1
C_1558994010_11397404814_0 RECT_OPEN 1.0 1.5 0 0 1
C_1558994010_11045649363_0 RECT_OPEN 1.0 1.5 0 0 1
C_11397404812_1558993929_0 RECT_OPEN 1.0 1.5 0 0 1
C_1558993961_11397404821_0 RECT_OPEN 1.0 1.5 0 0 1
C_1558993961_11045649363_0 RECT_OPEN 1.0 1.5 0 0 1
C_1558993961_1558993929_0 RECT_OPEN 1.0 1.5 0 0 1
C_1558993961_11045649364_0 RECT_OPEN 1.0 1.5 0 0 1
C_1558993933_7298289189_0 RECT_OPEN 1.0 1.5 0 0 1
C_1558993933_12244701790_0 RECT_OPEN 1.0 1.5 0 0 1
C_1558993933_11397404821_0 RECT_OPEN 1.0 1.5 0 0 1
C_7298289189_11028823357_0 RECT_OPEN 1.0 1.5 0 0 1
C_7298289189_1558993933_0 RECT_OPEN 1.0 1.5 0 0 1
C_7298289189_7298289244_0 RECT_OPEN 1.0 1.5 0 0 1
C_12244701790_1558993933_0 RECT_OPEN 1.0 1.5 0 0 1
C_12244701790_11045649364_0 RECT_OPEN 1.0 1.5 0 0 1
C_12244701790_11397404821_0 RECT_OPEN 1.0 1.5 0 0 1
C_12244701790_11397404823_0 RECT_OPEN 1.0 1.5 0 0 1
C_11397404821_1558993961_0 RECT_OPEN 1.0 1.5 0 0 1
C_11397404821_1558993933_0 RECT_OPEN 1.0 1.5 0 0 1
C_11397404821_12244701790_0 RECT_OPEN 1.0 1.5 0 0 1
C_10209123011_1558993939_0 RECT_OPEN 1.0 1.5 0 0 1
C_10209123011_10209123012_0 RECT_OPEN 1.0 1.5 0 0 1
C_10209123011_11397593720_0 RECT_OPEN 1.0 1.5 0 0 1
C_6142293179_1558993939_0 RECT_OPEN 1.0 1.5 0 0 1
C_6142293179_1558994055_0 RECT_OPEN 1.0 1.5 0 0 1
C_6142293179_7291167515_0 RECT_OPEN 1.0 1.5 0 0 1
C_1558993942_12196464672_0 RECT_OPEN 1.0 1.5 0 0 1
C_1558993942_11397593732_0 RECT_OPEN 1.0 1.5 0 0 1
C_1558993942_7175603121_0 RECT_OPEN 1.0 1.5 0 0 1
C_12196464672_7175594108_0 RECT_OPEN 1.0 1.5 0 0 1
C_12196464672_1558993942_0 RECT_OPEN 1.0 1.5 0 0 1
C_12196464672_12196464673_0 RECT_OPEN 1.0 1.5 0 0 1
C_11397593732_1558993942_0 RECT_OPEN 1.0 1.5 0 0 1
C_11397593732_11397593733_0 RECT_OPEN 1.0 1.5 0 0 1
C_11397593732_11176392352_0 RECT_OPEN 1.0 1.5 0 0 1
C_7175603121_7291147464_0 RECT_OPEN 1.0 1.5 0 0 1
C_7175603121_1558993942_0 RECT_OPEN 1.0 1.5 0 0 1
C_7175603121_11397632762_0 RECT_OPEN 1.0 1.5 0 0 1
C_10991915618_1558993992_0 RECT_OPEN 1.0 1.5 0 0 1
C_10991915618_10991915619_0 RECT_OPEN 1.0 1.5 0 0 1
C_10991915618_1558993952_0 RECT_OPEN 1.0 1.5 0 0 1
C_1558993960_12151901678_0 RECT_OPEN 1.0 1.5 0 0 1
C_1558993960_7175594106_0 RECT_OPEN 1.0 1.5 0 0 1
C_1558993960_7175594101_0 RECT_OPEN 1.0 1.5 0 0 1
C_12151901678_7291147457_0 RECT_OPEN 1.0 1.5 0 0 1
C_12151901678_1558993960_0 RECT_OPEN 1.0 1.5 0 0 1
C_12151901678_12151901679_0 RECT_OPEN 1.0 1.5 0 0 1
C_7175594106_1558993960_0 RECT_OPEN 1.0 1.5 0 0 1
C_7175594106_7175594108_0 RECT_OPEN 1.0 1.5 0 0 1
C_7175594106_7175594101_0 RECT_OPEN 1.0 1.5 0 0 1
C_7175594101_7175594106_0 RECT_OPEN 1.0 1.5 0 0 1
C_7175594101_7175594108_0 RECT_OPEN 1.0 1.5 0 0 1
C_7175594101_1558993960_0 RECT_OPEN 1.0 1.5 0 0 1
C_11045649363_11397404813_0 RECT_OPEN 1.0 1.5 0 0 1
C_11045649363_1558993961_0 RECT_OPEN 1.0 1.5 0 0 1
C_11045649363_1558994010_0 RECT_OPEN 1.0 1.5 0 0 1
C_11045649363_11045649360_0 RECT_OPEN 1.0 1.5 0 0 1
C_11045649364_11397404822_0 RECT_OPEN 1.0 1.5 0 0 1
C_11045649364_12244701790_0 RECT_OPEN 1.0 1.5 0 0 1
C_11045649364_11045649360_0 RECT_OPEN 1.0 1.5 0 0 1
C_11045649364_1558993961_0 RECT_OPEN 1.0 1.5 0 0 1
C_7101732727_1558993985_0 RECT_OPEN 1.0 1.5 0 0 1
C_7101732727_7101732730_0 RECT_OPEN 1.0 1.5 0 0 1
C_7101732727_7101732731_0 RECT_OPEN 1.0 1.5 0 0 1
C_7101732710_1558993985_0 RECT_OPEN 1.0 1.5 0 0 1
C_1558993992_10991915618_0 RECT_OPEN 1.0 1.5 0 0 1
C_7101732723_1558994002_0 RECT_OPEN 1.0 1.5 0 0 1
C_7101732723_7140718119_0 RECT_OPEN 1.0 1.5 0 0 1
C_7101732723_7101732711_0 RECT_OPEN 1.0 1.5 0 0 1
C_1558994009_1558994055_0 RECT_OPEN 1.0 1.5 0 0 1
C_1558994055_7101732724_0 RECT_OPEN 1.0 1.5 0 0 1
C_1558994055_1558994009_0 RECT_OPEN 1.0 1.5 0 0 1
C_1558994055_6142293179_0 RECT_OPEN 1.0 1.5 0 0 1
C_11397404814_1558994010_0 RECT_OPEN 1.0 1.5 0 0 1
C_11397404814_7291147457_0 RECT_OPEN 1.0 1.5 0 0 1
C_11397404814_12151901633_0 RECT_OPEN 1.0 1.5 0 0 1
C_11397404814_11397404813_0 RECT_OPEN 1.0 1.5 0 0 1
C_1558994024_10978638722_0 RECT_OPEN 1.0 1.5 0 0 1
C_10978638722_1558994025_0 RECT_OPEN 1.0 1.5 0 0 1
C_10978638722_10978638724_0 RECT_OPEN 1.0 1.5 0 0 1
C_1558994025_9681688971_0 RECT_OPEN 1.0 1.5 0 0 1
C_1558994025_1558994047_0 RECT_OPEN 1.0 1.5 0 0 1
C_1558994047_1558994025_0 RECT_OPEN 1.0 1.5 0 0 1
C_10978640856_9900960143_0 RECT_OPEN 1.0 1.5 0 0 1
C_10978640856_10978640858_0 RECT_OPEN 1.0 1.5 0 0 1
C_7291167618_7291167619_0 RECT_OPEN 1.0 1.5 0 0 1
C_7291167618_7291167617_0 RECT_OPEN 1.0 1.5 0 0 1
C_7291167618_1585741084_0 RECT_OPEN 1.0 1.5 0 0 1
C_1589223971_7291167555_0 RECT_OPEN 1.0 1.5 0 0 1
C_1590229329_1590229386_0 RECT_OPEN 1.0 1.5 0 0 1
C_1590229523_1590229362_0 RECT_OPEN 1.0 1.5 0 0 1
C_1590229591_1590229489_0 RECT_OPEN 1.0 1.5 0 0 1
C_1605954172_1605954206_0 RECT_OPEN 1.0 1.5 0 0 1
C_1605954172_1605954220_0 RECT_OPEN 1.0 1.5 0 0 1
C_1605954172_1605954141_0 RECT_OPEN 1.0 1.5 0 0 1
C_1605954220_1605954172_0 RECT_OPEN 1.0 1.5 0 0 1
C_1605954220_1605954215_0 RECT_OPEN 1.0 1.5 0 0 1
C_1605954220_1605954141_0 RECT_OPEN 1.0 1.5 0 0 1
C_1605954168_1605954178_0 RECT_OPEN 1.0 1.5 0 0 1
C_1605954178_5281842556_0 RECT_OPEN 1.0 1.5 0 0 1
C_1605954178_11375356861_0 RECT_OPEN 1.0 1.5 0 0 1
C_1605954178_1605954168_0 RECT_OPEN 1.0 1.5 0 0 1
C_1605954206_11375356861_0 RECT_OPEN 1.0 1.5 0 0 1
C_1605954206_1605954172_0 RECT_OPEN 1.0 1.5 0 0 1
C_1605954206_1605954184_0 RECT_OPEN 1.0 1.5 0 0 1
C_11375356861_1605954178_0 RECT_OPEN 1.0 1.5 0 0 1
C_11375356861_1605954206_0 RECT_OPEN 1.0 1.5 0 0 1
C_11375356861_5281842556_0 RECT_OPEN 1.0 1.5 0 0 1
C_1605954179_7466456019_0 RECT_OPEN 1.0 1.5 0 0 1
C_1605954179_1605954184_0 RECT_OPEN 1.0 1.5 0 0 1
C_1605954179_1605954215_0 RECT_OPEN 1.0 1.5 0 0 1
C_1605954179_11169596337_0 RECT_OPEN 1.0 1.5 0 0 1
C_7466456019_1605954179_0 RECT_OPEN 1.0 1.5 0 0 1
C_1605954215_1605954220_0 RECT_OPEN 1.0 1.5 0 0 1
C_1605954215_1605954179_0 RECT_OPEN 1.0 1.5 0 0 1
C_1605954215_1605954226_0 RECT_OPEN 1.0 1.5 0 0 1
C_11169596337_1605954179_0 RECT_OPEN 1.0 1.5 0 0 1
C_7291147477_1631443235_0 RECT_OPEN 1.0 1.5 0 0 1
C_1633904682_1633904785_0 RECT_OPEN 1.0 1.5 0 0 1
C_1633904682_7465449566_0 RECT_OPEN 1.0 1.5 0 0 1
C_1633904682_6620856876_0 RECT_OPEN 1.0 1.5 0 0 1
C_1633904785_1633904682_0 RECT_OPEN 1.0 1.5 0 0 1
C_1633904785_7465449557_0 RECT_OPEN 1.0 1.5 0 0 1
C_1633904785_13152322515_0 RECT_OPEN 1.0 1.5 0 0 1
C_7465449566_7465449567_0 RECT_OPEN 1.0 1.5 0 0 1
C_7465449566_1633904727_0 RECT_OPEN 1.0 1.5 0 0 1
C_7465449566_1633904682_0 RECT_OPEN 1.0 1.5 0 0 1
C_1633904727_13152307780_0 RECT_OPEN 1.0 1.5 0 0 1
C_1633904727_7465449566_0 RECT_OPEN 1.0 1.5 0 0 1
C_13152307780_1633904727_0 RECT_OPEN 1.0 1.5 0 0 1
C_13152307780_13152307781_0 RECT_OPEN 1.0 1.5 0 0 1
C_10232936572_1633904753_0 RECT_OPEN 1.0 1.5 0 0 1
C_1633904764_7465449561_0 RECT_OPEN 1.0 1.5 0 0 1
C_1633904764_7465449565_0 RECT_OPEN 1.0 1.5 0 0 1
C_1633904764_7465449562_0 RECT_OPEN 1.0 1.5 0 0 1
C_7465449561_7465449559_0 RECT_OPEN 1.0 1.5 0 0 1
C_7465449561_1633904764_0 RECT_OPEN 1.0 1.5 0 0 1
C_7465449561_7465449560_0 RECT_OPEN 1.0 1.5 0 0 1
C_7465449565_1633904764_0 RECT_OPEN 1.0 1.5 0 0 1
C_7465449565_7465449564_0 RECT_OPEN 1.0 1.5 0 0 1
C_7465449565_7465449567_0 RECT_OPEN 1.0 1.5 0 0 1
C_7465449562_1633904764_0 RECT_OPEN 1.0 1.5 0 0 1
C_7465449557_1633904785_0 RECT_OPEN 1.0 1.5 0 0 1
C_7465449557_7465449556_0 RECT_OPEN 1.0 1.5 0 0 1
C_7465449557_7465449559_0 RECT_OPEN 1.0 1.5 0 0 1
C_13152322515_7465449546_0 RECT_OPEN 1.0 1.5 0 0 1
C_13152322515_1633904785_0 RECT_OPEN 1.0 1.5 0 0 1
C_13152322515_11438132731_0 RECT_OPEN 1.0 1.5 0 0 1
C_1633904819_7465393573_0 RECT_OPEN 1.0 1.5 0 0 1
C_1633904819_7263113742_0 RECT_OPEN 1.0 1.5 0 0 1
C_1633904819_11002858225_0 RECT_OPEN 1.0 1.5 0 0 1
C_7465393573_1633904819_0 RECT_OPEN 1.0 1.5 0 0 1
C_7465393573_7465393572_0 RECT_OPEN 1.0 1.5 0 0 1
C_7263113742_1633904819_0 RECT_OPEN 1.0 1.5 0 0 1
C_7263113742_7263113741_0 RECT_OPEN 1.0 1.5 0 0 1
C_7263113742_7465393579_0 RECT_OPEN 1.0 1.5 0 0 1
C_11002858225_1633904819_0 RECT_OPEN 1.0 1.5 0 0 1
C_1634931522_1634931847_0 RECT_OPEN 1.0 1.5 0 0 1
C_1634931847_1634931522_0 RECT_OPEN 1.0 1.5 0 0 1
C_1634931847_2066388564_0 RECT_OPEN 1.0 1.5 0 0 1
C_1634931847_12393621582_0 RECT_OPEN 1.0 1.5 0 0 1
C_1634931610_1634931733_0 RECT_OPEN 1.0 1.5 0 0 1
C_7298289286_1634931711_0 RECT_OPEN 1.0 1.5 0 0 1
C_10044811669_10044811670_0 RECT_OPEN 1.0 1.5 0 0 1
C_10044811669_1634931733_0 RECT_OPEN 1.0 1.5 0 0 1
C_10044811669_11002587524_0 RECT_OPEN 1.0 1.5 0 0 1
C_1634931831_7298289272_0 RECT_OPEN 1.0 1.5 0 0 1
C_1634931831_11003036767_0 RECT_OPEN 1.0 1.5 0 0 1
C_1634931831_1634931868_0 RECT_OPEN 1.0 1.5 0 0 1
C_11003036767_12206473568_0 RECT_OPEN 1.0 1.5 0 0 1
C_11003036767_11003036768_0 RECT_OPEN 1.0 1.5 0 0 1
C_11003036767_1634931831_0 RECT_OPEN 1.0 1.5 0 0 1
C_1634931868_1634931831_0 RECT_OPEN 1.0 1.5 0 0 1
C_12393621582_14072070989_0 RECT_OPEN 1.0 1.5 0 0 1
C_12393621582_1634931847_0 RECT_OPEN 1.0 1.5 0 0 1
C_12393621582_12393621581_0 RECT_OPEN 1.0 1.5 0 0 1
C_5281842568_5281842567_0 RECT_OPEN 1.0 1.5 0 0 1
C_5281842568_1634932079_0 RECT_OPEN 1.0 1.5 0 0 1
C_5281842568_7101760810_0 RECT_OPEN 1.0 1.5 0 0 1
C_5281842566_5281842565_0 RECT_OPEN 1.0 1.5 0 0 1
C_5281842566_1634932079_0 RECT_OPEN 1.0 1.5 0 0 1
C_5281842566_7101760800_0 RECT_OPEN 1.0 1.5 0 0 1
C_1634963569_11414136196_0 RECT_OPEN 1.0 1.5 0 0 1
C_1697942242_5281842584_0 RECT_OPEN 1.0 1.5 0 0 1
C_1697942242_5281842576_0 RECT_OPEN 1.0 1.5 0 0 1
C_5281842584_6911835054_0 RECT_OPEN 1.0 1.5 0 0 1
C_5281842584_5281842574_0 RECT_OPEN 1.0 1.5 0 0 1
C_5281842576_1697942242_0 RECT_OPEN 1.0 1.5 0 0 1
C_1701004555_1697942242_0 RECT_OPEN 1.0 1.5 0 0 1
C_1701004555_1701004552_0 RECT_OPEN 1.0 1.5 0 0 1
C_1701004555_13098366974_0 RECT_OPEN 1.0 1.5 0 0 1
C_13098366974_11397388905_0 RECT_OPEN 1.0 1.5 0 0 1
C_13098366974_13098366975_0 RECT_OPEN 1.0 1.5 0 0 1
C_13098366974_1701004555_0 RECT_OPEN 1.0 1.5 0 0 1
C_1718788929_1718789013_0 RECT_OPEN 1.0 1.5 0 0 1
C_1718788929_10277100421_0 RECT_OPEN 1.0 1.5 0 0 1
C_1718788929_1718789067_0 RECT_OPEN 1.0 1.5 0 0 1
C_10277100421_1718788929_0 RECT_OPEN 1.0 1.5 0 0 1
C_10277100421_10277100422_0 RECT_OPEN 1.0 1.5 0 0 1
C_10277100421_10277100419_0 RECT_OPEN 1.0 1.5 0 0 1
C_1718789067_1718788929_0 RECT_OPEN 1.0 1.5 0 0 1
C_1718788930_11182447927_0 RECT_OPEN 1.0 1.5 0 0 1
C_3649031394_4315977113_0 RECT_OPEN 1.0 1.5 0 0 1
C_3649031394_1718789013_0 RECT_OPEN 1.0 1.5 0 0 1
C_3649031394_3649031405_0 RECT_OPEN 1.0 1.5 0 0 1
C_1759857345_2987147432_0 RECT_OPEN 1.0 1.5 0 0 1
C_1759857345_7138383916_0 RECT_OPEN 1.0 1.5 0 0 1
C_1759857345_6182547032_0 RECT_OPEN 1.0 1.5 0 0 1
C_2987147432_1759857345_0 RECT_OPEN 1.0 1.5 0 0 1
C_2987147432_2987149133_0 RECT_OPEN 1.0 1.5 0 0 1
C_2987147432_2987147429_0 RECT_OPEN 1.0 1.5 0 0 1
C_1770465751_1770465756_0 RECT_OPEN 1.0 1.5 0 0 1
C_1770465753_7466386830_0 RECT_OPEN 1.0 1.5 0 0 1
C_7298295682_7298295681_0 RECT_OPEN 1.0 1.5 0 0 1
C_7298295682_7291167499_0 RECT_OPEN 1.0 1.5 0 0 1
C_7298295682_1852671167_0 RECT_OPEN 1.0 1.5 0 0 1
C_13041011663_13041011662_0 RECT_OPEN 1.0 1.5 0 0 1
C_13041011663_2048245856_0 RECT_OPEN 1.0 1.5 0 0 1
C_13041011663_13041011665_0 RECT_OPEN 1.0 1.5 0 0 1
C_2048245859_13041011665_0 RECT_OPEN 1.0 1.5 0 0 1
C_2048245859_11002607129_0 RECT_OPEN 1.0 1.5 0 0 1
C_2048245859_2048245857_0 RECT_OPEN 1.0 1.5 0 0 1
C_13041011665_2048245859_0 RECT_OPEN 1.0 1.5 0 0 1
C_13041011665_13041011664_0 RECT_OPEN 1.0 1.5 0 0 1
C_13041011665_13041011663_0 RECT_OPEN 1.0 1.5 0 0 1
C_11002607129_11002607131_0 RECT_OPEN 1.0 1.5 0 0 1
C_11002607129_2048245859_0 RECT_OPEN 1.0 1.5 0 0 1
C_11002607129_11002607130_0 RECT_OPEN 1.0 1.5 0 0 1
C_11056570933_2066388579_0 RECT_OPEN 1.0 1.5 0 0 1
C_2376774391_11434512223_0 RECT_OPEN 1.0 1.5 0 0 1
C_2376774391_2225133157_0 RECT_OPEN 1.0 1.5 0 0 1
C_2376774391_7453315632_0 RECT_OPEN 1.0 1.5 0 0 1
C_11434512223_2376774391_0 RECT_OPEN 1.0 1.5 0 0 1
C_11434512223_2225133166_0 RECT_OPEN 1.0 1.5 0 0 1
C_11434512223_11434512224_0 RECT_OPEN 1.0 1.5 0 0 1
C_2225133167_11015226548_0 RECT_OPEN 1.0 1.5 0 0 1
C_2225133167_2225133173_0 RECT_OPEN 1.0 1.5 0 0 1
C_2225133167_11015226552_0 RECT_OPEN 1.0 1.5 0 0 1
C_2225133173_2225133175_0 RECT_OPEN 1.0 1.5 0 0 1
C_2225133173_9700074499_0 RECT_OPEN 1.0 1.5 0 0 1
C_2225133173_2225133167_0 RECT_OPEN 1.0 1.5 0 0 1
C_2225133175_2225133173_0 RECT_OPEN 1.0 1.5 0 0 1
C_9700074499_2225133173_0 RECT_OPEN 1.0 1.5 0 0 1
C_2225133195_2225133212_0 RECT_OPEN 1.0 1.5 0 0 1
C_2225133195_5283547061_0 RECT_OPEN 1.0 1.5 0 0 1
C_2225133195_7147088714_0 RECT_OPEN 1.0 1.5 0 0 1
C_2225133212_2225133195_0 RECT_OPEN 1.0 1.5 0 0 1
C_7147088714_2225133195_0 RECT_OPEN 1.0 1.5 0 0 1
C_7147088714_7147088707_0 RECT_OPEN 1.0 1.5 0 0 1
C_7147088714_2225133199_0 RECT_OPEN 1.0 1.5 0 0 1
C_2225133199_7147042929_0 RECT_OPEN 1.0 1.5 0 0 1
C_2225133199_12698276487_0 RECT_OPEN 1.0 1.5 0 0 1
C_2225133199_7147088714_0 RECT_OPEN 1.0 1.5 0 0 1
C_12698276487_12698276488_0 RECT_OPEN 1.0 1.5 0 0 1
C_12698276487_13645830500_0 RECT_OPEN 1.0 1.5 0 0 1
C_12698276487_2225133199_0 RECT_OPEN 1.0 1.5 0 0 1
C_11021676037_2225133203_0 RECT_OPEN 1.0 1.5 0 0 1
C_11021676037_2225133206_0 RECT_OPEN 1.0 1.5 0 0 1
C_11021676037_11021676040_0 RECT_OPEN 1.0 1.5 0 0 1
C_13645830539_2225133203_0 RECT_OPEN 1.0 1.5 0 0 1
C_7453315614_11021755952_0 RECT_OPEN 1.0 1.5 0 0 1
C_7453315614_2225133206_0 RECT_OPEN 1.0 1.5 0 0 1
C_7453315614_7453315618_0 RECT_OPEN 1.0 1.5 0 0 1
C_2225133295_2225133216_0 RECT_OPEN 1.0 1.5 0 0 1
C_2225133273_11021755952_0 RECT_OPEN 1.0 1.5 0 0 1
C_11021755952_7453315614_0 RECT_OPEN 1.0 1.5 0 0 1
C_11021755952_11021755953_0 RECT_OPEN 1.0 1.5 0 0 1
C_11021755952_2225133273_0 RECT_OPEN 1.0 1.5 0 0 1
C_7453315392_7453315393_0 RECT_OPEN 1.0 1.5 0 0 1
C_7453315392_2225133290_0 RECT_OPEN 1.0 1.5 0 0 1
C_7453315392_6749434106_0 RECT_OPEN 1.0 1.5 0 0 1
C_2225133309_2225133290_0 RECT_OPEN 1.0 1.5 0 0 1
C_2225133523_6753110523_0 RECT_OPEN 1.0 1.5 0 0 1
C_2225133523_6753110522_0 RECT_OPEN 1.0 1.5 0 0 1
C_6753110523_2225133523_0 RECT_OPEN 1.0 1.5 0 0 1
C_6753110523_2225133530_0 RECT_OPEN 1.0 1.5 0 0 1
C_6753110523_6753110522_0 RECT_OPEN 1.0 1.5 0 0 1
C_6753110522_6753110523_0 RECT_OPEN 1.0 1.5 0 0 1
C_6753110522_6753110521_0 RECT_OPEN 1.0 1.5 0 0 1
C_6753110522_2225133523_0 RECT_OPEN 1.0 1.5 0 0 1
C_2225133530_6753110523_0 RECT_OPEN 1.0 1.5 0 0 1
C_2225133530_6753110521_0 RECT_OPEN 1.0 1.5 0 0 1
C_2225133530_7263139539_0 RECT_OPEN 1.0 1.5 0 0 1
C_6753110521_2225133530_0 RECT_OPEN 1.0 1.5 0 0 1
C_6753110521_11438167760_0 RECT_OPEN 1.0 1.5 0 0 1
C_6753110521_6753110522_0 RECT_OPEN 1.0 1.5 0 0 1
C_7263139539_2225133544_0 RECT_OPEN 1.0 1.5 0 0 1
C_7263139539_2225133530_0 RECT_OPEN 1.0 1.5 0 0 1
C_7263139539_7263139538_0 RECT_OPEN 1.0 1.5 0 0 1
C_2225133551_11438298620_0 RECT_OPEN 1.0 1.5 0 0 1
C_2225133551_2225133544_0 RECT_OPEN 1.0 1.5 0 0 1
C_2225133551_7465456797_0 RECT_OPEN 1.0 1.5 0 0 1
C_11438298620_2225133551_0 RECT_OPEN 1.0 1.5 0 0 1
C_11438298620_7465456798_0 RECT_OPEN 1.0 1.5 0 0 1
C_11438298620_11438298623_0 RECT_OPEN 1.0 1.5 0 0 1
C_7465456797_2225133551_0 RECT_OPEN 1.0 1.5 0 0 1
C_7465456797_2225133603_0 RECT_OPEN 1.0 1.5 0 0 1
C_7465456797_7465456788_0 RECT_OPEN 1.0 1.5 0 0 1
C_9982048431_6755551379_0 RECT_OPEN 1.0 1.5 0 0 1
C_9982048431_2225133701_0 RECT_OPEN 1.0 1.5 0 0 1
C_9982048431_11021428239_0 RECT_OPEN 1.0 1.5 0 0 1
C_6748996026_2225133701_0 RECT_OPEN 1.0 1.5 0 0 1
C_11846741326_11409454649_0 RECT_OPEN 1.0 1.5 0 0 1
C_11846741326_12961466032_0 RECT_OPEN 1.0 1.5 0 0 1
C_7453315632_2376774391_0 RECT_OPEN 1.0 1.5 0 0 1
C_7453315632_2376774439_0 RECT_OPEN 1.0 1.5 0 0 1
C_7453315632_7453315432_0 RECT_OPEN 1.0 1.5 0 0 1
C_2376774417_13720252591_0 RECT_OPEN 1.0 1.5 0 0 1
C_2376774417_2376774439_0 RECT_OPEN 1.0 1.5 0 0 1
C_2376774417_11027638241_0 RECT_OPEN 1.0 1.5 0 0 1
C_13720252591_7147090917_0 RECT_OPEN 1.0 1.5 0 0 1
C_13720252591_2376774417_0 RECT_OPEN 1.0 1.5 0 0 1
C_13720252591_7147090938_0 RECT_OPEN 1.0 1.5 0 0 1
C_12141933090_2486617761_0 RECT_OPEN 1.0 1.5 0 0 1
C_12141933090_1371807542_0 RECT_OPEN 1.0 1.5 0 0 1
C_13656305932_2486617762_0 RECT_OPEN 1.0 1.5 0 0 1
C_13656305932_2486617761_0 RECT_OPEN 1.0 1.5 0 0 1
C_13656305932_13656305937_0 RECT_OPEN 1.0 1.5 0 0 1
C_2508149195_7465456843_0 RECT_OPEN 1.0 1.5 0 0 1
C_2578488068_13607317196_0 RECT_OPEN 1.0 1.5 0 0 1
C_2578488068_13607317191_0 RECT_OPEN 1.0 1.5 0 0 1
C_2578488068_2578488069_0 RECT_OPEN 1.0 1.5 0 0 1
C_13607317196_13607317195_0 RECT_OPEN 1.0 1.5 0 0 1
C_13607317196_7187815406_0 RECT_OPEN 1.0 1.5 0 0 1
C_13607317196_2578488068_0 RECT_OPEN 1.0 1.5 0 0 1
C_13607317191_2578488068_0 RECT_OPEN 1.0 1.5 0 0 1
C_2578488069_2578488068_0 RECT_OPEN 1.0 1.5 0 0 1
C_2623258606_6043189067_0 RECT_OPEN 1.0 1.5 0 0 1
C_2987147429_2987148124_0 RECT_OPEN 1.0 1.5 0 0 1
C_2987147429_2987147432_0 RECT_OPEN 1.0 1.5 0 0 1
C_2987147429_7465614187_0 RECT_OPEN 1.0 1.5 0 0 1
C_2987148124_2987148123_0 RECT_OPEN 1.0 1.5 0 0 1
C_2987148124_2987147429_0 RECT_OPEN 1.0 1.5 0 0 1
C_7465614187_7465614189_0 RECT_OPEN 1.0 1.5 0 0 1
C_7465614187_2987147429_0 RECT_OPEN 1.0 1.5 0 0 1
C_2987149133_7465614189_0 RECT_OPEN 1.0 1.5 0 0 1
C_2987149133_2987147432_0 RECT_OPEN 1.0 1.5 0 0 1
C_2987148123_2987148124_0 RECT_OPEN 1.0 1.5 0 0 1
C_2987148123_11885834678_0 RECT_OPEN 1.0 1.5 0 0 1
C_11885834678_2987148123_0 RECT_OPEN 1.0 1.5 0 0 1
C_11885834678_11021603481_0 RECT_OPEN 1.0 1.5 0 0 1
C_7465614189_7465614187_0 RECT_OPEN 1.0 1.5 0 0 1
C_7465614189_2987149133_0 RECT_OPEN 1.0 1.5 0 0 1
C_3300742565_251105285_0 RECT_OPEN 1.0 1.5 0 0 1
C_3324730976_3324726802_0 RECT_OPEN 1.0 1.5 0 0 1
C_3528034343_6748996035_0 RECT_OPEN 1.0 1.5 0 0 1
C_3528034343_9700303070_0 RECT_OPEN 1.0 1.5 0 0 1
C_3528034343_11434710893_0 RECT_OPEN 1.0 1.5 0 0 1
C_6748996035_3528034343_0 RECT_OPEN 1.0 1.5 0 0 1
C_6748996035_9700303071_0 RECT_OPEN 1.0 1.5 0 0 1
C_6748996035_6748996039_0 RECT_OPEN 1.0 1.5 0 0 1
C_6748996035_7465456856_0 RECT_OPEN 1.0 1.5 0 0 1
C_9700303070_7465577044_0 RECT_OPEN 1.0 1.5 0 0 1
C_9700303070_3528034343_0 RECT_OPEN 1.0 1.5 0 0 1
C_3545987056_11003046329_0 RECT_OPEN 1.0 1.5 0 0 1
C_3545987056_11003034318_0 RECT_OPEN 1.0 1.5 0 0 1
C_3545987056_3545987055_0 RECT_OPEN 1.0 1.5 0 0 1
C_11003046329_3545987056_0 RECT_OPEN 1.0 1.5 0 0 1
C_11003034318_3545987056_0 RECT_OPEN 1.0 1.5 0 0 1
C_11003034318_7466375661_0 RECT_OPEN 1.0 1.5 0 0 1
C_11003034318_11003037132_0 RECT_OPEN 1.0 1.5 0 0 1
C_3649025375_3649025396_0 RECT_OPEN 1.0 1.5 0 0 1
C_3649025381_10266837398_0 RECT_OPEN 1.0 1.5 0 0 1
C_13655652480_5281842537_0 RECT_OPEN 1.0 1.5 0 0 1
C_13655652480_13655652478_0 RECT_OPEN 1.0 1.5 0 0 1
C_13655652480_3649025393_0 RECT_OPEN 1.0 1.5 0 0 1
C_3649031405_3649031394_0 RECT_OPEN 1.0 1.5 0 0 1
C_7147090917_3713858821_0 RECT_OPEN 1.0 1.5 0 0 1
C_7147090917_13720252591_0 RECT_OPEN 1.0 1.5 0 0 1
C_7147090917_7147090938_0 RECT_OPEN 1.0 1.5 0 0 1
C_13715446989_11934696264_0 RECT_OPEN 1.0 1.5 0 0 1
C_13715446989_7453315654_0 RECT_OPEN 1.0 1.5 0 0 1
C_13715446989_3713858821_0 RECT_OPEN 1.0 1.5 0 0 1
C_13064733100_13064736701_0 RECT_OPEN 1.0 1.5 0 0 1
C_13064733100_4204925699_0 RECT_OPEN 1.0 1.5 0 0 1
C_13064733100_4204925700_0 RECT_OPEN 1.0 1.5 0 0 1
C_4458722522_4458722721_0 RECT_OPEN 1.0 1.5 0 0 1
C_4458722522_4458722823_0 RECT_OPEN 1.0 1.5 0 0 1
C_4458722522_4458722559_0 RECT_OPEN 1.0 1.5 0 0 1
C_4458722721_4458722559_0 RECT_OPEN 1.0 1.5 0 0 1
C_4458722721_4458722522_0 RECT_OPEN 1.0 1.5 0 0 1
C_4458722721_4458722731_0 RECT_OPEN 1.0 1.5 0 0 1
C_4458722823_4458722824_0 RECT_OPEN 1.0 1.5 0 0 1
C_4458722823_4458722731_0 RECT_OPEN 1.0 1.5 0 0 1
C_4458722823_4458722522_0 RECT_OPEN 1.0 1.5 0 0 1
C_4458722559_4458722721_0 RECT_OPEN 1.0 1.5 0 0 1
C_4458722559_4458722522_0 RECT_OPEN 1.0 1.5 0 0 1
C_4458722559_13041584929_0 RECT_OPEN 1.0 1.5 0 0 1
C_4458722553_4458722615_0 RECT_OPEN 1.0 1.5 0 0 1
C_4458722553_7452673912_0 RECT_OPEN 1.0 1.5 0 0 1
C_4458722553_7453315599_0 RECT_OPEN 1.0 1.5 0 0 1
C_7452673912_4458722553_0 RECT_OPEN 1.0 1.5 0 0 1
C_7452673912_4458722572_0 RECT_OPEN 1.0 1.5 0 0 1
C_7452673912_7452673914_0 RECT_OPEN 1.0 1.5 0 0 1
C_7453315599_7453315600_0 RECT_OPEN 1.0 1.5 0 0 1
C_7453315599_7453315305_0 RECT_OPEN 1.0 1.5 0 0 1
C_7453315599_4458722553_0 RECT_OPEN 1.0 1.5 0 0 1
C_13041584929_10991357069_0 RECT_OPEN 1.0 1.5 0 0 1
C_13041584929_13041584928_0 RECT_OPEN 1.0 1.5 0 0 1
C_13041584929_4458722559_0 RECT_OPEN 1.0 1.5 0 0 1
C_7138383902_4458722596_0 RECT_OPEN 1.0 1.5 0 0 1
C_7138383902_7138383900_0 RECT_OPEN 1.0 1.5 0 0 1
C_7138383902_4458722643_0 RECT_OPEN 1.0 1.5 0 0 1
C_11419446866_11419446867_0 RECT_OPEN 1.0 1.5 0 0 1
C_11419446866_4458722596_0 RECT_OPEN 1.0 1.5 0 0 1
C_11419446866_7138383879_0 RECT_OPEN 1.0 1.5 0 0 1
C_11015153616_11015153617_0 RECT_OPEN 1.0 1.5 0 0 1
C_11015153616_4458722615_0 RECT_OPEN 1.0 1.5 0 0 1
C_11015153616_4458722633_0 RECT_OPEN 1.0 1.5 0 0 1
C_4458722622_4458722731_0 RECT_OPEN 1.0 1.5 0 0 1
C_4458722622_11007663483_0 RECT_OPEN 1.0 1.5 0 0 1
C_4458722622_4458722675_0 RECT_OPEN 1.0 1.5 0 0 1
C_4458722731_11812221683_0 RECT_OPEN 1.0 1.5 0 0 1
C_4458722731_4458722622_0 RECT_OPEN 1.0 1.5 0 0 1
C_4458722731_4458722823_0 RECT_OPEN 1.0 1.5 0 0 1
C_4458722731_4458722721_0 RECT_OPEN 1.0 1.5 0 0 1
C_11007663483_4458722824_0 RECT_OPEN 1.0 1.5 0 0 1
C_11007663483_4458722622_0 RECT_OPEN 1.0 1.5 0 0 1
C_11007663483_11007663477_0 RECT_OPEN 1.0 1.5 0 0 1
C_4458722675_11007663477_0 RECT_OPEN 1.0 1.5 0 0 1
C_4458722675_4458722757_0 RECT_OPEN 1.0 1.5 0 0 1
C_4458722675_4458722622_0 RECT_OPEN 1.0 1.5 0 0 1
C_4458722626_7453315580_0 RECT_OPEN 1.0 1.5 0 0 1
C_4458722626_7453315717_0 RECT_OPEN 1.0 1.5 0 0 1
C_4458722626_7453315577_0 RECT_OPEN 1.0 1.5 0 0 1
C_4458722626_12690216001_0 RECT_OPEN 1.0 1.5 0 0 1
C_7453315580_4458722626_0 RECT_OPEN 1.0 1.5 0 0 1
C_7453315717_4458722689_0 RECT_OPEN 1.0 1.5 0 0 1
C_7453315717_4458722626_0 RECT_OPEN 1.0 1.5 0 0 1
C_7453315717_7453315387_0 RECT_OPEN 1.0 1.5 0 0 1
C_7453315577_4458722626_0 RECT_OPEN 1.0 1.5 0 0 1
C_12690216001_4458722626_0 RECT_OPEN 1.0 1.5 0 0 1
C_12690216001_6194091030_0 RECT_OPEN 1.0 1.5 0 0 1
C_12690216001_12697947081_0 RECT_OPEN 1.0 1.5 0 0 1
C_4458722633_11015153616_0 RECT_OPEN 1.0 1.5 0 0 1
C_4458722633_10593463232_0 RECT_OPEN 1.0 1.5 0 0 1
C_4458722633_7263140430_0 RECT_OPEN 1.0 1.5 0 0 1
C_10593463232_10593463233_0 RECT_OPEN 1.0 1.5 0 0 1
C_10593463232_4458722633_0 RECT_OPEN 1.0 1.5 0 0 1
C_10593463232_10593463228_0 RECT_OPEN 1.0 1.5 0 0 1
C_7263140430_7452673901_0 RECT_OPEN 1.0 1.5 0 0 1
C_7263140430_7452673906_0 RECT_OPEN 1.0 1.5 0 0 1
C_7263140430_4458722633_0 RECT_OPEN 1.0 1.5 0 0 1
C_7138383899_7138383900_0 RECT_OPEN 1.0 1.5 0 0 1
C_7138383899_4458722643_0 RECT_OPEN 1.0 1.5 0 0 1
C_7138383899_7453315306_0 RECT_OPEN 1.0 1.5 0 0 1
C_11007663477_4458722675_0 RECT_OPEN 1.0 1.5 0 0 1
C_11007663477_4458722815_0 RECT_OPEN 1.0 1.5 0 0 1
C_11007663477_11007663483_0 RECT_OPEN 1.0 1.5 0 0 1
C_11812221683_6620856859_0 RECT_OPEN 1.0 1.5 0 0 1
C_11812221683_4458722731_0 RECT_OPEN 1.0 1.5 0 0 1
C_11812221683_11812221695_0 RECT_OPEN 1.0 1.5 0 0 1
C_4458722815_11007663477_0 RECT_OPEN 1.0 1.5 0 0 1
C_4458722815_4458722824_0 RECT_OPEN 1.0 1.5 0 0 1
C_4458722815_6141750279_0 RECT_OPEN 1.0 1.5 0 0 1
C_4458722824_11007663483_0 RECT_OPEN 1.0 1.5 0 0 1
C_4458722824_4458722815_0 RECT_OPEN 1.0 1.5 0 0 1
C_4458722824_4458722823_0 RECT_OPEN 1.0 1.5 0 0 1
C_6141750279_4458722815_0 RECT_OPEN 1.0 1.5 0 0 1
C_4730103806_4730103816_0 RECT_OPEN 1.0 1.5 0 0 1
C_4730103806_4730103812_0 RECT_OPEN 1.0 1.5 0 0 1
C_4730103806_9866129294_0 RECT_OPEN 1.0 1.5 0 0 1
C_4730103816_4730103806_0 RECT_OPEN 1.0 1.5 0 0 1
C_9866129294_4730103806_0 RECT_OPEN 1.0 1.5 0 0 1
C_5281691576_5281691577_0 RECT_OPEN 1.0 1.5 0 0 1
C_5281691577_5281842544_0 RECT_OPEN 1.0 1.5 0 0 1
C_5281691577_5281691576_0 RECT_OPEN 1.0 1.5 0 0 1
C_5281691577_13123179217_0 RECT_OPEN 1.0 1.5 0 0 1
C_5281842544_5281691577_0 RECT_OPEN 1.0 1.5 0 0 1
C_5281842544_5281691579_0 RECT_OPEN 1.0 1.5 0 0 1
C_5281842544_5281842542_0 RECT_OPEN 1.0 1.5 0 0 1
C_5281727083_7465614252_0 RECT_OPEN 1.0 1.5 0 0 1
C_5281727083_6152762851_0 RECT_OPEN 1.0 1.5 0 0 1
C_5281727083_5281727082_0 RECT_OPEN 1.0 1.5 0 0 1
C_7465614252_7465614250_0 RECT_OPEN 1.0 1.5 0 0 1
C_7465614252_7465614253_0 RECT_OPEN 1.0 1.5 0 0 1
C_7465614252_5281727083_0 RECT_OPEN 1.0 1.5 0 0 1
C_5281839990_5281839991_0 RECT_OPEN 1.0 1.5 0 0 1
C_5281840000_6902150001_0 RECT_OPEN 1.0 1.5 0 0 1
C_5281840000_6901280942_0 RECT_OPEN 1.0 1.5 0 0 1
C_6902150001_5281840000_0 RECT_OPEN 1.0 1.5 0 0 1
C_6902150001_5281840005_0 RECT_OPEN 1.0 1.5 0 0 1
C_11197334457_11197334456_0 RECT_OPEN 1.0 1.5 0 0 1
C_11197334457_10222738375_0 RECT_OPEN 1.0 1.5 0 0 1
C_5281840017_5281840018_0 RECT_OPEN 1.0 1.5 0 0 1
C_5281842521_5281840020_0 RECT_OPEN 1.0 1.5 0 0 1
C_5281842521_5281842523_0 RECT_OPEN 1.0 1.5 0 0 1
C_5281842521_13656305937_0 RECT_OPEN 1.0 1.5 0 0 1
C_6168910216_11021479822_0 RECT_OPEN 1.0 1.5 0 0 1
C_6168910216_7452673924_0 RECT_OPEN 1.0 1.5 0 0 1
C_6168910216_5281840020_0 RECT_OPEN 1.0 1.5 0 0 1
C_6168910216_5281842523_0 RECT_OPEN 1.0 1.5 0 0 1
C_5281842523_6168910216_0 RECT_OPEN 1.0 1.5 0 0 1
C_5281842523_11021479825_0 RECT_OPEN 1.0 1.5 0 0 1
C_5281842523_5281842521_0 RECT_OPEN 1.0 1.5 0 0 1
C_13656305937_11027638242_0 RECT_OPEN 1.0 1.5 0 0 1
C_13656305937_13656305932_0 RECT_OPEN 1.0 1.5 0 0 1
C_13656305937_5281842521_0 RECT_OPEN 1.0 1.5 0 0 1
C_5283547058_5281842526_0 RECT_OPEN 1.0 1.5 0 0 1
C_13667500182_5281842526_0 RECT_OPEN 1.0 1.5 0 0 1
C_5281842528_10991440018_0 RECT_OPEN 1.0 1.5 0 0 1
C_5281842531_5283343739_0 RECT_OPEN 1.0 1.5 0 0 1
C_5281842531_5283343737_0 RECT_OPEN 1.0 1.5 0 0 1
C_5281842531_13652990523_0 RECT_OPEN 1.0 1.5 0 0 1
C_5283343737_5283343736_0 RECT_OPEN 1.0 1.5 0 0 1
C_5283343737_5281842531_0 RECT_OPEN 1.0 1.5 0 0 1
C_5283343737_5281842533_0 RECT_OPEN 1.0 1.5 0 0 1
C_13652990523_5281842531_0 RECT_OPEN 1.0 1.5 0 0 1
C_5281842532_5281842533_0 RECT_OPEN 1.0 1.5 0 0 1
C_5281842534_5281842535_0 RECT_OPEN 1.0 1.5 0 0 1
C_5281842537_5281842536_0 RECT_OPEN 1.0 1.5 0 0 1
C_5281842537_13655652480_0 RECT_OPEN 1.0 1.5 0 0 1
C_5281842537_5281842535_0 RECT_OPEN 1.0 1.5 0 0 1
C_5281842536_5281842537_0 RECT_OPEN 1.0 1.5 0 0 1
C_5281842538_5281842539_0 RECT_OPEN 1.0 1.5 0 0 1
C_10991832380_13717751723_0 RECT_OPEN 1.0 1.5 0 0 1
C_10991832380_10760860021_0 RECT_OPEN 1.0 1.5 0 0 1
C_10991832380_5281842539_0 RECT_OPEN 1.0 1.5 0 0 1
C_5281842557_5281842558_0 RECT_OPEN 1.0 1.5 0 0 1
C_5281842559_5281842560_0 RECT_OPEN 1.0 1.5 0 0 1
C_5281842560_5281842562_0 RECT_OPEN 1.0 1.5 0 0 1
C_5281842560_5281842559_0 RECT_OPEN 1.0 1.5 0 0 1
C_5281842560_13811792564_0 RECT_OPEN 1.0 1.5 0 0 1
C_5281842561_5281842562_0 RECT_OPEN 1.0 1.5 0 0 1
C_5281842563_5281842564_0 RECT_OPEN 1.0 1.5 0 0 1
C_5281842564_10017481089_0 RECT_OPEN 1.0 1.5 0 0 1
C_5281842564_5281842563_0 RECT_OPEN 1.0 1.5 0 0 1
C_5281842564_9870086764_0 RECT_OPEN 1.0 1.5 0 0 1
C_5281842565_5281842566_0 RECT_OPEN 1.0 1.5 0 0 1
C_7101760800_7101760804_0 RECT_OPEN 1.0 1.5 0 0 1
C_7101760800_11135547223_0 RECT_OPEN 1.0 1.5 0 0 1
C_7101760800_5281842566_0 RECT_OPEN 1.0 1.5 0 0 1
C_5281842569_6911835051_0 RECT_OPEN 1.0 1.5 0 0 1
C_6911835051_1368117350_0 RECT_OPEN 1.0 1.5 0 0 1
C_6911835051_5281842569_0 RECT_OPEN 1.0 1.5 0 0 1
C_5281842571_6911835052_0 RECT_OPEN 1.0 1.5 0 0 1
C_6911835052_6911835051_0 RECT_OPEN 1.0 1.5 0 0 1
C_6911835052_5281842571_0 RECT_OPEN 1.0 1.5 0 0 1
C_5281842573_6911835053_0 RECT_OPEN 1.0 1.5 0 0 1
C_6911835053_6911835052_0 RECT_OPEN 1.0 1.5 0 0 1
C_6911835053_5281842573_0 RECT_OPEN 1.0 1.5 0 0 1
C_5281842574_5281842584_0 RECT_OPEN 1.0 1.5 0 0 1
C_5281842575_6911835054_0 RECT_OPEN 1.0 1.5 0 0 1
C_6911835054_6911835053_0 RECT_OPEN 1.0 1.5 0 0 1
C_6911835054_5281842575_0 RECT_OPEN 1.0 1.5 0 0 1
C_5283343736_5283343737_0 RECT_OPEN 1.0 1.5 0 0 1
C_11395872426_5283343739_0 RECT_OPEN 1.0 1.5 0 0 1
C_5283343744_11015173154_0 RECT_OPEN 1.0 1.5 0 0 1
C_5283343744_11436636897_0 RECT_OPEN 1.0 1.5 0 0 1
C_5283343744_5283343745_0 RECT_OPEN 1.0 1.5 0 0 1
C_11015173154_5283343744_0 RECT_OPEN 1.0 1.5 0 0 1
C_11436636897_11436636898_0 RECT_OPEN 1.0 1.5 0 0 1
C_11436636897_7138383900_0 RECT_OPEN 1.0 1.5 0 0 1
C_11436636897_5283343744_0 RECT_OPEN 1.0 1.5 0 0 1
C_5283343748_5283343749_0 RECT_OPEN 1.0 1.5 0 0 1
C_13127664189_5283343749_0 RECT_OPEN 1.0 1.5 0 0 1
C_13127664189_5283343751_0 RECT_OPEN 1.0 1.5 0 0 1
C_13127664189_13127664193_0 RECT_OPEN 1.0 1.5 0 0 1
C_5283343750_5283343751_0 RECT_OPEN 1.0 1.5 0 0 1
C_5283343751_5283343753_0 RECT_OPEN 1.0 1.5 0 0 1
C_5283343751_5283343750_0 RECT_OPEN 1.0 1.5 0 0 1
C_5283343751_13127664189_0 RECT_OPEN 1.0 1.5 0 0 1
C_5283343753_7453315624_0 RECT_OPEN 1.0 1.5 0 0 1
C_5283343753_5283343751_0 RECT_OPEN 1.0 1.5 0 0 1
C_5283343753_13667499252_0 RECT_OPEN 1.0 1.5 0 0 1
C_13667499252_5283343753_0 RECT_OPEN 1.0 1.5 0 0 1
C_10687414876_5283547059_0 RECT_OPEN 1.0 1.5 0 0 1
C_7147063884_5283547061_0 RECT_OPEN 1.0 1.5 0 0 1
C_7334211452_5485647354_0 RECT_OPEN 1.0 1.5 0 0 1
C_5928041457_10017481076_0 RECT_OPEN 1.0 1.5 0 0 1
C_5928041457_7466386861_0 RECT_OPEN 1.0 1.5 0 0 1
C_5928041457_12155167315_0 RECT_OPEN 1.0 1.5 0 0 1
C_10017481076_7466386860_0 RECT_OPEN 1.0 1.5 0 0 1
C_10017481076_5928041457_0 RECT_OPEN 1.0 1.5 0 0 1
C_10017481076_10017481077_0 RECT_OPEN 1.0 1.5 0 0 1
C_7466386861_5928041457_0 RECT_OPEN 1.0 1.5 0 0 1
C_12155167315_12155167316_0 RECT_OPEN 1.0 1.5 0 0 1
C_12155167315_5928041457_0 RECT_OPEN 1.0 1.5 0 0 1
C_12155167315_12155167311_0 RECT_OPEN 1.0 1.5 0 0 1
C_10038712736_10578097581_0 RECT_OPEN 1.0 1.5 0 0 1
C_10038712736_11003016445_0 RECT_OPEN 1.0 1.5 0 0 1
C_10038712736_5931305385_0 RECT_OPEN 1.0 1.5 0 0 1
C_5931305386_9867253967_0 RECT_OPEN 1.0 1.5 0 0 1
C_5931305386_12180012795_0 RECT_OPEN 1.0 1.5 0 0 1
C_5931305386_13130886315_0 RECT_OPEN 1.0 1.5 0 0 1
C_12180012795_5931305386_0 RECT_OPEN 1.0 1.5 0 0 1
C_6043189063_12196521966_0 RECT_OPEN 1.0 1.5 0 0 1
C_12196521966_12196521967_0 RECT_OPEN 1.0 1.5 0 0 1
C_12196521966_6043189067_0 RECT_OPEN 1.0 1.5 0 0 1
C_12196521966_6043189063_0 RECT_OPEN 1.0 1.5 0 0 1
C_6137413125_11363958154_0 RECT_OPEN 1.0 1.5 0 0 1
C_6137413125_11397801173_0 RECT_OPEN 1.0 1.5 0 0 1
C_6137413125_11021437035_0 RECT_OPEN 1.0 1.5 0 0 1
C_11363958154_6137413125_0 RECT_OPEN 1.0 1.5 0 0 1
C_11363958154_10820231133_0 RECT_OPEN 1.0 1.5 0 0 1
C_11363958154_6894243326_0 RECT_OPEN 1.0 1.5 0 0 1
C_11363958154_6894243328_0 RECT_OPEN 1.0 1.5 0 0 1
C_11397801173_6137413125_0 RECT_OPEN 1.0 1.5 0 0 1
C_7291167515_6142293179_0 RECT_OPEN 1.0 1.5 0 0 1
C_7291167515_7291167520_0 RECT_OPEN 1.0 1.5 0 0 1
C_7291167515_11045649360_0 RECT_OPEN 1.0 1.5 0 0 1
C_6142628590_6142628592_0 RECT_OPEN 1.0 1.5 0 0 1
C_6168910212_7452673924_0 RECT_OPEN 1.0 1.5 0 0 1
C_6168910212_6168910213_0 RECT_OPEN 1.0 1.5 0 0 1
C_6168910212_6168910213_1 RECT_OPEN 1.0 1.5 0 0 1
C_7452673924_6168910212_0 RECT_OPEN 1.0 1.5 0 0 1
C_7452673924_6168910216_0 RECT_OPEN 1.0 1.5 0 0 1
C_7452673924_11015778368_0 RECT_OPEN 1.0 1.5 0 0 1
C_6168910213_6168910212_0 RECT_OPEN 1.0 1.5 0 0 1
C_6168910213_6168910212_1 RECT_OPEN 1.0 1.5 0 0 1
C_6168910213_12185851902_0 RECT_OPEN 1.0 1.5 0 0 1
C_12185851902_6168910213_0 RECT_OPEN 1.0 1.5 0 0 1
C_11021479822_6168910216_0 RECT_OPEN 1.0 1.5 0 0 1
C_11021479822_6182692049_0 RECT_OPEN 1.0 1.5 0 0 1
C_11021479822_11021479825_0 RECT_OPEN 1.0 1.5 0 0 1
C_6177428349_6177428350_0 RECT_OPEN 1.0 1.5 0 0 1
C_9899714417_7453315583_0 RECT_OPEN 1.0 1.5 0 0 1
C_9899714417_6177428350_0 RECT_OPEN 1.0 1.5 0 0 1
C_9899714417_9899714418_0 RECT_OPEN 1.0 1.5 0 0 1
C_11021465194_6182547032_0 RECT_OPEN 1.0 1.5 0 0 1
C_11419448879_6182692049_0 RECT_OPEN 1.0 1.5 0 0 1
C_11419448879_11419448880_0 RECT_OPEN 1.0 1.5 0 0 1
C_11419448879_7452673921_0 RECT_OPEN 1.0 1.5 0 0 1
C_10185513621_6182817159_0 RECT_OPEN 1.0 1.5 0 0 1
C_10185513621_7291167499_0 RECT_OPEN 1.0 1.5 0 0 1
C_11015706619_6193957625_0 RECT_OPEN 1.0 1.5 0 0 1
C_13130422494_6193957625_0 RECT_OPEN 1.0 1.5 0 0 1
C_6194091030_12690216001_0 RECT_OPEN 1.0 1.5 0 0 1
C_6194091030_7452692540_0 RECT_OPEN 1.0 1.5 0 0 1
C_6194091030_7452692538_0 RECT_OPEN 1.0 1.5 0 0 1
C_7452692540_7452692541_0 RECT_OPEN 1.0 1.5 0 0 1
C_7452692540_9700074501_0 RECT_OPEN 1.0 1.5 0 0 1
C_7452692540_6194091030_0 RECT_OPEN 1.0 1.5 0 0 1
C_7452692538_7452692537_0 RECT_OPEN 1.0 1.5 0 0 1
C_7452692538_6194091030_0 RECT_OPEN 1.0 1.5 0 0 1
C_7452692538_6194091031_0 RECT_OPEN 1.0 1.5 0 0 1
C_6194238913_13130332397_0 RECT_OPEN 1.0 1.5 0 0 1
C_13130332397_6194238913_0 RECT_OPEN 1.0 1.5 0 0 1
C_13130332397_13127790410_0 RECT_OPEN 1.0 1.5 0 0 1
C_13130332397_13130332396_0 RECT_OPEN 1.0 1.5 0 0 1
C_6194238914_13127790412_0 RECT_OPEN 1.0 1.5 0 0 1
C_6194238914_13654038433_0 RECT_OPEN 1.0 1.5 0 0 1
C_6194238914_7147090948_0 RECT_OPEN 1.0 1.5 0 0 1
C_13127790412_13127790410_0 RECT_OPEN 1.0 1.5 0 0 1
C_13127790412_6194238914_0 RECT_OPEN 1.0 1.5 0 0 1
C_13127790412_13127790411_0 RECT_OPEN 1.0 1.5 0 0 1
C_7147090948_7453315651_0 RECT_OPEN 1.0 1.5 0 0 1
C_7147090948_6194238914_0 RECT_OPEN 1.0 1.5 0 0 1
C_7147090948_7147090939_0 RECT_OPEN 1.0 1.5 0 0 1
C_6617328935_12635196524_0 RECT_OPEN 1.0 1.5 0 0 1
C_6617328935_13076932658_0 RECT_OPEN 1.0 1.5 0 0 1
C_12635196524_6617328935_0 RECT_OPEN 1.0 1.5 0 0 1
C_12635196524_6620856876_0 RECT_OPEN 1.0 1.5 0 0 1
C_12635196524_12260767760_0 RECT_OPEN 1.0 1.5 0 0 1
C_13076932658_13076932657_0 RECT_OPEN 1.0 1.5 0 0 1
C_13076932658_13076932659_0 RECT_OPEN 1.0 1.5 0 0 1
C_13076932658_7465393525_0 RECT_OPEN 1.0 1.5 0 0 1
C_6617328955_11812221673_0 RECT_OPEN 1.0 1.5 0 0 1
C_6617328955_11007664986_0 RECT_OPEN 1.0 1.5 0 0 1
C_11812221673_13076932659_0 RECT_OPEN 1.0 1.5 0 0 1
C_11812221673_13076932657_0 RECT_OPEN 1.0 1.5 0 0 1
C_11007664986_11007664987_0 RECT_OPEN 1.0 1.5 0 0 1
C_11007664986_11812221689_0 RECT_OPEN 1.0 1.5 0 0 1
C_11007664986_6617328955_0 RECT_OPEN 1.0 1.5 0 0 1
C_6617329698_11009607007_0 RECT_OPEN 1.0 1.5 0 0 1
C_6617329698_6617329699_0 RECT_OPEN 1.0 1.5 0 0 1
C_6617329698_6617329692_0 RECT_OPEN 1.0 1.5 0 0 1
C_11009607007_6617329698_0 RECT_OPEN 1.0 1.5 0 0 1
C_6617329699_6617329698_0 RECT_OPEN 1.0 1.5 0 0 1
C_6617329732_11812221689_0 RECT_OPEN 1.0 1.5 0 0 1
C_6617329732_11812221684_0 RECT_OPEN 1.0 1.5 0 0 1
C_11812221689_11812221684_0 RECT_OPEN 1.0 1.5 0 0 1
C_11812221689_11007664986_0 RECT_OPEN 1.0 1.5 0 0 1
C_11812221684_12765390074_0 RECT_OPEN 1.0 1.5 0 0 1
C_6620856859_11812221683_0 RECT_OPEN 1.0 1.5 0 0 1
C_6620856859_11812221682_0 RECT_OPEN 1.0 1.5 0 0 1
C_11812221682_6617329732_0 RECT_OPEN 1.0 1.5 0 0 1
C_10221065294_10221065289_0 RECT_OPEN 1.0 1.5 0 0 1
C_10221065294_6632636571_0 RECT_OPEN 1.0 1.5 0 0 1
C_6632652201_10076263537_0 RECT_OPEN 1.0 1.5 0 0 1
C_10076263537_1198163774_0 RECT_OPEN 1.0 1.5 0 0 1
C_10076263537_1198163774_1 RECT_OPEN 1.0 1.5 0 0 1
C_6632652240_11041656612_0 RECT_OPEN 1.0 1.5 0 0 1
C_11041656612_10574674451_0 RECT_OPEN 1.0 1.5 0 0 1
C_11041656612_6901407760_0 RECT_OPEN 1.0 1.5 0 0 1
C_6746682761_6894486324_0 RECT_OPEN 1.0 1.5 0 0 1
C_6746682761_6746708992_0 RECT_OPEN 1.0 1.5 0 0 1
C_6894486324_6894486323_0 RECT_OPEN 1.0 1.5 0 0 1
C_6894486324_6894486323_1 RECT_OPEN 1.0 1.5 0 0 1
C_6746708992_6746682761_0 RECT_OPEN 1.0 1.5 0 0 1
C_6746708992_6746682761_1 RECT_OPEN 1.0 1.5 0 0 1
C_9700303071_6748996035_0 RECT_OPEN 1.0 1.5 0 0 1
C_6748996039_6748996042_0 RECT_OPEN 1.0 1.5 0 0 1
C_6748996039_6748996035_0 RECT_OPEN 1.0 1.5 0 0 1
C_6748996039_6748996040_0 RECT_OPEN 1.0 1.5 0 0 1
C_7465456856_6748996035_0 RECT_OPEN 1.0 1.5 0 0 1
C_6748996042_6748996039_0 RECT_OPEN 1.0 1.5 0 0 1
C_6748996042_6748996044_0 RECT_OPEN 1.0 1.5 0 0 1
C_6748996042_7465456851_0 RECT_OPEN 1.0 1.5 0 0 1
C_6748996040_7465456851_0 RECT_OPEN 1.0 1.5 0 0 1
C_6748996040_11409263307_0 RECT_OPEN 1.0 1.5 0 0 1
C_6748996040_6748996039_0 RECT_OPEN 1.0 1.5 0 0 1
C_7465456851_6748996040_0 RECT_OPEN 1.0 1.5 0 0 1
C_7465456851_7465456850_0 RECT_OPEN 1.0 1.5 0 0 1
C_7465456851_6748996042_0 RECT_OPEN 1.0 1.5 0 0 1
C_11409263307_11409172856_0 RECT_OPEN 1.0 1.5 0 0 1
C_11409263307_7465577043_0 RECT_OPEN 1.0 1.5 0 0 1
C_11409263307_6748996040_0 RECT_OPEN 1.0 1.5 0 0 1
C_6748996044_6748996043_0 RECT_OPEN 1.0 1.5 0 0 1
C_6748996044_6748996042_0 RECT_OPEN 1.0 1.5 0 0 1
C_6748996044_6748996075_0 RECT_OPEN 1.0 1.5 0 0 1
C_6748996043_6748996044_0 RECT_OPEN 1.0 1.5 0 0 1
C_6748996075_6748996044_0 RECT_OPEN 1.0 1.5 0 0 1
C_6748996075_6748996048_0 RECT_OPEN 1.0 1.5 0 0 1
C_6748996075_6748996045_0 RECT_OPEN 1.0 1.5 0 0 1
C_6748996045_6748996075_0 RECT_OPEN 1.0 1.5 0 0 1
C_6748996047_6748996048_0 RECT_OPEN 1.0 1.5 0 0 1
C_6748996049_11944239451_0 RECT_OPEN 1.0 1.5 0 0 1
C_6748996049_7465614139_0 RECT_OPEN 1.0 1.5 0 0 1
C_11944239451_11944239436_0 RECT_OPEN 1.0 1.5 0 0 1
C_11944239451_6748996049_0 RECT_OPEN 1.0 1.5 0 0 1
C_11944239451_6901280942_0 RECT_OPEN 1.0 1.5 0 0 1
C_7465614139_6748996049_0 RECT_OPEN 1.0 1.5 0 0 1
C_7465614139_11409171825_0 RECT_OPEN 1.0 1.5 0 0 1
C_7465614139_7465614144_0 RECT_OPEN 1.0 1.5 0 0 1
C_6749434106_12185986689_0 RECT_OPEN 1.0 1.5 0 0 1
C_6749434106_7453315392_0 RECT_OPEN 1.0 1.5 0 0 1
C_6749434106_7453315312_0 RECT_OPEN 1.0 1.5 0 0 1
C_6749434106_7452692536_0 RECT_OPEN 1.0 1.5 0 0 1
C_12185986689_6749434106_0 RECT_OPEN 1.0 1.5 0 0 1
C_7452692536_6749434106_0 RECT_OPEN 1.0 1.5 0 0 1
C_11438167760_6753110521_0 RECT_OPEN 1.0 1.5 0 0 1
C_11438167760_11438167761_0 RECT_OPEN 1.0 1.5 0 0 1
C_11438167760_11438144606_0 RECT_OPEN 1.0 1.5 0 0 1
C_6755551374_6755551377_0 RECT_OPEN 1.0 1.5 0 0 1
C_6755551377_11409293349_0 RECT_OPEN 1.0 1.5 0 0 1
C_6755551377_10687741979_0 RECT_OPEN 1.0 1.5 0 0 1
C_6755551377_6755551374_0 RECT_OPEN 1.0 1.5 0 0 1
C_11409293349_6755551377_0 RECT_OPEN 1.0 1.5 0 0 1
C_11409293349_11409341814_0 RECT_OPEN 1.0 1.5 0 0 1
C_11409293349_11409293348_0 RECT_OPEN 1.0 1.5 0 0 1
C_10687741979_10687741977_0 RECT_OPEN 1.0 1.5 0 0 1
C_10687741979_10687741978_0 RECT_OPEN 1.0 1.5 0 0 1
C_10687741979_6755551377_0 RECT_OPEN 1.0 1.5 0 0 1
C_6755551379_11409322630_0 RECT_OPEN 1.0 1.5 0 0 1
C_6755551379_9982048431_0 RECT_OPEN 1.0 1.5 0 0 1
C_6755551379_11409346234_0 RECT_OPEN 1.0 1.5 0 0 1
C_11409322630_11409327905_0 RECT_OPEN 1.0 1.5 0 0 1
C_11409322630_6755551379_0 RECT_OPEN 1.0 1.5 0 0 1
C_11409322630_11409322629_0 RECT_OPEN 1.0 1.5 0 0 1
C_11409346234_6755551379_0 RECT_OPEN 1.0 1.5 0 0 1
C_6758593404_6758593405_0 RECT_OPEN 1.0 1.5 0 0 1
C_6884970118_6884970119_0 RECT_OPEN 1.0 1.5 0 0 1
C_6884970118_11197334456_0 RECT_OPEN 1.0 1.5 0 0 1
C_6884970119_8935990994_0 RECT_OPEN 1.0 1.5 0 0 1
C_11197334456_11197334455_0 RECT_OPEN 1.0 1.5 0 0 1
C_11197334456_6884970119_0 RECT_OPEN 1.0 1.5 0 0 1
C_8935990994_12161557849_0 RECT_OPEN 1.0 1.5 0 0 1
C_8935990994_8935990993_0 RECT_OPEN 1.0 1.5 0 0 1
C_6894243326_11363958154_0 RECT_OPEN 1.0 1.5 0 0 1
C_6894243328_11363958154_0 RECT_OPEN 1.0 1.5 0 0 1
C_6901276162_6901276163_0 RECT_OPEN 1.0 1.5 0 0 1
C_11885820562_11885820563_0 RECT_OPEN 1.0 1.5 0 0 1
C_11885820562_1384732910_0 RECT_OPEN 1.0 1.5 0 0 1
C_6901363518_6901363517_0 RECT_OPEN 1.0 1.5 0 0 1
C_6901363518_6901363519_0 RECT_OPEN 1.0 1.5 0 0 1
C_6901363518_6901363516_0 RECT_OPEN 1.0 1.5 0 0 1
C_6901363517_6901363518_0 RECT_OPEN 1.0 1.5 0 0 1
C_6904168220_6904168225_0 RECT_OPEN 1.0 1.5 0 0 1
C_6904168225_7453315400_0 RECT_OPEN 1.0 1.5 0 0 1
C_6904168225_7453315398_0 RECT_OPEN 1.0 1.5 0 0 1
C_6904168225_6904168220_0 RECT_OPEN 1.0 1.5 0 0 1
C_7453315400_6904168225_0 RECT_OPEN 1.0 1.5 0 0 1
C_7453315400_7453315401_0 RECT_OPEN 1.0 1.5 0 0 1
C_7453315400_7138383911_0 RECT_OPEN 1.0 1.5 0 0 1
C_7097657283_7097657282_0 RECT_OPEN 1.0 1.5 0 0 1
C_7465393495_7097657282_0 RECT_OPEN 1.0 1.5 0 0 1
C_11027804587_11027804585_0 RECT_OPEN 1.0 1.5 0 0 1
C_11027804587_11027804588_0 RECT_OPEN 1.0 1.5 0 0 1
C_11027804587_7101732711_0 RECT_OPEN 1.0 1.5 0 0 1
C_7101732726_7101732724_0 RECT_OPEN 1.0 1.5 0 0 1
C_7101732730_7101732727_0 RECT_OPEN 1.0 1.5 0 0 1
C_7101732731_7298289306_0 RECT_OPEN 1.0 1.5 0 0 1
C_7101732731_7101732735_0 RECT_OPEN 1.0 1.5 0 0 1
C_7101732731_7101732727_0 RECT_OPEN 1.0 1.5 0 0 1
C_7298289306_7101732731_0 RECT_OPEN 1.0 1.5 0 0 1
C_7298289306_7298289308_0 RECT_OPEN 1.0 1.5 0 0 1
C_7298289306_7298289307_0 RECT_OPEN 1.0 1.5 0 0 1
C_7101732735_7101732731_0 RECT_OPEN 1.0 1.5 0 0 1
C_7101760804_14066684771_0 RECT_OPEN 1.0 1.5 0 0 1
C_7101760804_7101760800_0 RECT_OPEN 1.0 1.5 0 0 1
C_7101760804_14066684791_0 RECT_OPEN 1.0 1.5 0 0 1
C_14066684771_7101760804_0 RECT_OPEN 1.0 1.5 0 0 1
C_14066684791_7101760804_0 RECT_OPEN 1.0 1.5 0 0 1
C_7101760812_7101760810_0 RECT_OPEN 1.0 1.5 0 0 1
C_7101760813_7101760816_0 RECT_OPEN 1.0 1.5 0 0 1
C_7101760813_11002846646_0 RECT_OPEN 1.0 1.5 0 0 1
C_7101760813_11002801404_0 RECT_OPEN 1.0 1.5 0 0 1
C_7101760816_10038722876_0 RECT_OPEN 1.0 1.5 0 0 1
C_7101760816_7101760813_0 RECT_OPEN 1.0 1.5 0 0 1
C_7101760816_11002846647_0 RECT_OPEN 1.0 1.5 0 0 1
C_10038722876_7298289268_0 RECT_OPEN 1.0 1.5 0 0 1
C_10038722876_7101760816_0 RECT_OPEN 1.0 1.5 0 0 1
C_10038722876_14066685118_0 RECT_OPEN 1.0 1.5 0 0 1
C_7121386231_7121386221_0 RECT_OPEN 1.0 1.5 0 0 1
C_10719511590_7137902395_0 RECT_OPEN 1.0 1.5 0 0 1
C_7138383883_7138383898_0 RECT_OPEN 1.0 1.5 0 0 1
C_7138383883_7138383879_0 RECT_OPEN 1.0 1.5 0 0 1
C_7138383883_7453315631_0 RECT_OPEN 1.0 1.5 0 0 1
C_7138383898_7138383883_0 RECT_OPEN 1.0 1.5 0 0 1
C_7453315631_7138383883_0 RECT_OPEN 1.0 1.5 0 0 1
C_7138383900_7138383899_0 RECT_OPEN 1.0 1.5 0 0 1
C_7138383900_7138383902_0 RECT_OPEN 1.0 1.5 0 0 1
C_7138383900_11436636897_0 RECT_OPEN 1.0 1.5 0 0 1
C_7138383903_7138383906_0 RECT_OPEN 1.0 1.5 0 0 1
C_7138383906_7465614223_0 RECT_OPEN 1.0 1.5 0 0 1
C_7138383906_7138383911_0 RECT_OPEN 1.0 1.5 0 0 1
C_7138383906_7138383903_0 RECT_OPEN 1.0 1.5 0 0 1
C_7465614223_7465614228_0 RECT_OPEN 1.0 1.5 0 0 1
C_7465614223_7138383906_0 RECT_OPEN 1.0 1.5 0 0 1
C_7465614223_11002963424_0 RECT_OPEN 1.0 1.5 0 0 1
C_7138383911_7138383906_0 RECT_OPEN 1.0 1.5 0 0 1
C_7138383911_7453315400_0 RECT_OPEN 1.0 1.5 0 0 1
C_7138383911_13149044768_0 RECT_OPEN 1.0 1.5 0 0 1
C_13149044768_13149044767_0 RECT_OPEN 1.0 1.5 0 0 1
C_13149044768_7138383911_0 RECT_OPEN 1.0 1.5 0 0 1
C_13149044768_13149044766_0 RECT_OPEN 1.0 1.5 0 0 1
C_7138383912_7138383916_0 RECT_OPEN 1.0 1.5 0 0 1
C_7140718117_7140718119_0 RECT_OPEN 1.0 1.5 0 0 1
C_7298289230_13097684026_0 RECT_OPEN 1.0 1.5 0 0 1
C_7298289230_7298289193_0 RECT_OPEN 1.0 1.5 0 0 1
C_7298289230_7140718121_0 RECT_OPEN 1.0 1.5 0 0 1
C_7140718126_7140718128_0 RECT_OPEN 1.0 1.5 0 0 1
C_7140718128_7140718126_0 RECT_OPEN 1.0 1.5 0 0 1
C_7140718128_7140718132_0 RECT_OPEN 1.0 1.5 0 0 1
C_7140718128_7298289210_0 RECT_OPEN 1.0 1.5 0 0 1
C_7140718132_11397421981_0 RECT_OPEN 1.0 1.5 0 0 1
C_7140718132_7298289211_0 RECT_OPEN 1.0 1.5 0 0 1
C_7140718132_7140718128_0 RECT_OPEN 1.0 1.5 0 0 1
C_11397421981_7140718132_0 RECT_OPEN 1.0 1.5 0 0 1
C_7147042927_7147042929_0 RECT_OPEN 1.0 1.5 0 0 1
C_7147088707_7147088714_0 RECT_OPEN 1.0 1.5 0 0 1
C_7147090938_7147090939_0 RECT_OPEN 1.0 1.5 0 0 1
C_7147090938_7147090917_0 RECT_OPEN 1.0 1.5 0 0 1
C_7147090938_13720252591_0 RECT_OPEN 1.0 1.5 0 0 1
C_7147090939_7147090938_0 RECT_OPEN 1.0 1.5 0 0 1
C_7147090939_7453315650_0 RECT_OPEN 1.0 1.5 0 0 1
C_7147090939_7147090948_0 RECT_OPEN 1.0 1.5 0 0 1
C_7453315650_7147090939_0 RECT_OPEN 1.0 1.5 0 0 1
C_7453315651_7147090948_0 RECT_OPEN 1.0 1.5 0 0 1
C_7175594108_7175594106_0 RECT_OPEN 1.0 1.5 0 0 1
C_7175594108_12196464672_0 RECT_OPEN 1.0 1.5 0 0 1
C_7175594108_7175594101_0 RECT_OPEN 1.0 1.5 0 0 1
C_7291147464_7291147465_0 RECT_OPEN 1.0 1.5 0 0 1
C_7291147464_7175603121_0 RECT_OPEN 1.0 1.5 0 0 1
C_11397632762_11397632765_0 RECT_OPEN 1.0 1.5 0 0 1
C_11397632762_7175603121_0 RECT_OPEN 1.0 1.5 0 0 1
C_7175614341_7175614342_0 RECT_OPEN 1.0 1.5 0 0 1
C_7175614342_7175614341_0 RECT_OPEN 1.0 1.5 0 0 1
C_7175614342_11077269487_0 RECT_OPEN 1.0 1.5 0 0 1
C_7175614342_11397591498_0 RECT_OPEN 1.0 1.5 0 0 1
C_11397591498_7291167504_0 RECT_OPEN 1.0 1.5 0 0 1
C_11397591498_11397591499_0 RECT_OPEN 1.0 1.5 0 0 1
C_11397591498_7175614342_0 RECT_OPEN 1.0 1.5 0 0 1
C_7187815406_7298289291_0 RECT_OPEN 1.0 1.5 0 0 1
C_7187815406_10222690300_0 RECT_OPEN 1.0 1.5 0 0 1
C_7187815406_13607317196_0 RECT_OPEN 1.0 1.5 0 0 1
C_7298289291_7298289295_0 RECT_OPEN 1.0 1.5 0 0 1
C_7298289291_7187815406_0 RECT_OPEN 1.0 1.5 0 0 1
C_7298289291_7298289292_0 RECT_OPEN 1.0 1.5 0 0 1
C_10222690300_7187815406_0 RECT_OPEN 1.0 1.5 0 0 1
C_10222690300_12696050651_0 RECT_OPEN 1.0 1.5 0 0 1
C_7261406107_7261406108_0 RECT_OPEN 1.0 1.5 0 0 1
C_7263113741_7263113742_0 RECT_OPEN 1.0 1.5 0 0 1
C_7465393579_7465393578_0 RECT_OPEN 1.0 1.5 0 0 1
C_7465393579_12260767760_0 RECT_OPEN 1.0 1.5 0 0 1
C_7465393579_6617328935_0 RECT_OPEN 1.0 1.5 0 0 1
C_7263139538_7263139539_0 RECT_OPEN 1.0 1.5 0 0 1
C_7452673901_7452673897_0 RECT_OPEN 1.0 1.5 0 0 1
C_7452673901_7263140430_0 RECT_OPEN 1.0 1.5 0 0 1
C_7452673901_7452673900_0 RECT_OPEN 1.0 1.5 0 0 1
C_7452673906_7452673899_0 RECT_OPEN 1.0 1.5 0 0 1
C_7452673906_7263140430_0 RECT_OPEN 1.0 1.5 0 0 1
C_7452673906_7452673902_0 RECT_OPEN 1.0 1.5 0 0 1
C_7263140433_7452673908_0 RECT_OPEN 1.0 1.5 0 0 1
C_7452673908_7263140433_0 RECT_OPEN 1.0 1.5 0 0 1
C_7452673908_10991375325_0 RECT_OPEN 1.0 1.5 0 0 1
C_7452673908_7452673907_0 RECT_OPEN 1.0 1.5 0 0 1
C_7291147457_11397404814_0 RECT_OPEN 1.0 1.5 0 0 1
C_7291147457_12151901678_0 RECT_OPEN 1.0 1.5 0 0 1
C_7291147457_11045649359_0 RECT_OPEN 1.0 1.5 0 0 1
C_11045649359_7291147457_0 RECT_OPEN 1.0 1.5 0 0 1
C_11045649359_11397404813_0 RECT_OPEN 1.0 1.5 0 0 1
C_11045649359_12151901679_0 RECT_OPEN 1.0 1.5 0 0 1
C_7291147465_7291147464_0 RECT_OPEN 1.0 1.5 0 0 1
C_7291147483_11021478367_0 RECT_OPEN 1.0 1.5 0 0 1
C_7291147483_11021454465_0 RECT_OPEN 1.0 1.5 0 0 1
C_7291147483_11306557823_0 RECT_OPEN 1.0 1.5 0 0 1
C_11021454465_7291147483_0 RECT_OPEN 1.0 1.5 0 0 1
C_11021454465_11121286748_0 RECT_OPEN 1.0 1.5 0 0 1
C_11021454465_11021454466_0 RECT_OPEN 1.0 1.5 0 0 1
C_11306557823_7291147483_0 RECT_OPEN 1.0 1.5 0 0 1
C_7291167499_7291167500_0 RECT_OPEN 1.0 1.5 0 0 1
C_7291167499_10185513621_0 RECT_OPEN 1.0 1.5 0 0 1
C_7291167499_7298295682_0 RECT_OPEN 1.0 1.5 0 0 1
C_7291167500_7291167499_0 RECT_OPEN 1.0 1.5 0 0 1
C_7291167504_11397591498_0 RECT_OPEN 1.0 1.5 0 0 1
C_7291167504_11397591500_0 RECT_OPEN 1.0 1.5 0 0 1
C_11397591500_7291167504_0 RECT_OPEN 1.0 1.5 0 0 1
C_7291167511_11176392352_0 RECT_OPEN 1.0 1.5 0 0 1
C_11176392352_7291167511_0 RECT_OPEN 1.0 1.5 0 0 1
C_11176392352_11397593732_0 RECT_OPEN 1.0 1.5 0 0 1
C_11176392352_11397593720_0 RECT_OPEN 1.0 1.5 0 0 1
C_7291167520_7291167515_0 RECT_OPEN 1.0 1.5 0 0 1
C_11045649360_11045649364_0 RECT_OPEN 1.0 1.5 0 0 1
C_11045649360_11045649363_0 RECT_OPEN 1.0 1.5 0 0 1
C_11045649360_7291167515_0 RECT_OPEN 1.0 1.5 0 0 1
C_10991796882_7291167555_0 RECT_OPEN 1.0 1.5 0 0 1
C_7291167617_7291167618_0 RECT_OPEN 1.0 1.5 0 0 1
C_7291167619_7291167618_0 RECT_OPEN 1.0 1.5 0 0 1
C_7298268882_7298268883_0 RECT_OPEN 1.0 1.5 0 0 1
C_7298289193_11397486839_0 RECT_OPEN 1.0 1.5 0 0 1
C_7298289193_7298289198_0 RECT_OPEN 1.0 1.5 0 0 1
C_7298289193_7298289230_0 RECT_OPEN 1.0 1.5 0 0 1
C_11397486839_7298289193_0 RECT_OPEN 1.0 1.5 0 0 1
C_7298289198_7298289236_0 RECT_OPEN 1.0 1.5 0 0 1
C_7298289198_7298289210_0 RECT_OPEN 1.0 1.5 0 0 1
C_7298289198_7298289193_0 RECT_OPEN 1.0 1.5 0 0 1
C_7298289212_7298289211_0 RECT_OPEN 1.0 1.5 0 0 1
C_7298289223_7298289213_0 RECT_OPEN 1.0 1.5 0 0 1
C_7298289226_7298289227_0 RECT_OPEN 1.0 1.5 0 0 1
C_13097684026_7298289230_0 RECT_OPEN 1.0 1.5 0 0 1
C_7298289241_7298289236_0 RECT_OPEN 1.0 1.5 0 0 1
C_7298289246_7298289244_0 RECT_OPEN 1.0 1.5 0 0 1
C_7298289248_7298289263_0 RECT_OPEN 1.0 1.5 0 0 1
C_7298289316_7298289263_0 RECT_OPEN 1.0 1.5 0 0 1
C_14066685083_7298289268_0 RECT_OPEN 1.0 1.5 0 0 1
C_7298289269_7298289272_0 RECT_OPEN 1.0 1.5 0 0 1
C_7298289295_7298289294_0 RECT_OPEN 1.0 1.5 0 0 1
C_7298289295_7298289291_0 RECT_OPEN 1.0 1.5 0 0 1
C_7298289295_7298289296_0 RECT_OPEN 1.0 1.5 0 0 1
C_7298289292_7298289291_0 RECT_OPEN 1.0 1.5 0 0 1
C_7298289293_7298289294_0 RECT_OPEN 1.0 1.5 0 0 1
C_7298289294_11802465263_0 RECT_OPEN 1.0 1.5 0 0 1
C_7298289294_7298289295_0 RECT_OPEN 1.0 1.5 0 0 1
C_7298289294_7298289293_0 RECT_OPEN 1.0 1.5 0 0 1
C_11802465263_7298289294_0 RECT_OPEN 1.0 1.5 0 0 1
C_7298289296_7298289295_0 RECT_OPEN 1.0 1.5 0 0 1
C_13830106205_13830106203_0 RECT_OPEN 1.0 1.5 0 0 1
C_13830106205_7298289304_0 RECT_OPEN 1.0 1.5 0 0 1
C_13830106205_13830106206_0 RECT_OPEN 1.0 1.5 0 0 1
C_7298289307_7298289306_0 RECT_OPEN 1.0 1.5 0 0 1
C_7298289309_7298289308_0 RECT_OPEN 1.0 1.5 0 0 1
C_7298289314_7298289310_0 RECT_OPEN 1.0 1.5 0 0 1
C_10284858574_10284858578_0 RECT_OPEN 1.0 1.5 0 0 1
C_10284858574_10738521350_0 RECT_OPEN 1.0 1.5 0 0 1
C_7298295674_11025384531_0 RECT_OPEN 1.0 1.5 0 0 1
C_7298295674_13535853200_0 RECT_OPEN 1.0 1.5 0 0 1
C_7298295674_9866129292_0 RECT_OPEN 1.0 1.5 0 0 1
C_11025384531_10168889544_0 RECT_OPEN 1.0 1.5 0 0 1
C_11025384531_7298295674_0 RECT_OPEN 1.0 1.5 0 0 1
C_11025384531_11025384532_0 RECT_OPEN 1.0 1.5 0 0 1
C_13535853200_13535865211_0 RECT_OPEN 1.0 1.5 0 0 1
C_13535853200_13535865211_1 RECT_OPEN 1.0 1.5 0 0 1
C_13535853200_7298295674_0 RECT_OPEN 1.0 1.5 0 0 1
C_9866129292_9866129293_0 RECT_OPEN 1.0 1.5 0 0 1
C_9866129292_12918665449_0 RECT_OPEN 1.0 1.5 0 0 1
C_9866129292_7298295674_0 RECT_OPEN 1.0 1.5 0 0 1
C_7298295675_10168889545_0 RECT_OPEN 1.0 1.5 0 0 1
C_10168889545_7298295675_0 RECT_OPEN 1.0 1.5 0 0 1
C_10168889545_10168889544_0 RECT_OPEN 1.0 1.5 0 0 1
C_10168889545_10038800927_0 RECT_OPEN 1.0 1.5 0 0 1
C_10168889545_10038800926_0 RECT_OPEN 1.0 1.5 0 0 1
C_7298295681_7298295682_0 RECT_OPEN 1.0 1.5 0 0 1
C_7452673897_10991375325_0 RECT_OPEN 1.0 1.5 0 0 1
C_7452673897_7452673901_0 RECT_OPEN 1.0 1.5 0 0 1
C_7452673897_7452673898_0 RECT_OPEN 1.0 1.5 0 0 1
C_10991375325_7452673908_0 RECT_OPEN 1.0 1.5 0 0 1
C_10991375325_7452673897_0 RECT_OPEN 1.0 1.5 0 0 1
C_10991375325_10991375326_0 RECT_OPEN 1.0 1.5 0 0 1
C_7452673898_7452673897_0 RECT_OPEN 1.0 1.5 0 0 1
C_7452673899_7452673906_0 RECT_OPEN 1.0 1.5 0 0 1
C_7452673900_7452673901_0 RECT_OPEN 1.0 1.5 0 0 1
C_7452673902_7452673906_0 RECT_OPEN 1.0 1.5 0 0 1
C_7452673907_7452673908_0 RECT_OPEN 1.0 1.5 0 0 1
C_11021488560_7452673911_0 RECT_OPEN 1.0 1.5 0 0 1
C_11021488560_13127664187_0 RECT_OPEN 1.0 1.5 0 0 1
C_11021488560_11021488561_0 RECT_OPEN 1.0 1.5 0 0 1
C_11021488560_11021488563_0 RECT_OPEN 1.0 1.5 0 0 1
C_7452673914_7452673915_0 RECT_OPEN 1.0 1.5 0 0 1
C_7452673914_7452673912_0 RECT_OPEN 1.0 1.5 0 0 1
C_7452673914_7453315600_0 RECT_OPEN 1.0 1.5 0 0 1
C_7452673915_7452673914_0 RECT_OPEN 1.0 1.5 0 0 1
C_7452673915_7453315600_0 RECT_OPEN 1.0 1.5 0 0 1
C_7452673915_11175924867_0 RECT_OPEN 1.0 1.5 0 0 1
C_7453315600_7453315599_0 RECT_OPEN 1.0 1.5 0 0 1
C_7453315600_7452673915_0 RECT_OPEN 1.0 1.5 0 0 1
C_7453315600_7452673914_0 RECT_OPEN 1.0 1.5 0 0 1
C_11175924867_7452673915_0 RECT_OPEN 1.0 1.5 0 0 1
C_7452673916_7452673919_0 RECT_OPEN 1.0 1.5 0 0 1
C_11021648177_7452673917_0 RECT_OPEN 1.0 1.5 0 0 1
C_7452673920_7452673921_0 RECT_OPEN 1.0 1.5 0 0 1
C_7452673921_7452673920_0 RECT_OPEN 1.0 1.5 0 0 1
C_7452673921_7453315301_0 RECT_OPEN 1.0 1.5 0 0 1
C_7452673921_11419448879_0 RECT_OPEN 1.0 1.5 0 0 1
C_7453315301_7453315302_0 RECT_OPEN 1.0 1.5 0 0 1
C_7453315301_7452673921_0 RECT_OPEN 1.0 1.5 0 0 1
C_7453315301_12598616677_0 RECT_OPEN 1.0 1.5 0 0 1
C_11015778368_7452673924_0 RECT_OPEN 1.0 1.5 0 0 1
C_7452692537_7452692538_0 RECT_OPEN 1.0 1.5 0 0 1
C_7452692541_11015166119_0 RECT_OPEN 1.0 1.5 0 0 1
C_7452692541_7452692540_0 RECT_OPEN 1.0 1.5 0 0 1
C_7452692541_7453315636_0 RECT_OPEN 1.0 1.5 0 0 1
C_9700074501_7452692549_0 RECT_OPEN 1.0 1.5 0 0 1
C_9700074501_7452692544_0 RECT_OPEN 1.0 1.5 0 0 1
C_9700074501_7452692540_0 RECT_OPEN 1.0 1.5 0 0 1
C_11015166119_7452692541_0 RECT_OPEN 1.0 1.5 0 0 1
C_11015166119_11015166118_0 RECT_OPEN 1.0 1.5 0 0 1
C_11015166119_7452692543_0 RECT_OPEN 1.0 1.5 0 0 1
C_7453315636_7452692541_0 RECT_OPEN 1.0 1.5 0 0 1
C_12697947081_12690216001_0 RECT_OPEN 1.0 1.5 0 0 1
C_12697947081_7452692544_0 RECT_OPEN 1.0 1.5 0 0 1
C_12697947081_12697947084_0 RECT_OPEN 1.0 1.5 0 0 1
C_7452712420_9990058602_0 RECT_OPEN 1.0 1.5 0 0 1
C_9990058602_7452712421_0 RECT_OPEN 1.0 1.5 0 0 1
C_9990058602_7452712420_0 RECT_OPEN 1.0 1.5 0 0 1
C_9990058602_9990058603_0 RECT_OPEN 1.0 1.5 0 0 1
C_9700074486_7452712421_0 RECT_OPEN 1.0 1.5 0 0 1
C_7453315302_7453315301_0 RECT_OPEN 1.0 1.5 0 0 1
C_7453315305_7453315599_0 RECT_OPEN 1.0 1.5 0 0 1
C_7453315307_7453315306_0 RECT_OPEN 1.0 1.5 0 0 1
C_7453315313_7453315312_0 RECT_OPEN 1.0 1.5 0 0 1
C_7453315387_7453315388_0 RECT_OPEN 1.0 1.5 0 0 1
C_7453315387_7453315717_0 RECT_OPEN 1.0 1.5 0 0 1
C_7453315387_7453315390_0 RECT_OPEN 1.0 1.5 0 0 1
C_7453315388_7453315387_0 RECT_OPEN 1.0 1.5 0 0 1
C_7453315391_7453315390_0 RECT_OPEN 1.0 1.5 0 0 1
C_7453315393_7453315392_0 RECT_OPEN 1.0 1.5 0 0 1
C_7453315399_7453315398_0 RECT_OPEN 1.0 1.5 0 0 1
C_7453315401_7453315400_0 RECT_OPEN 1.0 1.5 0 0 1
C_7453315432_7453315632_0 RECT_OPEN 1.0 1.5 0 0 1
C_7453315581_12604472593_0 RECT_OPEN 1.0 1.5 0 0 1
C_7453315581_7453315582_0 RECT_OPEN 1.0 1.5 0 0 1
C_7453315581_7453315583_0 RECT_OPEN 1.0 1.5 0 0 1
C_7453315582_7453315581_0 RECT_OPEN 1.0 1.5 0 0 1
C_7453315583_9899714417_0 RECT_OPEN 1.0 1.5 0 0 1
C_7453315583_7453315584_0 RECT_OPEN 1.0 1.5 0 0 1
C_7453315583_7453315581_0 RECT_OPEN 1.0 1.5 0 0 1
C_7453315584_7453315583_0 RECT_OPEN 1.0 1.5 0 0 1
C_7453315735_7453315612_0 RECT_OPEN 1.0 1.5 0 0 1
C_7453315613_13654030352_0 RECT_OPEN 1.0 1.5 0 0 1
C_7453315618_7453315614_0 RECT_OPEN 1.0 1.5 0 0 1
C_7453315622_13127664187_0 RECT_OPEN 1.0 1.5 0 0 1
C_13127664187_11021488560_0 RECT_OPEN 1.0 1.5 0 0 1
C_13127664187_13127664188_0 RECT_OPEN 1.0 1.5 0 0 1
C_13127664187_7453315622_0 RECT_OPEN 1.0 1.5 0 0 1
C_7453315627_7453315624_0 RECT_OPEN 1.0 1.5 0 0 1
C_7453315654_7453315652_0 RECT_OPEN 1.0 1.5 0 0 1
C_7453315654_7453315655_0 RECT_OPEN 1.0 1.5 0 0 1
C_7453315654_13715446989_0 RECT_OPEN 1.0 1.5 0 0 1
C_7453315653_7453315652_0 RECT_OPEN 1.0 1.5 0 0 1
C_7453315655_7453315654_0 RECT_OPEN 1.0 1.5 0 0 1
C_7453315731_13667500433_0 RECT_OPEN 1.0 1.5 0 0 1
C_7465393488_7465393489_0 RECT_OPEN 1.0 1.5 0 0 1
C_7465393498_7465393504_0 RECT_OPEN 1.0 1.5 0 0 1
C_7465393505_10991357069_0 RECT_OPEN 1.0 1.5 0 0 1
C_7465393505_7465393516_0 RECT_OPEN 1.0 1.5 0 0 1
C_7465393505_13645830505_0 RECT_OPEN 1.0 1.5 0 0 1
C_10991357069_13041584929_0 RECT_OPEN 1.0 1.5 0 0 1
C_10991357069_7465393505_0 RECT_OPEN 1.0 1.5 0 0 1
C_10991357069_10991357070_0 RECT_OPEN 1.0 1.5 0 0 1
C_7465393516_7465393505_0 RECT_OPEN 1.0 1.5 0 0 1
C_13645830505_7465393505_0 RECT_OPEN 1.0 1.5 0 0 1
C_7465393525_10593463228_0 RECT_OPEN 1.0 1.5 0 0 1
C_7465393525_13076932658_0 RECT_OPEN 1.0 1.5 0 0 1
C_7465393525_7465393527_0 RECT_OPEN 1.0 1.5 0 0 1
C_10593463228_10593463229_0 RECT_OPEN 1.0 1.5 0 0 1
C_10593463228_10593463232_0 RECT_OPEN 1.0 1.5 0 0 1
C_10593463228_7465393525_0 RECT_OPEN 1.0 1.5 0 0 1
C_7465393527_13645830516_0 RECT_OPEN 1.0 1.5 0 0 1
C_7465393527_7465393525_0 RECT_OPEN 1.0 1.5 0 0 1
C_7465393527_13645830527_0 RECT_OPEN 1.0 1.5 0 0 1
C_13645830516_7465393527_0 RECT_OPEN 1.0 1.5 0 0 1
C_13645830527_13645830526_0 RECT_OPEN 1.0 1.5 0 0 1
C_13645830527_13645830523_0 RECT_OPEN 1.0 1.5 0 0 1
C_13645830527_7465393527_0 RECT_OPEN 1.0 1.5 0 0 1
C_7465393572_7465393573_0 RECT_OPEN 1.0 1.5 0 0 1
C_7465393578_7465393579_0 RECT_OPEN 1.0 1.5 0 0 1
C_12260767760_7465393579_0 RECT_OPEN 1.0 1.5 0 0 1
C_12260767760_7263113742_0 RECT_OPEN 1.0 1.5 0 0 1
C_7465449546_7465449555_0 RECT_OPEN 1.0 1.5 0 0 1
C_7465449546_13152322515_0 RECT_OPEN 1.0 1.5 0 0 1
C_7465449546_11438132731_0 RECT_OPEN 1.0 1.5 0 0 1
C_7465449555_11438132728_0 RECT_OPEN 1.0 1.5 0 0 1
C_7465449555_7465449546_0 RECT_OPEN 1.0 1.5 0 0 1
C_7465449555_7465449554_0 RECT_OPEN 1.0 1.5 0 0 1
C_11438132731_7465449546_0 RECT_OPEN 1.0 1.5 0 0 1
C_11438132731_11438132732_0 RECT_OPEN 1.0 1.5 0 0 1
C_11438132731_13152322515_0 RECT_OPEN 1.0 1.5 0 0 1
C_7465449547_7465449558_0 RECT_OPEN 1.0 1.5 0 0 1
C_7465449558_7465449547_0 RECT_OPEN 1.0 1.5 0 0 1
C_7465449558_11438132728_0 RECT_OPEN 1.0 1.5 0 0 1
C_7465449558_7465449559_0 RECT_OPEN 1.0 1.5 0 0 1
C_7465449554_7465449555_0 RECT_OPEN 1.0 1.5 0 0 1
C_11438132728_7465449558_0 RECT_OPEN 1.0 1.5 0 0 1
C_11438132728_7465449555_0 RECT_OPEN 1.0 1.5 0 0 1
C_11438132728_11438132729_0 RECT_OPEN 1.0 1.5 0 0 1
C_7465449556_7465449557_0 RECT_OPEN 1.0 1.5 0 0 1
C_7465449559_7465449561_0 RECT_OPEN 1.0 1.5 0 0 1
C_7465449559_7465449558_0 RECT_OPEN 1.0 1.5 0 0 1
C_7465449559_7465449557_0 RECT_OPEN 1.0 1.5 0 0 1
C_7465449560_7465449561_0 RECT_OPEN 1.0 1.5 0 0 1
C_7465449564_7465449565_0 RECT_OPEN 1.0 1.5 0 0 1
C_7465449567_7465449568_0 RECT_OPEN 1.0 1.5 0 0 1
C_7465449567_7465449566_0 RECT_OPEN 1.0 1.5 0 0 1
C_7465449567_7465449565_0 RECT_OPEN 1.0 1.5 0 0 1
C_7465449567_13152307781_0 RECT_OPEN 1.0 1.5 0 0 1
C_7465449568_7465449567_0 RECT_OPEN 1.0 1.5 0 0 1
C_13152307781_13152307780_0 RECT_OPEN 1.0 1.5 0 0 1
C_13152307781_7465449567_0 RECT_OPEN 1.0 1.5 0 0 1
C_7465449582_7465449583_0 RECT_OPEN 1.0 1.5 0 0 1
C_7465449583_7465449582_0 RECT_OPEN 1.0 1.5 0 0 1
C_7465449583_7465456785_0 RECT_OPEN 1.0 1.5 0 0 1
C_7465449583_11438144606_0 RECT_OPEN 1.0 1.5 0 0 1
C_7465456785_7465449584_0 RECT_OPEN 1.0 1.5 0 0 1
C_7465456785_7465449583_0 RECT_OPEN 1.0 1.5 0 0 1
C_7465456785_13152302110_0 RECT_OPEN 1.0 1.5 0 0 1
C_11438144606_7465449583_0 RECT_OPEN 1.0 1.5 0 0 1
C_11438144606_11438144607_0 RECT_OPEN 1.0 1.5 0 0 1
C_11438144606_11438167760_0 RECT_OPEN 1.0 1.5 0 0 1
C_7465449584_7465456785_0 RECT_OPEN 1.0 1.5 0 0 1
C_13152302110_11001362539_0 RECT_OPEN 1.0 1.5 0 0 1
C_13152302110_7465456785_0 RECT_OPEN 1.0 1.5 0 0 1
C_13152302110_13152302109_0 RECT_OPEN 1.0 1.5 0 0 1
C_7465456788_7465456797_0 RECT_OPEN 1.0 1.5 0 0 1
C_7465456798_11438298620_0 RECT_OPEN 1.0 1.5 0 0 1
C_7465456803_7465456804_0 RECT_OPEN 1.0 1.5 0 0 1
C_11021578456_7465456804_0 RECT_OPEN 1.0 1.5 0 0 1
C_11021578456_7465456806_0 RECT_OPEN 1.0 1.5 0 0 1
C_11021578456_11409461237_0 RECT_OPEN 1.0 1.5 0 0 1
C_7465456806_11021578456_0 RECT_OPEN 1.0 1.5 0 0 1
C_7465456810_11409454649_0 RECT_OPEN 1.0 1.5 0 0 1
C_11409454649_11846741326_0 RECT_OPEN 1.0 1.5 0 0 1
C_11409454649_9982048431_0 RECT_OPEN 1.0 1.5 0 0 1
C_11409454649_7465456810_0 RECT_OPEN 1.0 1.5 0 0 1
C_9700303072_7465456816_0 RECT_OPEN 1.0 1.5 0 0 1
C_7465456817_7465456821_0 RECT_OPEN 1.0 1.5 0 0 1
C_11021569037_7465456821_0 RECT_OPEN 1.0 1.5 0 0 1
C_11021569037_11021569038_0 RECT_OPEN 1.0 1.5 0 0 1
C_11021569037_11409461237_0 RECT_OPEN 1.0 1.5 0 0 1
C_10687741966_7465456827_0 RECT_OPEN 1.0 1.5 0 0 1
C_10687741966_9880569588_0 RECT_OPEN 1.0 1.5 0 0 1
C_10687741966_10687741969_0 RECT_OPEN 1.0 1.5 0 0 1
C_7465456830_7465456831_0 RECT_OPEN 1.0 1.5 0 0 1
C_7465456831_7465456830_0 RECT_OPEN 1.0 1.5 0 0 1
C_7465456831_9982048425_0 RECT_OPEN 1.0 1.5 0 0 1
C_7465456839_7465456843_0 RECT_OPEN 1.0 1.5 0 0 1
C_7465456850_7465456851_0 RECT_OPEN 1.0 1.5 0 0 1
C_7465577040_7465577041_0 RECT_OPEN 1.0 1.5 0 0 1
C_7465577041_11409159131_0 RECT_OPEN 1.0 1.5 0 0 1
C_7465577041_7465577043_0 RECT_OPEN 1.0 1.5 0 0 1
C_7465577041_7465577040_0 RECT_OPEN 1.0 1.5 0 0 1
C_11409159131_11409171825_0 RECT_OPEN 1.0 1.5 0 0 1
C_11409159131_7465577041_0 RECT_OPEN 1.0 1.5 0 0 1
C_11409159131_11409159132_0 RECT_OPEN 1.0 1.5 0 0 1
C_7465577043_7465577041_0 RECT_OPEN 1.0 1.5 0 0 1
C_7465577043_11409172855_0 RECT_OPEN 1.0 1.5 0 0 1
C_7465577043_11409263307_0 RECT_OPEN 1.0 1.5 0 0 1
C_7465577042_11409263303_0 RECT_OPEN 1.0 1.5 0 0 1
C_11409263303_11409172855_0 RECT_OPEN 1.0 1.5 0 0 1
C_11409263303_7465577042_0 RECT_OPEN 1.0 1.5 0 0 1
C_11409263303_11409172856_0 RECT_OPEN 1.0 1.5 0 0 1
C_11409172855_7465577043_0 RECT_OPEN 1.0 1.5 0 0 1
C_11409172855_11409263303_0 RECT_OPEN 1.0 1.5 0 0 1
C_11409172855_11409172856_0 RECT_OPEN 1.0 1.5 0 0 1
C_7465577044_9700303070_0 RECT_OPEN 1.0 1.5 0 0 1
C_7465577044_7465577051_0 RECT_OPEN 1.0 1.5 0 0 1
C_7465577051_7465577044_0 RECT_OPEN 1.0 1.5 0 0 1
C_7465614134_7465614144_0 RECT_OPEN 1.0 1.5 0 0 1
C_7465614144_7465614146_0 RECT_OPEN 1.0 1.5 0 0 1
C_7465614144_7465614139_0 RECT_OPEN 1.0 1.5 0 0 1
C_7465614144_7465614134_0 RECT_OPEN 1.0 1.5 0 0 1
C_11409171825_11409159131_0 RECT_OPEN 1.0 1.5 0 0 1
C_11409171825_11409171826_0 RECT_OPEN 1.0 1.5 0 0 1
C_11409171825_7465614139_0 RECT_OPEN 1.0 1.5 0 0 1
C_7465614140_7465614146_0 RECT_OPEN 1.0 1.5 0 0 1
C_7465614146_7465614144_0 RECT_OPEN 1.0 1.5 0 0 1
C_7465614146_7465614145_0 RECT_OPEN 1.0 1.5 0 0 1
C_7465614146_7465614140_0 RECT_OPEN 1.0 1.5 0 0 1
C_7465614145_7465614146_0 RECT_OPEN 1.0 1.5 0 0 1
C_7465614228_7465614223_0 RECT_OPEN 1.0 1.5 0 0 1
C_7465614228_7465614227_0 RECT_OPEN 1.0 1.5 0 0 1
C_11002963424_7465614223_0 RECT_OPEN 1.0 1.5 0 0 1
C_7465614227_7465614228_0 RECT_OPEN 1.0 1.5 0 0 1
C_9700074465_7465614235_0 RECT_OPEN 1.0 1.5 0 0 1
C_7465614241_7465614245_0 RECT_OPEN 1.0 1.5 0 0 1
C_7465614245_7465614246_0 RECT_OPEN 1.0 1.5 0 0 1
C_7465614245_7465614241_0 RECT_OPEN 1.0 1.5 0 0 1
C_7465614245_11009508675_0 RECT_OPEN 1.0 1.5 0 0 1
C_7465614250_7465614249_0 RECT_OPEN 1.0 1.5 0 0 1
C_7465614250_7465614252_0 RECT_OPEN 1.0 1.5 0 0 1
C_7465614250_7465614251_0 RECT_OPEN 1.0 1.5 0 0 1
C_7465646171_7465646179_0 RECT_OPEN 1.0 1.5 0 0 1
C_7465646172_7465646173_0 RECT_OPEN 1.0 1.5 0 0 1
C_7465646173_7465646172_0 RECT_OPEN 1.0 1.5 0 0 1
C_7465646173_9880569589_0 RECT_OPEN 1.0 1.5 0 0 1
C_7465646173_7465646179_0 RECT_OPEN 1.0 1.5 0 0 1
C_9880569589_7465646173_0 RECT_OPEN 1.0 1.5 0 0 1
C_9880569589_9880569588_0 RECT_OPEN 1.0 1.5 0 0 1
C_9880569589_11409413544_0 RECT_OPEN 1.0 1.5 0 0 1
C_7465672893_9982048425_0 RECT_OPEN 1.0 1.5 0 0 1
C_7466375661_11003034318_0 RECT_OPEN 1.0 1.5 0 0 1
C_7466375683_7466375684_0 RECT_OPEN 1.0 1.5 0 0 1
C_13807649550_7466386825_0 RECT_OPEN 1.0 1.5 0 0 1
C_13807649550_9928561082_0 RECT_OPEN 1.0 1.5 0 0 1
C_13807649550_13807649549_0 RECT_OPEN 1.0 1.5 0 0 1
C_9928560993_7466386825_0 RECT_OPEN 1.0 1.5 0 0 1
C_13807649466_7466386827_0 RECT_OPEN 1.0 1.5 0 0 1
C_13807649466_13807649465_0 RECT_OPEN 1.0 1.5 0 0 1
C_13807649466_7466386826_0 RECT_OPEN 1.0 1.5 0 0 1
C_10017481078_7466386858_0 RECT_OPEN 1.0 1.5 0 0 1
C_10017481078_7466386860_0 RECT_OPEN 1.0 1.5 0 0 1
C_10017481078_10017481079_0 RECT_OPEN 1.0 1.5 0 0 1
C_10017481082_7466386858_0 RECT_OPEN 1.0 1.5 0 0 1
C_7466386859_7466386860_0 RECT_OPEN 1.0 1.5 0 0 1
C_7466386860_10017481078_0 RECT_OPEN 1.0 1.5 0 0 1
C_7466386860_10017481076_0 RECT_OPEN 1.0 1.5 0 0 1
C_7466386860_7466386859_0 RECT_OPEN 1.0 1.5 0 0 1
C_8935990991_13802597961_0 RECT_OPEN 1.0 1.5 0 0 1
C_13802597961_13802597960_0 RECT_OPEN 1.0 1.5 0 0 1
C_13802597961_1198163774_0 RECT_OPEN 1.0 1.5 0 0 1
C_8935990993_8935990994_0 RECT_OPEN 1.0 1.5 0 0 1
C_8935990993_11197323405_0 RECT_OPEN 1.0 1.5 0 0 1
C_11197323405_9910918458_0 RECT_OPEN 1.0 1.5 0 0 1
C_11197323405_11197323412_0 RECT_OPEN 1.0 1.5 0 0 1
C_12161557849_12161557850_0 RECT_OPEN 1.0 1.5 0 0 1
C_12161557849_1262043910_0 RECT_OPEN 1.0 1.5 0 0 1
C_9645445153_1434089177_0 RECT_OPEN 1.0 1.5 0 0 1
C_9645445153_9645445151_0 RECT_OPEN 1.0 1.5 0 0 1
C_9645445136_9645445144_0 RECT_OPEN 1.0 1.5 0 0 1
C_9645445136_3300742565_0 RECT_OPEN 1.0 1.5 0 0 1
C_9645445142_10222690300_0 RECT_OPEN 1.0 1.5 0 0 1
C_9645445142_9645445129_0 RECT_OPEN 1.0 1.5 0 0 1
C_9645445151_9645445136_0 RECT_OPEN 1.0 1.5 0 0 1
C_10991478286_9700074467_0 RECT_OPEN 1.0 1.5 0 0 1
C_11015641079_9700074489_0 RECT_OPEN 1.0 1.5 0 0 1
C_9839093178_9839093177_0 RECT_OPEN 1.0 1.5 0 0 1
C_10695024184_9841504887_0 RECT_OPEN 1.0 1.5 0 0 1
C_10695024184_10695024186_0 RECT_OPEN 1.0 1.5 0 0 1
C_10695024184_12918665451_0 RECT_OPEN 1.0 1.5 0 0 1
C_9841504888_9841504887_0 RECT_OPEN 1.0 1.5 0 0 1
C_9841504889_10695024186_0 RECT_OPEN 1.0 1.5 0 0 1
C_9841504889_9841504890_0 RECT_OPEN 1.0 1.5 0 0 1
C_9841504889_12918642886_0 RECT_OPEN 1.0 1.5 0 0 1
C_10695024186_10695024184_0 RECT_OPEN 1.0 1.5 0 0 1
C_10695024186_9841504889_0 RECT_OPEN 1.0 1.5 0 0 1
C_10695024186_10695024187_0 RECT_OPEN 1.0 1.5 0 0 1
C_9841504890_9841504889_0 RECT_OPEN 1.0 1.5 0 0 1
C_12918642886_9841504889_0 RECT_OPEN 1.0 1.5 0 0 1
C_9866129293_9866129292_0 RECT_OPEN 1.0 1.5 0 0 1
C_11002921849_9867253967_0 RECT_OPEN 1.0 1.5 0 0 1
C_11002921849_12180012791_0 RECT_OPEN 1.0 1.5 0 0 1
C_11002921849_13130886313_0 RECT_OPEN 1.0 1.5 0 0 1
C_11002921849_11002958966_0 RECT_OPEN 1.0 1.5 0 0 1
C_12180012794_9867253967_0 RECT_OPEN 1.0 1.5 0 0 1
C_9870086766_9870086765_0 RECT_OPEN 1.0 1.5 0 0 1
C_9870086766_9870086764_0 RECT_OPEN 1.0 1.5 0 0 1
C_9870086766_9873963410_0 RECT_OPEN 1.0 1.5 0 0 1
C_9870086765_9870086766_0 RECT_OPEN 1.0 1.5 0 0 1
C_9873963410_11002595848_0 RECT_OPEN 1.0 1.5 0 0 1
C_9873963410_9870086773_0 RECT_OPEN 1.0 1.5 0 0 1
C_9873963410_9870086766_0 RECT_OPEN 1.0 1.5 0 0 1
C_9870086773_9873963410_0 RECT_OPEN 1.0 1.5 0 0 1
C_11002595848_9873963410_0 RECT_OPEN 1.0 1.5 0 0 1
C_9880569588_9880569589_0 RECT_OPEN 1.0 1.5 0 0 1
C_9880569588_11409454669_0 RECT_OPEN 1.0 1.5 0 0 1
C_9880569588_10687741966_0 RECT_OPEN 1.0 1.5 0 0 1
C_11409454669_9880569588_0 RECT_OPEN 1.0 1.5 0 0 1
C_11409413544_9880569589_0 RECT_OPEN 1.0 1.5 0 0 1
C_9897294964_9897294963_0 RECT_OPEN 1.0 1.5 0 0 1
C_9899714418_9899714417_0 RECT_OPEN 1.0 1.5 0 0 1
C_9900960143_1558994024_0 RECT_OPEN 1.0 1.5 0 0 1
C_9900960143_9900960144_0 RECT_OPEN 1.0 1.5 0 0 1
C_9900960190_9900960192_0 RECT_OPEN 1.0 1.5 0 0 1
C_9900960190_9900960191_0 RECT_OPEN 1.0 1.5 0 0 1
C_9900960192_9900969018_0 RECT_OPEN 1.0 1.5 0 0 1
C_9900960192_9900960193_0 RECT_OPEN 1.0 1.5 0 0 1
C_9900960191_9900960190_0 RECT_OPEN 1.0 1.5 0 0 1
C_9900969018_1368117382_0 RECT_OPEN 1.0 1.5 0 0 1
C_9900969018_9900969019_0 RECT_OPEN 1.0 1.5 0 0 1
C_9900960193_9900960192_0 RECT_OPEN 1.0 1.5 0 0 1
C_9900969019_9900969018_0 RECT_OPEN 1.0 1.5 0 0 1
C_9901111716_9901111715_0 RECT_OPEN 1.0 1.5 0 0 1
C_9910918458_9910918465_0 RECT_OPEN 1.0 1.5 0 0 1
C_9910918458_11197334455_0 RECT_OPEN 1.0 1.5 0 0 1
C_9910918465_11197323412_0 RECT_OPEN 1.0 1.5 0 0 1
C_11197334455_11197334454_0 RECT_OPEN 1.0 1.5 0 0 1
C_11197334455_9910918465_0 RECT_OPEN 1.0 1.5 0 0 1
C_11197323412_6746708992_0 RECT_OPEN 1.0 1.5 0 0 1
C_9928560952_9928560951_0 RECT_OPEN 1.0 1.5 0 0 1
C_9928561083_9928561082_0 RECT_OPEN 1.0 1.5 0 0 1
C_11885820563_11885820562_0 RECT_OPEN 1.0 1.5 0 0 1
C_11885820563_1371816441_0 RECT_OPEN 1.0 1.5 0 0 1
C_11397285061_9982048419_0 RECT_OPEN 1.0 1.5 0 0 1
C_11397285061_11397285063_0 RECT_OPEN 1.0 1.5 0 0 1
C_9990058603_9990058602_0 RECT_OPEN 1.0 1.5 0 0 1
C_10017481116_9992581195_0 RECT_OPEN 1.0 1.5 0 0 1
C_9992581197_9992581195_0 RECT_OPEN 1.0 1.5 0 0 1
C_10017481077_10017481076_0 RECT_OPEN 1.0 1.5 0 0 1
C_10017481079_10017481078_0 RECT_OPEN 1.0 1.5 0 0 1
C_10017481090_10017481089_0 RECT_OPEN 1.0 1.5 0 0 1
C_10017481092_12155114398_0 RECT_OPEN 1.0 1.5 0 0 1
C_10017481092_10017481091_0 RECT_OPEN 1.0 1.5 0 0 1
C_10017481092_12155114399_0 RECT_OPEN 1.0 1.5 0 0 1
C_13041011657_13041011658_0 RECT_OPEN 1.0 1.5 0 0 1
C_13041011657_13041011659_0 RECT_OPEN 1.0 1.5 0 0 1
C_13041011657_13041011660_0 RECT_OPEN 1.0 1.5 0 0 1
C_13041011657_10017481091_0 RECT_OPEN 1.0 1.5 0 0 1
C_12155114398_10017481092_0 RECT_OPEN 1.0 1.5 0 0 1
C_12155114399_10017481092_0 RECT_OPEN 1.0 1.5 0 0 1
C_10578097581_10038712736_0 RECT_OPEN 1.0 1.5 0 0 1
C_11003016445_12180012791_0 RECT_OPEN 1.0 1.5 0 0 1
C_11003016445_11003016446_0 RECT_OPEN 1.0 1.5 0 0 1
C_11003016445_10038712736_0 RECT_OPEN 1.0 1.5 0 0 1
C_14066685118_10038722876_0 RECT_OPEN 1.0 1.5 0 0 1
C_10038782704_11434296179_0 RECT_OPEN 1.0 1.5 0 0 1
C_10038799161_10168889544_0 RECT_OPEN 1.0 1.5 0 0 1
C_10168889544_10168889545_0 RECT_OPEN 1.0 1.5 0 0 1
C_10168889544_11025384531_0 RECT_OPEN 1.0 1.5 0 0 1
C_10168889544_10038799162_0 RECT_OPEN 1.0 1.5 0 0 1
C_10168889544_10038799161_0 RECT_OPEN 1.0 1.5 0 0 1
C_10038799162_10168889544_0 RECT_OPEN 1.0 1.5 0 0 1
C_10038800926_10168889545_0 RECT_OPEN 1.0 1.5 0 0 1
C_10038800927_10168889545_0 RECT_OPEN 1.0 1.5 0 0 1
C_10044811670_10044811669_0 RECT_OPEN 1.0 1.5 0 0 1
C_11002587524_10044811669_0 RECT_OPEN 1.0 1.5 0 0 1
C_10209103448_10209103447_0 RECT_OPEN 1.0 1.5 0 0 1
C_10209123012_10209123011_0 RECT_OPEN 1.0 1.5 0 0 1
C_12696050651_12696050650_0 RECT_OPEN 1.0 1.5 0 0 1
C_12696050651_11033916345_0 RECT_OPEN 1.0 1.5 0 0 1
C_10222738375_1327387692_0 RECT_OPEN 1.0 1.5 0 0 1
C_10222738375_10222738376_0 RECT_OPEN 1.0 1.5 0 0 1
C_10222738376_10222738375_0 RECT_OPEN 1.0 1.5 0 0 1
C_12210693584_10266837398_0 RECT_OPEN 1.0 1.5 0 0 1
C_12210693584_13830106009_0 RECT_OPEN 1.0 1.5 0 0 1
C_12210693584_12210693585_0 RECT_OPEN 1.0 1.5 0 0 1
C_10266837400_12210693586_0 RECT_OPEN 1.0 1.5 0 0 1
C_10266837400_10266837403_0 RECT_OPEN 1.0 1.5 0 0 1
C_10266837400_13830106009_0 RECT_OPEN 1.0 1.5 0 0 1
C_12210693586_10266837400_0 RECT_OPEN 1.0 1.5 0 0 1
C_10266837403_10266837402_0 RECT_OPEN 1.0 1.5 0 0 1
C_10266837403_10266837401_0 RECT_OPEN 1.0 1.5 0 0 1
C_10266837403_10266837400_0 RECT_OPEN 1.0 1.5 0 0 1
C_13830106009_12210693584_0 RECT_OPEN 1.0 1.5 0 0 1
C_13830106009_13830106010_0 RECT_OPEN 1.0 1.5 0 0 1
C_13830106009_10266837400_0 RECT_OPEN 1.0 1.5 0 0 1
C_10266837401_10266837403_0 RECT_OPEN 1.0 1.5 0 0 1
C_10266837402_10266837403_0 RECT_OPEN 1.0 1.5 0 0 1
C_12157689023_12157689021_0 RECT_OPEN 1.0 1.5 0 0 1
C_12157689023_956975072_0 RECT_OPEN 1.0 1.5 0 0 1
C_12157689021_12157689023_0 RECT_OPEN 1.0 1.5 0 0 1
C_12157689021_10277091600_0 RECT_OPEN 1.0 1.5 0 0 1
C_12157689021_12157689025_0 RECT_OPEN 1.0 1.5 0 0 1
C_10277100419_10277100421_0 RECT_OPEN 1.0 1.5 0 0 1
C_10277100420_10277100422_0 RECT_OPEN 1.0 1.5 0 0 1
C_10277100422_10277100420_0 RECT_OPEN 1.0 1.5 0 0 1
C_10277100422_10277100421_0 RECT_OPEN 1.0 1.5 0 0 1
C_10277100422_10277100423_0 RECT_OPEN 1.0 1.5 0 0 1
C_10277100423_10277100422_0 RECT_OPEN 1.0 1.5 0 0 1
C_10284858578_10284858574_0 RECT_OPEN 1.0 1.5 0 0 1
C_10312430299_11028255656_0 RECT_OPEN 1.0 1.5 0 0 1
C_10312430299_12078798115_0 RECT_OPEN 1.0 1.5 0 0 1
C_11028255656_11329623304_0 RECT_OPEN 1.0 1.5 0 0 1
C_12078798115_12078798117_0 RECT_OPEN 1.0 1.5 0 0 1
C_10574674451_1382528610_0 RECT_OPEN 1.0 1.5 0 0 1
C_10574674451_1382528610_1 RECT_OPEN 1.0 1.5 0 0 1
C_10593463229_10593463230_0 RECT_OPEN 1.0 1.5 0 0 1
C_10593463229_10593463228_0 RECT_OPEN 1.0 1.5 0 0 1
C_10593463229_10593463233_0 RECT_OPEN 1.0 1.5 0 0 1
C_10593463230_10593463229_0 RECT_OPEN 1.0 1.5 0 0 1
C_10593463233_10593463231_0 RECT_OPEN 1.0 1.5 0 0 1
C_10593463233_10593463229_0 RECT_OPEN 1.0 1.5 0 0 1
C_10593463233_10593463232_0 RECT_OPEN 1.0 1.5 0 0 1
C_10593463231_10593463233_0 RECT_OPEN 1.0 1.5 0 0 1
C_10731125515_10637202311_0 RECT_OPEN 1.0 1.5 0 0 1
C_10687741969_10687741968_0 RECT_OPEN 1.0 1.5 0 0 1
C_10687741969_10687741973_0 RECT_OPEN 1.0 1.5 0 0 1
C_10687741969_10687741966_0 RECT_OPEN 1.0 1.5 0 0 1
C_10687741968_10687741969_0 RECT_OPEN 1.0 1.5 0 0 1
C_10687741973_10687741975_0 RECT_OPEN 1.0 1.5 0 0 1
C_10687741973_10687741969_0 RECT_OPEN 1.0 1.5 0 0 1
C_10687741973_10687741972_0 RECT_OPEN 1.0 1.5 0 0 1
C_10687741972_10687741973_0 RECT_OPEN 1.0 1.5 0 0 1
C_10687741975_10687741977_0 RECT_OPEN 1.0 1.5 0 0 1
C_10687741975_10687741973_0 RECT_OPEN 1.0 1.5 0 0 1
C_10687741975_10687741974_0 RECT_OPEN 1.0 1.5 0 0 1
C_10687741974_10687741975_0 RECT_OPEN 1.0 1.5 0 0 1
C_10687741977_10687741979_0 RECT_OPEN 1.0 1.5 0 0 1
C_10687741977_10687741975_0 RECT_OPEN 1.0 1.5 0 0 1
C_10687741977_10687741976_0 RECT_OPEN 1.0 1.5 0 0 1
C_10687741976_10687741977_0 RECT_OPEN 1.0 1.5 0 0 1
C_10687741978_10687741979_0 RECT_OPEN 1.0 1.5 0 0 1
C_12918665451_10695024184_0 RECT_OPEN 1.0 1.5 0 0 1
C_10695024185_12918665449_0 RECT_OPEN 1.0 1.5 0 0 1
C_10695024187_10695024186_0 RECT_OPEN 1.0 1.5 0 0 1
C_10716532019_10716532018_0 RECT_OPEN 1.0 1.5 0 0 1
C_10731123200_10731123199_0 RECT_OPEN 1.0 1.5 0 0 1
C_10760860023_10760860025_0 RECT_OPEN 1.0 1.5 0 0 1
C_10760860023_10760860021_0 RECT_OPEN 1.0 1.5 0 0 1
C_10760860023_10760860024_0 RECT_OPEN 1.0 1.5 0 0 1
C_10760860022_10760860025_0 RECT_OPEN 1.0 1.5 0 0 1
C_10760860025_10760860022_0 RECT_OPEN 1.0 1.5 0 0 1
C_10760860025_10760860023_0 RECT_OPEN 1.0 1.5 0 0 1
C_10760860025_10760860026_0 RECT_OPEN 1.0 1.5 0 0 1
C_10760860024_10760860023_0 RECT_OPEN 1.0 1.5 0 0 1
C_10760860026_10760860025_0 RECT_OPEN 1.0 1.5 0 0 1
C_10820231133_11363958154_0 RECT_OPEN 1.0 1.5 0 0 1
C_10820231133_11021555208_0 RECT_OPEN 1.0 1.5 0 0 1
C_10820231133_10820231134_0 RECT_OPEN 1.0 1.5 0 0 1
C_10820231133_11021548225_0 RECT_OPEN 1.0 1.5 0 0 1
C_11021555208_10820231133_0 RECT_OPEN 1.0 1.5 0 0 1
C_11021555208_11021555209_0 RECT_OPEN 1.0 1.5 0 0 1
C_11021555208_11021555207_0 RECT_OPEN 1.0 1.5 0 0 1
C_11021555208_11021514732_0 RECT_OPEN 1.0 1.5 0 0 1
C_10820231134_10820231133_0 RECT_OPEN 1.0 1.5 0 0 1
C_11021548225_10820231133_0 RECT_OPEN 1.0 1.5 0 0 1
C_12187507077_10841617807_0 RECT_OPEN 1.0 1.5 0 0 1
C_10978638724_10978638722_0 RECT_OPEN 1.0 1.5 0 0 1
C_10978640858_10978640856_0 RECT_OPEN 1.0 1.5 0 0 1
C_10991357070_10991357069_0 RECT_OPEN 1.0 1.5 0 0 1
C_10991375326_10991375325_0 RECT_OPEN 1.0 1.5 0 0 1
C_10991440020_10991440018_0 RECT_OPEN 1.0 1.5 0 0 1
C_10991475147_10991475142_0 RECT_OPEN 1.0 1.5 0 0 1
C_10991651170_10991651169_0 RECT_OPEN 1.0 1.5 0 0 1
C_13717751723_10991832380_0 RECT_OPEN 1.0 1.5 0 0 1
C_10991915619_10991915618_0 RECT_OPEN 1.0 1.5 0 0 1
C_11001362539_13152302110_0 RECT_OPEN 1.0 1.5 0 0 1
C_11002607127_11002607128_0 RECT_OPEN 1.0 1.5 0 0 1
C_11002607128_11002607127_0 RECT_OPEN 1.0 1.5 0 0 1
C_11002607128_11002607131_0 RECT_OPEN 1.0 1.5 0 0 1
C_11002607128_11002607133_0 RECT_OPEN 1.0 1.5 0 0 1
C_11002607131_11002607128_0 RECT_OPEN 1.0 1.5 0 0 1
C_11002607131_11002607129_0 RECT_OPEN 1.0 1.5 0 0 1
C_11002607131_11002607132_0 RECT_OPEN 1.0 1.5 0 0 1
C_11002607133_11002607128_0 RECT_OPEN 1.0 1.5 0 0 1
C_11002607130_11002607129_0 RECT_OPEN 1.0 1.5 0 0 1
C_11002607132_11002607131_0 RECT_OPEN 1.0 1.5 0 0 1
C_11002890405_11002801404_0 RECT_OPEN 1.0 1.5 0 0 1
C_12180012791_11002921849_0 RECT_OPEN 1.0 1.5 0 0 1
C_12180012791_11003016445_0 RECT_OPEN 1.0 1.5 0 0 1
C_12180012791_12180012792_0 RECT_OPEN 1.0 1.5 0 0 1
C_12180012791_12180012793_0 RECT_OPEN 1.0 1.5 0 0 1
C_13130886313_11002921849_0 RECT_OPEN 1.0 1.5 0 0 1
C_11002958966_11002921849_0 RECT_OPEN 1.0 1.5 0 0 1
C_11003016446_11003016445_0 RECT_OPEN 1.0 1.5 0 0 1
C_11003037132_11003034318_0 RECT_OPEN 1.0 1.5 0 0 1
C_11003036768_11003036767_0 RECT_OPEN 1.0 1.5 0 0 1
C_11006982240_11006982239_0 RECT_OPEN 1.0 1.5 0 0 1
C_11007664987_11007664986_0 RECT_OPEN 1.0 1.5 0 0 1
C_11015153617_11015153616_0 RECT_OPEN 1.0 1.5 0 0 1
C_11015166118_11015166119_0 RECT_OPEN 1.0 1.5 0 0 1
C_11015226553_11015226554_0 RECT_OPEN 1.0 1.5 0 0 1
C_11015226553_11015226552_0 RECT_OPEN 1.0 1.5 0 0 1
C_11015226553_11015226548_0 RECT_OPEN 1.0 1.5 0 0 1
C_11015226554_11015226553_0 RECT_OPEN 1.0 1.5 0 0 1
C_11017633320_11017633319_0 RECT_OPEN 1.0 1.5 0 0 1
C_11021428252_11021428239_0 RECT_OPEN 1.0 1.5 0 0 1
C_11399465859_11021437031_0 RECT_OPEN 1.0 1.5 0 0 1
C_11021437034_11021437033_0 RECT_OPEN 1.0 1.5 0 0 1
C_11021437034_11021437035_0 RECT_OPEN 1.0 1.5 0 0 1
C_11021437034_11399469960_0 RECT_OPEN 1.0 1.5 0 0 1
C_11021437034_11021437031_0 RECT_OPEN 1.0 1.5 0 0 1
C_11021437033_11021437034_0 RECT_OPEN 1.0 1.5 0 0 1
C_11399469960_11021437034_0 RECT_OPEN 1.0 1.5 0 0 1
C_11021454466_11021454465_0 RECT_OPEN 1.0 1.5 0 0 1
C_11021478368_11021478367_0 RECT_OPEN 1.0 1.5 0 0 1
C_11021488561_11021488560_0 RECT_OPEN 1.0 1.5 0 0 1
C_11021514732_11021555208_0 RECT_OPEN 1.0 1.5 0 0 1
C_11021555207_11021555208_0 RECT_OPEN 1.0 1.5 0 0 1
C_11021555209_11021555208_0 RECT_OPEN 1.0 1.5 0 0 1
C_11021569038_11021569037_0 RECT_OPEN 1.0 1.5 0 0 1
C_11409461237_11409461238_0 RECT_OPEN 1.0 1.5 0 0 1
C_11409461237_11021569037_0 RECT_OPEN 1.0 1.5 0 0 1
C_11409461237_11021578456_0 RECT_OPEN 1.0 1.5 0 0 1
C_11021603481_11021603484_0 RECT_OPEN 1.0 1.5 0 0 1
C_11021603481_574872968_0 RECT_OPEN 1.0 1.5 0 0 1
C_11021603484_11021603481_0 RECT_OPEN 1.0 1.5 0 0 1
C_11826963020_11021627219_0 RECT_OPEN 1.0 1.5 0 0 1
C_11826963020_11399419950_0 RECT_OPEN 1.0 1.5 0 0 1
C_11826963020_11826963022_0 RECT_OPEN 1.0 1.5 0 0 1
C_11021676040_11021676037_0 RECT_OPEN 1.0 1.5 0 0 1
C_11021755953_11021755952_0 RECT_OPEN 1.0 1.5 0 0 1
C_11074670549_11021766298_0 RECT_OPEN 1.0 1.5 0 0 1
C_11021766299_11074670574_0 RECT_OPEN 1.0 1.5 0 0 1
C_11021766299_11074670573_0 RECT_OPEN 1.0 1.5 0 0 1
C_11021766299_11021766298_0 RECT_OPEN 1.0 1.5 0 0 1
C_11074670574_11021766299_0 RECT_OPEN 1.0 1.5 0 0 1
C_11025384532_11025384531_0 RECT_OPEN 1.0 1.5 0 0 1
C_11027804586_11027804585_0 RECT_OPEN 1.0 1.5 0 0 1
C_11027804588_11027804587_0 RECT_OPEN 1.0 1.5 0 0 1
C_11329623304_955696066_0 RECT_OPEN 1.0 1.5 0 0 1
C_11028823358_11028823357_0 RECT_OPEN 1.0 1.5 0 0 1
C_11028858435_11926574593_0 RECT_OPEN 1.0 1.5 0 0 1
C_11033916343_11124633999_0 RECT_OPEN 1.0 1.5 0 0 1
C_11124633999_12997704936_0 RECT_OPEN 1.0 1.5 0 0 1
C_11033916345_11121867056_0 RECT_OPEN 1.0 1.5 0 0 1
C_11033916345_11033916343_0 RECT_OPEN 1.0 1.5 0 0 1
C_11121867056_12997704936_0 RECT_OPEN 1.0 1.5 0 0 1
C_11121867056_11033916343_0 RECT_OPEN 1.0 1.5 0 0 1
C_11397404813_11045649359_0 RECT_OPEN 1.0 1.5 0 0 1
C_11397404813_11045649363_0 RECT_OPEN 1.0 1.5 0 0 1
C_11397404813_11397404814_0 RECT_OPEN 1.0 1.5 0 0 1
C_12151901679_11045649359_0 RECT_OPEN 1.0 1.5 0 0 1
C_12151901679_12151901680_0 RECT_OPEN 1.0 1.5 0 0 1
C_12151901679_12151901678_0 RECT_OPEN 1.0 1.5 0 0 1
C_11397404822_11045649364_0 RECT_OPEN 1.0 1.5 0 0 1
C_12918642840_12918642841_0 RECT_OPEN 1.0 1.5 0 0 1
C_12918642840_11074670573_0 RECT_OPEN 1.0 1.5 0 0 1
C_12918642840_11434296179_0 RECT_OPEN 1.0 1.5 0 0 1
C_11077269488_11077269487_0 RECT_OPEN 1.0 1.5 0 0 1
C_11121286749_11121286748_0 RECT_OPEN 1.0 1.5 0 0 1
C_12997704936_11121867056_0 RECT_OPEN 1.0 1.5 0 0 1
C_12997704936_11124633999_0 RECT_OPEN 1.0 1.5 0 0 1
C_12997704936_12997704926_0 RECT_OPEN 1.0 1.5 0 0 1
C_11182447928_11182447927_0 RECT_OPEN 1.0 1.5 0 0 1
C_11397285063_11397285061_0 RECT_OPEN 1.0 1.5 0 0 1
C_11397388905_13098366974_0 RECT_OPEN 1.0 1.5 0 0 1
C_12151901633_11397404814_0 RECT_OPEN 1.0 1.5 0 0 1
C_11397404823_12244701790_0 RECT_OPEN 1.0 1.5 0 0 1
C_11397591499_11397591498_0 RECT_OPEN 1.0 1.5 0 0 1
C_11397593723_11397593720_0 RECT_OPEN 1.0 1.5 0 0 1
C_11397593733_11397593732_0 RECT_OPEN 1.0 1.5 0 0 1
C_11397632765_11397632762_0 RECT_OPEN 1.0 1.5 0 0 1
C_11397632765_11397632766_0 RECT_OPEN 1.0 1.5 0 0 1
C_11397632765_11397632764_0 RECT_OPEN 1.0 1.5 0 0 1
C_11397632764_11397632765_0 RECT_OPEN 1.0 1.5 0 0 1
C_11397632766_11397632765_0 RECT_OPEN 1.0 1.5 0 0 1
C_11409159132_11409159131_0 RECT_OPEN 1.0 1.5 0 0 1
C_11409171826_11409171825_0 RECT_OPEN 1.0 1.5 0 0 1
C_11409172856_11409263307_0 RECT_OPEN 1.0 1.5 0 0 1
C_11409172856_11409172855_0 RECT_OPEN 1.0 1.5 0 0 1
C_11409172856_11409263303_0 RECT_OPEN 1.0 1.5 0 0 1
C_11409245946_11409245945_0 RECT_OPEN 1.0 1.5 0 0 1
C_11409293348_11409293349_0 RECT_OPEN 1.0 1.5 0 0 1
C_11409341814_11409293349_0 RECT_OPEN 1.0 1.5 0 0 1
C_11409341814_11409341813_0 RECT_OPEN 1.0 1.5 0 0 1
C_11409341814_11409327905_0 RECT_OPEN 1.0 1.5 0 0 1
C_11409322629_11409322630_0 RECT_OPEN 1.0 1.5 0 0 1
C_11409327905_11409322630_0 RECT_OPEN 1.0 1.5 0 0 1
C_11409327905_11409327904_0 RECT_OPEN 1.0 1.5 0 0 1
C_11409327905_11409341814_0 RECT_OPEN 1.0 1.5 0 0 1
C_11409327904_11409327905_0 RECT_OPEN 1.0 1.5 0 0 1
C_11409341813_11409341814_0 RECT_OPEN 1.0 1.5 0 0 1
C_11409461238_11409461237_0 RECT_OPEN 1.0 1.5 0 0 1
C_11414136197_11414136196_0 RECT_OPEN 1.0 1.5 0 0 1
C_11419446867_11419446866_0 RECT_OPEN 1.0 1.5 0 0 1
C_11419448880_11419448879_0 RECT_OPEN 1.0 1.5 0 0 1
C_11434298150_11434298148_0 RECT_OPEN 1.0 1.5 0 0 1
C_11434298150_11434298151_0 RECT_OPEN 1.0 1.5 0 0 1
C_11434298150_11434298134_0 RECT_OPEN 1.0 1.5 0 0 1
C_11434298136_11434298145_0 RECT_OPEN 1.0 1.5 0 0 1
C_11434298136_11434298148_0 RECT_OPEN 1.0 1.5 0 0 1
C_11434298136_11434298147_0 RECT_OPEN 1.0 1.5 0 0 1
C_11434298145_11434298137_0 RECT_OPEN 1.0 1.5 0 0 1
C_11434298145_11434298136_0 RECT_OPEN 1.0 1.5 0 0 1
C_11434298145_11434298146_0 RECT_OPEN 1.0 1.5 0 0 1
C_11434298148_11434298136_0 RECT_OPEN 1.0 1.5 0 0 1
C_11434298148_11434298150_0 RECT_OPEN 1.0 1.5 0 0 1
C_11434298148_11434298149_0 RECT_OPEN 1.0 1.5 0 0 1
C_11434298147_11434298136_0 RECT_OPEN 1.0 1.5 0 0 1
C_11434298137_11434298138_0 RECT_OPEN 1.0 1.5 0 0 1
C_11434298137_11434298145_0 RECT_OPEN 1.0 1.5 0 0 1
C_11434298137_11434298144_0 RECT_OPEN 1.0 1.5 0 0 1
C_11434298138_11434298137_0 RECT_OPEN 1.0 1.5 0 0 1
C_11434298138_11434298143_0 RECT_OPEN 1.0 1.5 0 0 1
C_11434298138_11434298142_0 RECT_OPEN 1.0 1.5 0 0 1
C_11434298144_11434298137_0 RECT_OPEN 1.0 1.5 0 0 1
C_11434298143_11434298138_0 RECT_OPEN 1.0 1.5 0 0 1
C_11434298142_11434298138_0 RECT_OPEN 1.0 1.5 0 0 1
C_11434298146_11434298145_0 RECT_OPEN 1.0 1.5 0 0 1
C_11434298149_11434298148_0 RECT_OPEN 1.0 1.5 0 0 1
C_11434298151_11434298150_0 RECT_OPEN 1.0 1.5 0 0 1
C_11434512224_11434512223_0 RECT_OPEN 1.0 1.5 0 0 1
C_11434710894_11434710893_0 RECT_OPEN 1.0 1.5 0 0 1
C_11436636898_11436636897_0 RECT_OPEN 1.0 1.5 0 0 1
C_11438132729_11438132728_0 RECT_OPEN 1.0 1.5 0 0 1
C_11438132732_11438132731_0 RECT_OPEN 1.0 1.5 0 0 1
C_11438144607_11438144606_0 RECT_OPEN 1.0 1.5 0 0 1
C_11438167761_11438167760_0 RECT_OPEN 1.0 1.5 0 0 1
C_11438298623_11438298620_0 RECT_OPEN 1.0 1.5 0 0 1
C_11438418705_11438418704_0 RECT_OPEN 1.0 1.5 0 0 1
C_12196909080_11640782969_0 RECT_OPEN 1.0 1.5 0 0 1
C_13076932659_13076932658_0 RECT_OPEN 1.0 1.5 0 0 1
C_13076932659_12635196524_0 RECT_OPEN 1.0 1.5 0 0 1
C_13076932657_11812221673_0 RECT_OPEN 1.0 1.5 0 0 1
C_13076932657_6617328955_0 RECT_OPEN 1.0 1.5 0 0 1
C_12765390074_11812221682_0 RECT_OPEN 1.0 1.5 0 0 1
C_12765390074_11812221683_0 RECT_OPEN 1.0 1.5 0 0 1
C_11826963022_11826963020_0 RECT_OPEN 1.0 1.5 0 0 1
C_12961466032_12961466034_0 RECT_OPEN 1.0 1.5 0 0 1
C_12961466032_1177705914_0 RECT_OPEN 1.0 1.5 0 0 1
C_11934696261_11934696262_0 RECT_OPEN 1.0 1.5 0 0 1
C_11934696262_11934696261_0 RECT_OPEN 1.0 1.5 0 0 1
C_11934696262_13715446990_0 RECT_OPEN 1.0 1.5 0 0 1
C_11934696262_11934696264_0 RECT_OPEN 1.0 1.5 0 0 1
C_13715446990_11934696262_0 RECT_OPEN 1.0 1.5 0 0 1
C_11934696264_11934696263_0 RECT_OPEN 1.0 1.5 0 0 1
C_11934696264_11934696262_0 RECT_OPEN 1.0 1.5 0 0 1
C_11934696264_13715446989_0 RECT_OPEN 1.0 1.5 0 0 1
C_11934696263_11934696264_0 RECT_OPEN 1.0 1.5 0 0 1
C_11944239436_11944239448_0 RECT_OPEN 1.0 1.5 0 0 1
C_11944239436_11944239449_0 RECT_OPEN 1.0 1.5 0 0 1
C_11944239436_11944239437_0 RECT_OPEN 1.0 1.5 0 0 1
C_11944239436_11944239451_0 RECT_OPEN 1.0 1.5 0 0 1
C_11944239448_11944239436_0 RECT_OPEN 1.0 1.5 0 0 1
C_11944239449_11944239436_0 RECT_OPEN 1.0 1.5 0 0 1
C_11944239437_11944239442_0 RECT_OPEN 1.0 1.5 0 0 1
C_11944239437_11944239447_0 RECT_OPEN 1.0 1.5 0 0 1
C_11944239437_11944239441_0 RECT_OPEN 1.0 1.5 0 0 1
C_11944239437_11944239436_0 RECT_OPEN 1.0 1.5 0 0 1
C_11944239442_11944239437_0 RECT_OPEN 1.0 1.5 0 0 1
C_11944239447_11944239437_0 RECT_OPEN 1.0 1.5 0 0 1
C_11944239441_11944239446_0 RECT_OPEN 1.0 1.5 0 0 1
C_11944239441_11944239440_0 RECT_OPEN 1.0 1.5 0 0 1
C_11944239441_11944239437_0 RECT_OPEN 1.0 1.5 0 0 1
C_11944239438_11944239450_0 RECT_OPEN 1.0 1.5 0 0 1
C_11944239450_11944239438_0 RECT_OPEN 1.0 1.5 0 0 1
C_11944239450_11944239443_0 RECT_OPEN 1.0 1.5 0 0 1
C_11944239450_11944239439_0 RECT_OPEN 1.0 1.5 0 0 1
C_11944239439_11944239444_0 RECT_OPEN 1.0 1.5 0 0 1
C_11944239439_11944239450_0 RECT_OPEN 1.0 1.5 0 0 1
C_11944239439_11944239440_0 RECT_OPEN 1.0 1.5 0 0 1
C_11944239444_11944239439_0 RECT_OPEN 1.0 1.5 0 0 1
C_11944239440_11944239445_0 RECT_OPEN 1.0 1.5 0 0 1
C_11944239440_11944239439_0 RECT_OPEN 1.0 1.5 0 0 1
C_11944239440_11944239441_0 RECT_OPEN 1.0 1.5 0 0 1
C_11944239445_11944239440_0 RECT_OPEN 1.0 1.5 0 0 1
C_11944239446_11944239441_0 RECT_OPEN 1.0 1.5 0 0 1
C_11944239443_11944239450_0 RECT_OPEN 1.0 1.5 0 0 1
C_11951620623_12196582428_0 RECT_OPEN 1.0 1.5 0 0 1
C_12078798117_12078798115_0 RECT_OPEN 1.0 1.5 0 0 1
C_12078798117_11329623304_0 RECT_OPEN 1.0 1.5 0 0 1
C_12151901680_12151901679_0 RECT_OPEN 1.0 1.5 0 0 1
C_12155167317_12155167311_0 RECT_OPEN 1.0 1.5 0 0 1
C_12155167316_12155167315_0 RECT_OPEN 1.0 1.5 0 0 1
C_12157689025_12157689021_0 RECT_OPEN 1.0 1.5 0 0 1
C_12180012792_12180012791_0 RECT_OPEN 1.0 1.5 0 0 1
C_12180012793_12180012791_0 RECT_OPEN 1.0 1.5 0 0 1
C_12185458378_1368801692_0 RECT_OPEN 1.0 1.5 0 0 1
C_12186088998_1371807614_0 RECT_OPEN 1.0 1.5 0 0 1
C_12187447576_12187447575_0 RECT_OPEN 1.0 1.5 0 0 1
C_12196464673_12196464672_0 RECT_OPEN 1.0 1.5 0 0 1
C_12196521967_12196521966_0 RECT_OPEN 1.0 1.5 0 0 1
C_12206473572_12206473568_0 RECT_OPEN 1.0 1.5 0 0 1
C_12210693585_12210693584_0 RECT_OPEN 1.0 1.5 0 0 1
C_12393621581_12393621582_0 RECT_OPEN 1.0 1.5 0 0 1
C_12604472596_12604472593_0 RECT_OPEN 1.0 1.5 0 0 1
C_12696050650_12696050651_0 RECT_OPEN 1.0 1.5 0 0 1
C_12696050650_307940137_0 RECT_OPEN 1.0 1.5 0 0 1
C_12697947084_12697947081_0 RECT_OPEN 1.0 1.5 0 0 1
C_12698276488_12698276487_0 RECT_OPEN 1.0 1.5 0 0 1
C_13645830500_12698276487_0 RECT_OPEN 1.0 1.5 0 0 1
C_12732525820_13787035709_0 RECT_OPEN 1.0 1.5 0 0 1
C_12732525820_13787010485_0 RECT_OPEN 1.0 1.5 0 0 1
C_13787035709_12732525820_0 RECT_OPEN 1.0 1.5 0 0 1
C_13787010485_13787010454_0 RECT_OPEN 1.0 1.5 0 0 1
C_13787010485_13787010455_0 RECT_OPEN 1.0 1.5 0 0 1
C_12918642841_12918642840_0 RECT_OPEN 1.0 1.5 0 0 1
C_12961466031_12961466032_0 RECT_OPEN 1.0 1.5 0 0 1
C_12961466031_11409454649_0 RECT_OPEN 1.0 1.5 0 0 1
C_12997704925_12997704926_0 RECT_OPEN 1.0 1.5 0 0 1
C_12997704925_12997704944_0 RECT_OPEN 1.0 1.5 0 0 1
C_12997704925_13787010459_0 RECT_OPEN 1.0 1.5 0 0 1
C_12997704926_12997704925_0 RECT_OPEN 1.0 1.5 0 0 1
C_12997704926_12997704936_0 RECT_OPEN 1.0 1.5 0 0 1
C_12997704944_12997704925_0 RECT_OPEN 1.0 1.5 0 0 1
C_13787010459_13787010460_0 RECT_OPEN 1.0 1.5 0 0 1
C_13787010459_13787010458_0 RECT_OPEN 1.0 1.5 0 0 1
C_12999157123_12999157122_0 RECT_OPEN 1.0 1.5 0 0 1
C_12999157125_12999157124_0 RECT_OPEN 1.0 1.5 0 0 1
C_13041011653_13041011660_0 RECT_OPEN 1.0 1.5 0 0 1
C_13041011654_13041011660_0 RECT_OPEN 1.0 1.5 0 0 1
C_13041011658_13041011657_0 RECT_OPEN 1.0 1.5 0 0 1
C_13041011659_13041011657_0 RECT_OPEN 1.0 1.5 0 0 1
C_13041011662_13041011663_0 RECT_OPEN 1.0 1.5 0 0 1
C_13041011664_13041011665_0 RECT_OPEN 1.0 1.5 0 0 1
C_13041584928_13041584929_0 RECT_OPEN 1.0 1.5 0 0 1
C_13064736701_13064733100_0 RECT_OPEN 1.0 1.5 0 0 1
C_13098366975_13098366974_0 RECT_OPEN 1.0 1.5 0 0 1
C_13127664188_13127664187_0 RECT_OPEN 1.0 1.5 0 0 1
C_13127664193_13127664189_0 RECT_OPEN 1.0 1.5 0 0 1
C_13127790409_13127790410_0 RECT_OPEN 1.0 1.5 0 0 1
C_13127790410_13130332397_0 RECT_OPEN 1.0 1.5 0 0 1
C_13127790410_13127790412_0 RECT_OPEN 1.0 1.5 0 0 1
C_13127790410_13127790409_0 RECT_OPEN 1.0 1.5 0 0 1
C_13127790411_13127790412_0 RECT_OPEN 1.0 1.5 0 0 1
C_13130332396_13130332397_0 RECT_OPEN 1.0 1.5 0 0 1
C_13149044766_13149044768_0 RECT_OPEN 1.0 1.5 0 0 1
C_13149044767_13149044768_0 RECT_OPEN 1.0 1.5 0 0 1
C_13152302109_13152302110_0 RECT_OPEN 1.0 1.5 0 0 1
C_13360780445_13360780446_0 RECT_OPEN 1.0 1.5 0 0 1
C_13607317195_13607317196_0 RECT_OPEN 1.0 1.5 0 0 1
C_13645830523_13645830524_0 RECT_OPEN 1.0 1.5 0 0 1
C_13645830523_13645830525_0 RECT_OPEN 1.0 1.5 0 0 1
C_13645830523_13645830527_0 RECT_OPEN 1.0 1.5 0 0 1
C_13645830524_13645830523_0 RECT_OPEN 1.0 1.5 0 0 1
C_13645830525_13645830523_0 RECT_OPEN 1.0 1.5 0 0 1
C_13645830526_13645830527_0 RECT_OPEN 1.0 1.5 0 0 1
C_13654038306_13654038308_0 RECT_OPEN 1.0 1.5 0 0 1
C_13654038432_13654038433_0 RECT_OPEN 1.0 1.5 0 0 1
C_13655652478_13655652480_0 RECT_OPEN 1.0 1.5 0 0 1
C_13655653224_13655653225_0 RECT_OPEN 1.0 1.5 0 0 1
C_13667500009_13667500010_0 RECT_OPEN 1.0 1.5 0 0 1
C_13787010454_13787010485_0 RECT_OPEN 1.0 1.5 0 0 1
C_13787010454_13787035709_0 RECT_OPEN 1.0 1.5 0 0 1
C_13787010455_13787010456_0 RECT_OPEN 1.0 1.5 0 0 1
C_13787010455_13787010457_0 RECT_OPEN 1.0 1.5 0 0 1
C_13787010456_13787010455_0 RECT_OPEN 1.0 1.5 0 0 1
C_13787010456_13787010454_0 RECT_OPEN 1.0 1.5 0 0 1
C_13787010457_13787010458_0 RECT_OPEN 1.0 1.5 0 0 1
C_13787010457_13787010460_0 RECT_OPEN 1.0 1.5 0 0 1
C_13787010458_13787010457_0 RECT_OPEN 1.0 1.5 0 0 1
C_13787010458_13787010456_0 RECT_OPEN 1.0 1.5 0 0 1
C_13787010460_13787010459_0 RECT_OPEN 1.0 1.5 0 0 1
C_13787010460_12997704926_0 RECT_OPEN 1.0 1.5 0 0 1
C_13807649465_13807649466_0 RECT_OPEN 1.0 1.5 0 0 1
C_13807649549_13807649550_0 RECT_OPEN 1.0 1.5 0 0 1
C_13811792565_13811792564_0 RECT_OPEN 1.0 1.5 0 0 1
C_13830105943_13830105941_0 RECT_OPEN 1.0 1.5 0 0 1
C_13830106010_13830106009_0 RECT_OPEN 1.0 1.5 0 0 1
C_13830106176_13830106177_0 RECT_OPEN 1.0 1.5 0 0 1
C_13830106203_13830106177_0 RECT_OPEN 1.0 1.5 0 0 1
C_13830106203_13830106205_0 RECT_OPEN 1.0 1.5 0 0 1
C_13830106203_13830106204_0 RECT_OPEN 1.0 1.5 0 0 1
C_13830106204_13830106203_0 RECT_OPEN 1.0 1.5 0 0 1
C_13830106206_13830106205_0 RECT_OPEN 1.0 1.5 0 0 1
C_14072070988_14072070989_0 RECT_OPEN 1.0 1.5 0 0 1
C_14074138182_14074138183_0 RECT_OPEN 1.0 1.5 0 0 1
C_outfall RECT_OPEN 1.0 1.5 0 0 1

