[TITLE]
UrbanFlow-GNN SWMM Regional Simulation

[OPTIONS]
FLOW_UNITS CMS
INFILTRATION HORTON
FLOW_ROUTING DYNWAVE
START_DATE 01/01/2026
START_TIME 00:00:00
REPORT_START_DATE 01/01/2026
REPORT_START_TIME 00:00:00
END_DATE 01/01/2026
END_TIME 02:00:00
REPORT_STEP 00:01:00
WET_STEP 00:00:10
DRY_STEP 00:01:00

[EVAPORATION]
CONSTANT 0.0

[REPORT]
INPUT NO
SUBCATCHMENTS ALL
NODES ALL
LINKS ALL

[RAINGAGES]
Gage1 INTENSITY 0:05 1.0 TIMESERIES RainTS

[TIMESERIES]
RainTS 00:00 150.0
RainTS 01:00 150.0
RainTS 01:05 0.0

[SUBCATCHMENTS]
;;Name RainGage Outlet Area %Imperv Width Slope CurbLen
S_263386428 Gage1 J_263386428 0.5 12.3 50 0.5 0
S_306622120 Gage1 J_306622120 0.5 15.7 50 0.5 0
S_306621809 Gage1 J_306621809 0.5 32.1 50 0.5 0
S_11533595484 Gage1 J_11533595484 0.5 1.6 50 0.5 0
S_263386438 Gage1 J_263386438 0.5 28.1 50 0.5 0
S_7432382412 Gage1 J_7432382412 0.5 27.4 50 0.5 0
S_306615032 Gage1 J_306615032 0.5 45.9 50 0.5 0
S_7432382410 Gage1 J_7432382410 0.5 36.3 50 0.5 0
S_263386445 Gage1 J_263386445 0.5 25.1 50 0.5 0
S_7432382420 Gage1 J_7432382420 0.5 25.1 50 0.5 0
S_306623098 Gage1 J_306623098 0.5 22.5 50 0.5 0
S_263386457 Gage1 J_263386457 0.5 44.7 50 0.5 0
S_306623631 Gage1 J_306623631 0.5 36.2 50 0.5 0
S_836238509 Gage1 J_836238509 0.5 38.7 50 0.5 0
S_306623149 Gage1 J_306623149 0.5 24.2 50 0.5 0
S_263394718 Gage1 J_263394718 0.5 16.2 50 0.5 0
S_266268086 Gage1 J_266268086 0.5 22.3 50 0.5 0
S_263400205 Gage1 J_263400205 0.5 42.2 50 0.5 0
S_11178931799 Gage1 J_11178931799 0.5 19.6 50 0.5 0
S_263400148 Gage1 J_263400148 0.5 41.3 50 0.5 0
S_266271044 Gage1 J_266271044 0.5 34.0 50 0.5 0
S_266271204 Gage1 J_266271204 0.5 37.0 50 0.5 0
S_650089427 Gage1 J_650089427 0.5 35.2 50 0.5 0
S_263400179 Gage1 J_263400179 0.5 28.5 50 0.5 0
S_10094586219 Gage1 J_10094586219 0.5 40.0 50 0.5 0
S_4467082413 Gage1 J_4467082413 0.5 27.4 50 0.5 0
S_306620123 Gage1 J_306620123 0.5 30.8 50 0.5 0
S_263400192 Gage1 J_263400192 0.5 41.9 50 0.5 0
S_5267402564 Gage1 J_5267402564 0.5 43.6 50 0.5 0
S_306620053 Gage1 J_306620053 0.5 33.6 50 0.5 0
S_266275087 Gage1 J_266275087 0.5 45.1 50 0.5 0
S_263415776 Gage1 J_263415776 0.5 29.2 50 0.5 0
S_263415826 Gage1 J_263415826 0.5 41.5 50 0.5 0
S_306620181 Gage1 J_306620181 0.5 32.5 50 0.5 0
S_306620007 Gage1 J_306620007 0.5 37.9 50 0.5 0
S_266271046 Gage1 J_266271046 0.5 33.5 50 0.5 0
S_263415839 Gage1 J_263415839 0.5 36.0 50 0.5 0
S_306615019 Gage1 J_306615019 0.5 43.0 50 0.5 0
S_306615476 Gage1 J_306615476 0.5 31.1 50 0.5 0
S_306615164 Gage1 J_306615164 0.5 29.0 50 0.5 0
S_263415852 Gage1 J_263415852 0.5 26.5 50 0.5 0
S_266318626 Gage1 J_266318626 0.5 50.1 50 0.5 0
S_306615014 Gage1 J_306615014 0.5 11.7 50 0.5 0
S_306620859 Gage1 J_306620859 0.5 31.1 50 0.5 0
S_263431510 Gage1 J_263431510 0.5 27.2 50 0.5 0
S_4146211264 Gage1 J_4146211264 0.5 46.7 50 0.5 0
S_266310426 Gage1 J_266310426 0.5 39.9 50 0.5 0
S_2406084997 Gage1 J_2406084997 0.5 20.7 50 0.5 0
S_266163778 Gage1 J_266163778 0.5 10.5 50 0.5 0
S_306617302 Gage1 J_306617302 0.5 31.9 50 0.5 0
S_7432382401 Gage1 J_7432382401 0.5 10.0 50 0.5 0
S_7432382395 Gage1 J_7432382395 0.5 10.6 50 0.5 0
S_266164910 Gage1 J_266164910 0.5 34.1 50 0.5 0
S_622363164 Gage1 J_622363164 0.5 36.9 50 0.5 0
S_306623347 Gage1 J_306623347 0.5 36.4 50 0.5 0
S_306623648 Gage1 J_306623648 0.5 36.0 50 0.5 0
S_306626271 Gage1 J_306626271 0.5 35.5 50 0.5 0
S_266164941 Gage1 J_266164941 0.5 34.7 50 0.5 0
S_266318559 Gage1 J_266318559 0.5 45.4 50 0.5 0
S_11007435038 Gage1 J_11007435038 0.5 34.1 50 0.5 0
S_266304400 Gage1 J_266304400 0.5 41.1 50 0.5 0
S_266164942 Gage1 J_266164942 0.5 31.4 50 0.5 0
S_266314035 Gage1 J_266314035 0.5 38.4 50 0.5 0
S_266318994 Gage1 J_266318994 0.5 34.0 50 0.5 0
S_266164948 Gage1 J_266164948 0.5 32.1 50 0.5 0
S_2406084995 Gage1 J_2406084995 0.5 41.0 50 0.5 0
S_4146211262 Gage1 J_4146211262 0.5 31.5 50 0.5 0
S_4146211261 Gage1 J_4146211261 0.5 29.5 50 0.5 0
S_266174853 Gage1 J_266174853 0.5 25.4 50 0.5 0
S_266265561 Gage1 J_266265561 0.5 32.4 50 0.5 0
S_306625695 Gage1 J_306625695 0.5 18.1 50 0.5 0
S_306625759 Gage1 J_306625759 0.5 22.2 50 0.5 0
S_306626127 Gage1 J_306626127 0.5 29.4 50 0.5 0
S_266174854 Gage1 J_266174854 0.5 13.0 50 0.5 0
S_266298095 Gage1 J_266298095 0.5 20.3 50 0.5 0
S_1417443647 Gage1 J_1417443647 0.5 26.4 50 0.5 0
S_1417443641 Gage1 J_1417443641 0.5 8.8 50 0.5 0
S_266174856 Gage1 J_266174856 0.5 30.1 50 0.5 0
S_1473871931 Gage1 J_1473871931 0.5 25.7 50 0.5 0
S_1473871940 Gage1 J_1473871940 0.5 33.1 50 0.5 0
S_266272487 Gage1 J_266272487 0.5 25.9 50 0.5 0
S_266174857 Gage1 J_266174857 0.5 33.7 50 0.5 0
S_313460308 Gage1 J_313460308 0.5 33.1 50 0.5 0
S_1473885221 Gage1 J_1473885221 0.5 41.3 50 0.5 0
S_266272874 Gage1 J_266272874 0.5 33.0 50 0.5 0
S_266177660 Gage1 J_266177660 0.5 20.9 50 0.5 0
S_2526081636 Gage1 J_2526081636 0.5 18.2 50 0.5 0
S_6560240052 Gage1 J_6560240052 0.5 27.2 50 0.5 0
S_306616744 Gage1 J_306616744 0.5 34.7 50 0.5 0
S_266268082 Gage1 J_266268082 0.5 33.2 50 0.5 0
S_266267494 Gage1 J_266267494 0.5 34.5 50 0.5 0
S_266267499 Gage1 J_266267499 0.5 34.5 50 0.5 0
S_306624820 Gage1 J_306624820 0.5 44.0 50 0.5 0
S_266267666 Gage1 J_266267666 0.5 24.3 50 0.5 0
S_1469644202 Gage1 J_1469644202 0.5 27.1 50 0.5 0
S_306625528 Gage1 J_306625528 0.5 41.9 50 0.5 0
S_12174142491 Gage1 J_12174142491 0.5 15.6 50 0.5 0
S_306617429 Gage1 J_306617429 0.5 22.6 50 0.5 0
S_266268084 Gage1 J_266268084 0.5 25.0 50 0.5 0
S_306617477 Gage1 J_306617477 0.5 15.0 50 0.5 0
S_266268085 Gage1 J_266268085 0.5 15.6 50 0.5 0
S_306616740 Gage1 J_306616740 0.5 20.2 50 0.5 0
S_2407671508 Gage1 J_2407671508 0.5 24.3 50 0.5 0
S_266268374 Gage1 J_266268374 0.5 22.5 50 0.5 0
S_306623673 Gage1 J_306623673 0.5 37.8 50 0.5 0
S_10094529579 Gage1 J_10094529579 0.5 32.2 50 0.5 0
S_266268375 Gage1 J_266268375 0.5 11.5 50 0.5 0
S_306623367 Gage1 J_306623367 0.5 28.8 50 0.5 0
S_306624975 Gage1 J_306624975 0.5 10.4 50 0.5 0
S_266268377 Gage1 J_266268377 0.5 7.3 50 0.5 0
S_306624796 Gage1 J_306624796 0.5 28.7 50 0.5 0
S_5780852321 Gage1 J_5780852321 0.5 22.0 50 0.5 0
S_266268380 Gage1 J_266268380 0.5 17.1 50 0.5 0
S_6884276690 Gage1 J_6884276690 0.5 17.4 50 0.5 0
S_306624839 Gage1 J_306624839 0.5 17.7 50 0.5 0
S_306620124 Gage1 J_306620124 0.5 19.8 50 0.5 0
S_306620177 Gage1 J_306620177 0.5 32.6 50 0.5 0
S_10094586221 Gage1 J_10094586221 0.5 31.5 50 0.5 0
S_1488556180 Gage1 J_1488556180 0.5 31.5 50 0.5 0
S_266298088 Gage1 J_266298088 0.5 20.7 50 0.5 0
S_266272838 Gage1 J_266272838 0.5 34.6 50 0.5 0
S_266272839 Gage1 J_266272839 0.5 41.7 50 0.5 0
S_7432382393 Gage1 J_7432382393 0.5 31.6 50 0.5 0
S_306609464 Gage1 J_306609464 0.5 20.6 50 0.5 0
S_266272840 Gage1 J_266272840 0.5 37.5 50 0.5 0
S_306609693 Gage1 J_306609693 0.5 39.1 50 0.5 0
S_306609695 Gage1 J_306609695 0.5 44.7 50 0.5 0
S_266272841 Gage1 J_266272841 0.5 32.1 50 0.5 0
S_266272842 Gage1 J_266272842 0.5 31.7 50 0.5 0
S_306610651 Gage1 J_306610651 0.5 43.8 50 0.5 0
S_306614126 Gage1 J_306614126 0.5 31.8 50 0.5 0
S_266272843 Gage1 J_266272843 0.5 42.0 50 0.5 0
S_306619706 Gage1 J_306619706 0.5 34.3 50 0.5 0
S_11259448972 Gage1 J_11259448972 0.5 40.8 50 0.5 0
S_306614127 Gage1 J_306614127 0.5 41.9 50 0.5 0
S_306618090 Gage1 J_306618090 0.5 36.6 50 0.5 0
S_3161269200 Gage1 J_3161269200 0.5 37.0 50 0.5 0
S_266273088 Gage1 J_266273088 0.5 14.6 50 0.5 0
S_1473871924 Gage1 J_1473871924 0.5 23.0 50 0.5 0
S_1473871945 Gage1 J_1473871945 0.5 19.5 50 0.5 0
S_1488526913 Gage1 J_1488526913 0.5 17.5 50 0.5 0
S_266273090 Gage1 J_266273090 0.5 14.5 50 0.5 0
S_3096683821 Gage1 J_3096683821 0.5 18.9 50 0.5 0
S_4377707444 Gage1 J_4377707444 0.5 14.2 50 0.5 0
S_4377707454 Gage1 J_4377707454 0.5 12.1 50 0.5 0
S_266273458 Gage1 J_266273458 0.5 32.0 50 0.5 0
S_6141732621 Gage1 J_6141732621 0.5 31.6 50 0.5 0
S_266298086 Gage1 J_266298086 0.5 28.0 50 0.5 0
S_266273460 Gage1 J_266273460 0.5 42.8 50 0.5 0
S_7432244853 Gage1 J_7432244853 0.5 44.6 50 0.5 0
S_266298084 Gage1 J_266298084 0.5 38.3 50 0.5 0
S_266274986 Gage1 J_266274986 0.5 24.9 50 0.5 0
S_266275089 Gage1 J_266275089 0.5 44.1 50 0.5 0
S_10094586223 Gage1 J_10094586223 0.5 31.4 50 0.5 0
S_266275021 Gage1 J_266275021 0.5 46.0 50 0.5 0
S_306615461 Gage1 J_306615461 0.5 40.9 50 0.5 0
S_266275022 Gage1 J_266275022 0.5 43.8 50 0.5 0
S_306615202 Gage1 J_306615202 0.5 40.7 50 0.5 0
S_266275023 Gage1 J_266275023 0.5 27.5 50 0.5 0
S_7432382418 Gage1 J_7432382418 0.5 26.9 50 0.5 0
S_306623067 Gage1 J_306623067 0.5 32.1 50 0.5 0
S_306623066 Gage1 J_306623066 0.5 18.1 50 0.5 0
S_266275088 Gage1 J_266275088 0.5 39.9 50 0.5 0
S_306619953 Gage1 J_306619953 0.5 38.5 50 0.5 0
S_266275456 Gage1 J_266275456 0.5 23.9 50 0.5 0
S_6462301371 Gage1 J_6462301371 0.5 26.6 50 0.5 0
S_2388266844 Gage1 J_2388266844 0.5 10.8 50 0.5 0
S_11007254966 Gage1 J_11007254966 0.5 22.0 50 0.5 0
S_266275460 Gage1 J_266275460 0.5 33.0 50 0.5 0
S_266275461 Gage1 J_266275461 0.5 30.5 50 0.5 0
S_6196907479 Gage1 J_6196907479 0.5 30.6 50 0.5 0
S_11431805314 Gage1 J_11431805314 0.5 13.6 50 0.5 0
S_10211111398 Gage1 J_10211111398 0.5 28.3 50 0.5 0
S_4146211288 Gage1 J_4146211288 0.5 30.4 50 0.5 0
S_266275462 Gage1 J_266275462 0.5 37.3 50 0.5 0
S_5267402570 Gage1 J_5267402570 0.5 28.2 50 0.5 0
S_4146211268 Gage1 J_4146211268 0.5 41.0 50 0.5 0
S_4146211272 Gage1 J_4146211272 0.5 33.4 50 0.5 0
S_266276707 Gage1 J_266276707 0.5 34.6 50 0.5 0
S_266276753 Gage1 J_266276753 0.5 30.1 50 0.5 0
S_6567395240 Gage1 J_6567395240 0.5 39.8 50 0.5 0
S_6143210301 Gage1 J_6143210301 0.5 32.7 50 0.5 0
S_266276754 Gage1 J_266276754 0.5 34.8 50 0.5 0
S_306616974 Gage1 J_306616974 0.5 34.0 50 0.5 0
S_266276755 Gage1 J_266276755 0.5 28.1 50 0.5 0
S_306617098 Gage1 J_306617098 0.5 37.4 50 0.5 0
S_266276756 Gage1 J_266276756 0.5 23.7 50 0.5 0
S_306617018 Gage1 J_306617018 0.5 35.3 50 0.5 0
S_266298089 Gage1 J_266298089 0.5 39.2 50 0.5 0
S_266300662 Gage1 J_266300662 0.5 39.4 50 0.5 0
S_266298087 Gage1 J_266298087 0.5 23.3 50 0.5 0
S_266298092 Gage1 J_266298092 0.5 35.6 50 0.5 0
S_266300742 Gage1 J_266300742 0.5 31.0 50 0.5 0
S_266298091 Gage1 J_266298091 0.5 36.8 50 0.5 0
S_266298093 Gage1 J_266298093 0.5 36.4 50 0.5 0
S_266300657 Gage1 J_266300657 0.5 28.1 50 0.5 0
S_6141732622 Gage1 J_6141732622 0.5 18.9 50 0.5 0
S_3304204552 Gage1 J_3304204552 0.5 24.7 50 0.5 0
S_266300661 Gage1 J_266300661 0.5 24.9 50 0.5 0
S_266300741 Gage1 J_266300741 0.5 20.3 50 0.5 0
S_11663109183 Gage1 J_11663109183 0.5 22.2 50 0.5 0
S_266302974 Gage1 J_266302974 0.5 27.5 50 0.5 0
S_2414639341 Gage1 J_2414639341 0.5 30.7 50 0.5 0
S_266302978 Gage1 J_266302978 0.5 29.8 50 0.5 0
S_5961754417 Gage1 J_5961754417 0.5 30.8 50 0.5 0
S_306614881 Gage1 J_306614881 0.5 34.1 50 0.5 0
S_306614901 Gage1 J_306614901 0.5 51.2 50 0.5 0
S_7432283512 Gage1 J_7432283512 0.5 26.6 50 0.5 0
S_266303004 Gage1 J_266303004 0.5 24.0 50 0.5 0
S_266303953 Gage1 J_266303953 0.5 31.0 50 0.5 0
S_266303064 Gage1 J_266303064 0.5 38.6 50 0.5 0
S_2414639342 Gage1 J_2414639342 0.5 27.6 50 0.5 0
S_266304629 Gage1 J_266304629 0.5 40.2 50 0.5 0
S_2385138309 Gage1 J_2385138309 0.5 21.4 50 0.5 0
S_2414635984 Gage1 J_2414635984 0.5 33.1 50 0.5 0
S_266303623 Gage1 J_266303623 0.5 22.1 50 0.5 0
S_306614842 Gage1 J_306614842 0.5 28.3 50 0.5 0
S_266303624 Gage1 J_266303624 0.5 27.1 50 0.5 0
S_266303625 Gage1 J_266303625 0.5 41.1 50 0.5 0
S_306614967 Gage1 J_306614967 0.5 38.1 50 0.5 0
S_306614850 Gage1 J_306614850 0.5 26.6 50 0.5 0
S_266303626 Gage1 J_266303626 0.5 32.6 50 0.5 0
S_306614734 Gage1 J_306614734 0.5 45.7 50 0.5 0
S_306617634 Gage1 J_306617634 0.5 37.0 50 0.5 0
S_266303627 Gage1 J_266303627 0.5 20.9 50 0.5 0
S_306617742 Gage1 J_306617742 0.5 33.4 50 0.5 0
S_306617687 Gage1 J_306617687 0.5 40.5 50 0.5 0
S_266303628 Gage1 J_266303628 0.5 22.7 50 0.5 0
S_11007453622 Gage1 J_11007453622 0.5 39.9 50 0.5 0
S_266303629 Gage1 J_266303629 0.5 30.2 50 0.5 0
S_306617758 Gage1 J_306617758 0.5 20.0 50 0.5 0
S_306617751 Gage1 J_306617751 0.5 33.1 50 0.5 0
S_9189927178 Gage1 J_9189927178 0.5 39.1 50 0.5 0
S_6178041423 Gage1 J_6178041423 0.5 29.0 50 0.5 0
S_306617686 Gage1 J_306617686 0.5 21.1 50 0.5 0
S_266303954 Gage1 J_266303954 0.5 18.0 50 0.5 0
S_266303955 Gage1 J_266303955 0.5 19.4 50 0.5 0
S_266304630 Gage1 J_266304630 0.5 30.5 50 0.5 0
S_266303956 Gage1 J_266303956 0.5 8.6 50 0.5 0
S_266304631 Gage1 J_266304631 0.5 24.8 50 0.5 0
S_266304632 Gage1 J_266304632 0.5 8.0 50 0.5 0
S_6132249479 Gage1 J_6132249479 0.5 6.9 50 0.5 0
S_266304402 Gage1 J_266304402 0.5 48.8 50 0.5 0
S_266313958 Gage1 J_266313958 0.5 37.6 50 0.5 0
S_306620508 Gage1 J_306620508 0.5 43.1 50 0.5 0
S_266318288 Gage1 J_266318288 0.5 37.8 50 0.5 0
S_308452451 Gage1 J_308452451 0.5 33.3 50 0.5 0
S_308452454 Gage1 J_308452454 0.5 35.2 50 0.5 0
S_5292923940 Gage1 J_5292923940 0.5 33.2 50 0.5 0
S_2407759902 Gage1 J_2407759902 0.5 12.6 50 0.5 0
S_2400167301 Gage1 J_2400167301 0.5 0.2 50 0.5 0
S_3298857091 Gage1 J_3298857091 0.5 46.3 50 0.5 0
S_306621180 Gage1 J_306621180 0.5 36.1 50 0.5 0
S_266310433 Gage1 J_266310433 0.5 42.2 50 0.5 0
S_7432244872 Gage1 J_7432244872 0.5 31.6 50 0.5 0
S_266310437 Gage1 J_266310437 0.5 36.1 50 0.5 0
S_266310471 Gage1 J_266310471 0.5 49.4 50 0.5 0
S_266310441 Gage1 J_266310441 0.5 38.8 50 0.5 0
S_306620828 Gage1 J_306620828 0.5 35.7 50 0.5 0
S_306620318 Gage1 J_306620318 0.5 35.5 50 0.5 0
S_306620866 Gage1 J_306620866 0.5 41.1 50 0.5 0
S_266310445 Gage1 J_266310445 0.5 33.5 50 0.5 0
S_266318286 Gage1 J_266318286 0.5 33.7 50 0.5 0
S_266318343 Gage1 J_266318343 0.5 40.0 50 0.5 0
S_306620825 Gage1 J_306620825 0.5 43.0 50 0.5 0
S_266313980 Gage1 J_266313980 0.5 44.7 50 0.5 0
S_266313984 Gage1 J_266313984 0.5 40.6 50 0.5 0
S_5292300571 Gage1 J_5292300571 0.5 26.3 50 0.5 0
S_266313967 Gage1 J_266313967 0.5 29.7 50 0.5 0
S_306616045 Gage1 J_306616045 0.5 44.1 50 0.5 0
S_11245714088 Gage1 J_11245714088 0.5 29.4 50 0.5 0
S_266313975 Gage1 J_266313975 0.5 40.9 50 0.5 0
S_306622080 Gage1 J_306622080 0.5 45.2 50 0.5 0
S_306616029 Gage1 J_306616029 0.5 38.6 50 0.5 0
S_10094504111 Gage1 J_10094504111 0.5 42.7 50 0.5 0
S_266318628 Gage1 J_266318628 0.5 39.1 50 0.5 0
S_266313990 Gage1 J_266313990 0.5 33.6 50 0.5 0
S_266314020 Gage1 J_266314020 0.5 39.5 50 0.5 0
S_266314026 Gage1 J_266314026 0.5 52.2 50 0.5 0
S_266314031 Gage1 J_266314031 0.5 49.5 50 0.5 0
S_266318996 Gage1 J_266318996 0.5 40.2 50 0.5 0
S_266316218 Gage1 J_266316218 0.5 36.6 50 0.5 0
S_306622275 Gage1 J_306622275 0.5 37.0 50 0.5 0
S_306622887 Gage1 J_306622887 0.5 46.3 50 0.5 0
S_306622206 Gage1 J_306622206 0.5 40.7 50 0.5 0
S_2406084993 Gage1 J_2406084993 0.5 24.2 50 0.5 0
S_266318287 Gage1 J_266318287 0.5 37.2 50 0.5 0
S_306620373 Gage1 J_306620373 0.5 36.9 50 0.5 0
S_9696939532 Gage1 J_9696939532 0.5 36.6 50 0.5 0
S_266318344 Gage1 J_266318344 0.5 32.4 50 0.5 0
S_306620803 Gage1 J_306620803 0.5 43.6 50 0.5 0
S_266318345 Gage1 J_266318345 0.5 40.7 50 0.5 0
S_306620799 Gage1 J_306620799 0.5 46.3 50 0.5 0
S_306620763 Gage1 J_306620763 0.5 42.0 50 0.5 0
S_3298857093 Gage1 J_3298857093 0.5 17.4 50 0.5 0
S_266318627 Gage1 J_266318627 0.5 40.7 50 0.5 0
S_306616044 Gage1 J_306616044 0.5 49.4 50 0.5 0
S_306616092 Gage1 J_306616092 0.5 44.9 50 0.5 0
S_10094504107 Gage1 J_10094504107 0.5 35.0 50 0.5 0
S_10094504110 Gage1 J_10094504110 0.5 27.8 50 0.5 0
S_306608060 Gage1 J_306608060 0.5 11.0 50 0.5 0
S_6131903446 Gage1 J_6131903446 0.5 12.7 50 0.5 0
S_1417443517 Gage1 J_1417443517 0.5 32.0 50 0.5 0
S_306608698 Gage1 J_306608698 0.5 21.6 50 0.5 0
S_2407745349 Gage1 J_2407745349 0.5 9.6 50 0.5 0
S_306608898 Gage1 J_306608898 0.5 45.3 50 0.5 0
S_306608699 Gage1 J_306608699 0.5 37.3 50 0.5 0
S_306613002 Gage1 J_306613002 0.5 32.9 50 0.5 0
S_3287849054 Gage1 J_3287849054 0.5 14.0 50 0.5 0
S_306608700 Gage1 J_306608700 0.5 37.6 50 0.5 0
S_306609212 Gage1 J_306609212 0.5 39.8 50 0.5 0
S_306612973 Gage1 J_306612973 0.5 37.8 50 0.5 0
S_595766458 Gage1 J_595766458 0.5 34.5 50 0.5 0
S_306609696 Gage1 J_306609696 0.5 38.7 50 0.5 0
S_306610173 Gage1 J_306610173 0.5 41.2 50 0.5 0
S_306609958 Gage1 J_306609958 0.5 34.5 50 0.5 0
S_306609759 Gage1 J_306609759 0.5 32.3 50 0.5 0
S_306612919 Gage1 J_306612919 0.5 36.9 50 0.5 0
S_306609760 Gage1 J_306609760 0.5 31.0 50 0.5 0
S_306610572 Gage1 J_306610572 0.5 31.7 50 0.5 0
S_306612931 Gage1 J_306612931 0.5 38.9 50 0.5 0
S_306619696 Gage1 J_306619696 0.5 13.7 50 0.5 0
S_306612958 Gage1 J_306612958 0.5 25.2 50 0.5 0
S_306610154 Gage1 J_306610154 0.5 31.8 50 0.5 0
S_306612930 Gage1 J_306612930 0.5 36.2 50 0.5 0
S_306610155 Gage1 J_306610155 0.5 42.1 50 0.5 0
S_306611495 Gage1 J_306611495 0.5 32.7 50 0.5 0
S_306610573 Gage1 J_306610573 0.5 41.8 50 0.5 0
S_306610698 Gage1 J_306610698 0.5 29.6 50 0.5 0
S_11259448960 Gage1 J_11259448960 0.5 26.3 50 0.5 0
S_306611194 Gage1 J_306611194 0.5 3.8 50 0.5 0
S_306611189 Gage1 J_306611189 0.5 3.7 50 0.5 0
S_306611195 Gage1 J_306611195 0.5 2.5 50 0.5 0
S_2619300330 Gage1 J_2619300330 0.5 3.3 50 0.5 0
S_306611382 Gage1 J_306611382 0.5 15.9 50 0.5 0
S_306611892 Gage1 J_306611892 0.5 12.9 50 0.5 0
S_306619117 Gage1 J_306619117 0.5 11.0 50 0.5 0
S_306611415 Gage1 J_306611415 0.5 27.1 50 0.5 0
S_1417443741 Gage1 J_1417443741 0.5 39.9 50 0.5 0
S_306611644 Gage1 J_306611644 0.5 32.9 50 0.5 0
S_12249984864 Gage1 J_12249984864 0.5 32.1 50 0.5 0
S_595766589 Gage1 J_595766589 0.5 26.8 50 0.5 0
S_306611516 Gage1 J_306611516 0.5 15.9 50 0.5 0
S_306611889 Gage1 J_306611889 0.5 13.2 50 0.5 0
S_10081671362 Gage1 J_10081671362 0.5 26.1 50 0.5 0
S_306611517 Gage1 J_306611517 0.5 32.9 50 0.5 0
S_306611552 Gage1 J_306611552 0.5 27.2 50 0.5 0
S_306611796 Gage1 J_306611796 0.5 29.8 50 0.5 0
S_306612056 Gage1 J_306612056 0.5 41.9 50 0.5 0
S_306611825 Gage1 J_306611825 0.5 24.7 50 0.5 0
S_306612124 Gage1 J_306612124 0.5 27.7 50 0.5 0
S_306611919 Gage1 J_306611919 0.5 12.7 50 0.5 0
S_306611891 Gage1 J_306611891 0.5 9.7 50 0.5 0
S_6182617723 Gage1 J_6182617723 0.5 15.8 50 0.5 0
S_306612586 Gage1 J_306612586 0.5 20.4 50 0.5 0
S_306619140 Gage1 J_306619140 0.5 34.7 50 0.5 0
S_306612221 Gage1 J_306612221 0.5 18.1 50 0.5 0
S_306612001 Gage1 J_306612001 0.5 6.0 50 0.5 0
S_306611966 Gage1 J_306611966 0.5 27.1 50 0.5 0
S_1417443754 Gage1 J_1417443754 0.5 24.4 50 0.5 0
S_7478115610 Gage1 J_7478115610 0.5 25.1 50 0.5 0
S_5267822911 Gage1 J_5267822911 0.5 36.7 50 0.5 0
S_306612467 Gage1 J_306612467 0.5 18.6 50 0.5 0
S_306612483 Gage1 J_306612483 0.5 17.4 50 0.5 0
S_306612013 Gage1 J_306612013 0.5 22.7 50 0.5 0
S_5267822917 Gage1 J_5267822917 0.5 26.1 50 0.5 0
S_5267822918 Gage1 J_5267822918 0.5 23.5 50 0.5 0
S_306612052 Gage1 J_306612052 0.5 24.4 50 0.5 0
S_306612561 Gage1 J_306612561 0.5 25.1 50 0.5 0
S_306612055 Gage1 J_306612055 0.5 20.4 50 0.5 0
S_306612295 Gage1 J_306612295 0.5 26.8 50 0.5 0
S_306612267 Gage1 J_306612267 0.5 36.2 50 0.5 0
S_306612223 Gage1 J_306612223 0.5 32.7 50 0.5 0
S_306612391 Gage1 J_306612391 0.5 26.3 50 0.5 0
S_306612552 Gage1 J_306612552 0.5 27.7 50 0.5 0
S_3149523811 Gage1 J_3149523811 0.5 11.5 50 0.5 0
S_306612618 Gage1 J_306612618 0.5 25.9 50 0.5 0
S_306613918 Gage1 J_306613918 0.5 24.5 50 0.5 0
S_306612710 Gage1 J_306612710 0.5 37.0 50 0.5 0
S_306613150 Gage1 J_306613150 0.5 44.0 50 0.5 0
S_3221362717 Gage1 J_3221362717 0.5 36.7 50 0.5 0
S_12249984863 Gage1 J_12249984863 0.5 24.8 50 0.5 0
S_306612712 Gage1 J_306612712 0.5 40.2 50 0.5 0
S_306613796 Gage1 J_306613796 0.5 34.8 50 0.5 0
S_306613207 Gage1 J_306613207 0.5 40.4 50 0.5 0
S_306612714 Gage1 J_306612714 0.5 26.1 50 0.5 0
S_6529626686 Gage1 J_6529626686 0.5 28.1 50 0.5 0
S_306612914 Gage1 J_306612914 0.5 20.2 50 0.5 0
S_306613125 Gage1 J_306613125 0.5 19.9 50 0.5 0
S_3149523808 Gage1 J_3149523808 0.5 15.1 50 0.5 0
S_9792476719 Gage1 J_9792476719 0.5 27.0 50 0.5 0
S_2450399427 Gage1 J_2450399427 0.5 42.8 50 0.5 0
S_3221362720 Gage1 J_3221362720 0.5 27.2 50 0.5 0
S_306619236 Gage1 J_306619236 0.5 38.4 50 0.5 0
S_306613322 Gage1 J_306613322 0.5 15.8 50 0.5 0
S_306613711 Gage1 J_306613711 0.5 26.3 50 0.5 0
S_306613706 Gage1 J_306613706 0.5 15.8 50 0.5 0
S_11259448969 Gage1 J_11259448969 0.5 28.9 50 0.5 0
S_6142327787 Gage1 J_6142327787 0.5 26.1 50 0.5 0
S_306613917 Gage1 J_306613917 0.5 28.3 50 0.5 0
S_306613955 Gage1 J_306613955 0.5 29.4 50 0.5 0
S_306618000 Gage1 J_306618000 0.5 31.8 50 0.5 0
S_306618152 Gage1 J_306618152 0.5 34.6 50 0.5 0
S_306618047 Gage1 J_306618047 0.5 30.5 50 0.5 0
S_306614002 Gage1 J_306614002 0.5 31.3 50 0.5 0
S_306614043 Gage1 J_306614043 0.5 37.8 50 0.5 0
S_306618040 Gage1 J_306618040 0.5 30.6 50 0.5 0
S_306618049 Gage1 J_306618049 0.5 20.1 50 0.5 0
S_306618037 Gage1 J_306618037 0.5 29.4 50 0.5 0
S_306614003 Gage1 J_306614003 0.5 40.7 50 0.5 0
S_306618051 Gage1 J_306618051 0.5 31.6 50 0.5 0
S_747660349 Gage1 J_747660349 0.5 28.0 50 0.5 0
S_306618038 Gage1 J_306618038 0.5 30.4 50 0.5 0
S_306614045 Gage1 J_306614045 0.5 34.5 50 0.5 0
S_1473885459 Gage1 J_1473885459 0.5 35.2 50 0.5 0
S_13285069336 Gage1 J_13285069336 0.5 32.6 50 0.5 0
S_306614125 Gage1 J_306614125 0.5 43.4 50 0.5 0
S_306618319 Gage1 J_306618319 0.5 36.1 50 0.5 0
S_1488556147 Gage1 J_1488556147 0.5 42.6 50 0.5 0
S_306618148 Gage1 J_306618148 0.5 27.7 50 0.5 0
S_306618203 Gage1 J_306618203 0.5 28.2 50 0.5 0
S_306617982 Gage1 J_306617982 0.5 34.0 50 0.5 0
S_306618031 Gage1 J_306618031 0.5 28.4 50 0.5 0
S_306614479 Gage1 J_306614479 0.5 23.5 50 0.5 0
S_306614480 Gage1 J_306614480 0.5 16.4 50 0.5 0
S_306614924 Gage1 J_306614924 0.5 28.6 50 0.5 0
S_306614481 Gage1 J_306614481 0.5 13.9 50 0.5 0
S_306617731 Gage1 J_306617731 0.5 45.4 50 0.5 0
S_306614738 Gage1 J_306614738 0.5 38.1 50 0.5 0
S_306614832 Gage1 J_306614832 0.5 44.3 50 0.5 0
S_11982570362 Gage1 J_11982570362 0.5 23.2 50 0.5 0
S_306614739 Gage1 J_306614739 0.5 41.1 50 0.5 0
S_6178041421 Gage1 J_6178041421 0.5 48.3 50 0.5 0
S_306617738 Gage1 J_306617738 0.5 37.1 50 0.5 0
S_11982570360 Gage1 J_11982570360 0.5 21.9 50 0.5 0
S_11476594000 Gage1 J_11476594000 0.5 23.9 50 0.5 0
S_306620879 Gage1 J_306620879 0.5 33.4 50 0.5 0
S_306619786 Gage1 J_306619786 0.5 27.5 50 0.5 0
S_306615155 Gage1 J_306615155 0.5 41.0 50 0.5 0
S_306615653 Gage1 J_306615653 0.5 38.9 50 0.5 0
S_306615904 Gage1 J_306615904 0.5 42.6 50 0.5 0
S_306615597 Gage1 J_306615597 0.5 45.9 50 0.5 0
S_306615239 Gage1 J_306615239 0.5 37.9 50 0.5 0
S_306615426 Gage1 J_306615426 0.5 44.7 50 0.5 0
S_306615208 Gage1 J_306615208 0.5 38.2 50 0.5 0
S_306615608 Gage1 J_306615608 0.5 16.4 50 0.5 0
S_306615250 Gage1 J_306615250 0.5 33.1 50 0.5 0
S_306615227 Gage1 J_306615227 0.5 23.8 50 0.5 0
S_3298878325 Gage1 J_3298878325 0.5 26.6 50 0.5 0
S_7432382415 Gage1 J_7432382415 0.5 27.9 50 0.5 0
S_306615877 Gage1 J_306615877 0.5 39.6 50 0.5 0
S_306615629 Gage1 J_306615629 0.5 40.8 50 0.5 0
S_10094586224 Gage1 J_10094586224 0.5 35.0 50 0.5 0
S_306615730 Gage1 J_306615730 0.5 44.4 50 0.5 0
S_306615643 Gage1 J_306615643 0.5 36.9 50 0.5 0
S_306615937 Gage1 J_306615937 0.5 37.5 50 0.5 0
S_306615876 Gage1 J_306615876 0.5 39.7 50 0.5 0
S_306616007 Gage1 J_306616007 0.5 22.1 50 0.5 0
S_306623070 Gage1 J_306623070 0.5 23.3 50 0.5 0
S_306616031 Gage1 J_306616031 0.5 37.7 50 0.5 0
S_5961715635 Gage1 J_5961715635 0.5 40.0 50 0.5 0
S_306622158 Gage1 J_306622158 0.5 47.8 50 0.5 0
S_1054699489 Gage1 J_1054699489 0.5 30.0 50 0.5 0
S_3298878307 Gage1 J_3298878307 0.5 29.6 50 0.5 0
S_306617262 Gage1 J_306617262 0.5 18.9 50 0.5 0
S_11663109186 Gage1 J_11663109186 0.5 24.5 50 0.5 0
S_12680448313 Gage1 J_12680448313 0.5 15.8 50 0.5 0
S_306617283 Gage1 J_306617283 0.5 18.9 50 0.5 0
S_306617463 Gage1 J_306617463 0.5 16.2 50 0.5 0
S_306617457 Gage1 J_306617457 0.5 33.3 50 0.5 0
S_12680448312 Gage1 J_12680448312 0.5 14.5 50 0.5 0
S_306617440 Gage1 J_306617440 0.5 24.8 50 0.5 0
S_306617409 Gage1 J_306617409 0.5 23.4 50 0.5 0
S_306617486 Gage1 J_306617486 0.5 30.9 50 0.5 0
S_306617444 Gage1 J_306617444 0.5 24.2 50 0.5 0
S_306617465 Gage1 J_306617465 0.5 36.0 50 0.5 0
S_9189927179 Gage1 J_9189927179 0.5 21.6 50 0.5 0
S_306617735 Gage1 J_306617735 0.5 37.7 50 0.5 0
S_306617745 Gage1 J_306617745 0.5 35.0 50 0.5 0
S_306618011 Gage1 J_306618011 0.5 30.8 50 0.5 0
S_306618039 Gage1 J_306618039 0.5 26.6 50 0.5 0
S_306618035 Gage1 J_306618035 0.5 28.8 50 0.5 0
S_306618045 Gage1 J_306618045 0.5 27.1 50 0.5 0
S_306618684 Gage1 J_306618684 0.5 17.7 50 0.5 0
S_306619061 Gage1 J_306619061 0.5 22.9 50 0.5 0
S_306619043 Gage1 J_306619043 0.5 33.6 50 0.5 0
S_306618864 Gage1 J_306618864 0.5 27.6 50 0.5 0
S_306618121 Gage1 J_306618121 0.5 31.6 50 0.5 0
S_306618913 Gage1 J_306618913 0.5 24.1 50 0.5 0
S_2447849296 Gage1 J_2447849296 0.5 28.9 50 0.5 0
S_306618053 Gage1 J_306618053 0.5 28.5 50 0.5 0
S_306619089 Gage1 J_306619089 0.5 36.5 50 0.5 0
S_306618845 Gage1 J_306618845 0.5 33.1 50 0.5 0
S_306618089 Gage1 J_306618089 0.5 52.5 50 0.5 0
S_12174120925 Gage1 J_12174120925 0.5 50.8 50 0.5 0
S_306619109 Gage1 J_306619109 0.5 30.6 50 0.5 0
S_306618120 Gage1 J_306618120 0.5 36.7 50 0.5 0
S_306618091 Gage1 J_306618091 0.5 41.9 50 0.5 0
S_6141578243 Gage1 J_6141578243 0.5 33.5 50 0.5 0
S_306618241 Gage1 J_306618241 0.5 26.6 50 0.5 0
S_306618149 Gage1 J_306618149 0.5 32.7 50 0.5 0
S_306618227 Gage1 J_306618227 0.5 37.1 50 0.5 0
S_306618131 Gage1 J_306618131 0.5 26.5 50 0.5 0
S_306618139 Gage1 J_306618139 0.5 34.9 50 0.5 0
S_306619107 Gage1 J_306619107 0.5 35.1 50 0.5 0
S_306618624 Gage1 J_306618624 0.5 22.0 50 0.5 0
S_306618151 Gage1 J_306618151 0.5 28.9 50 0.5 0
S_306618660 Gage1 J_306618660 0.5 29.0 50 0.5 0
S_306618226 Gage1 J_306618226 0.5 33.2 50 0.5 0
S_306618421 Gage1 J_306618421 0.5 38.1 50 0.5 0
S_306618244 Gage1 J_306618244 0.5 29.4 50 0.5 0
S_306618228 Gage1 J_306618228 0.5 27.5 50 0.5 0
S_7478115641 Gage1 J_7478115641 0.5 23.4 50 0.5 0
S_306618229 Gage1 J_306618229 0.5 27.5 50 0.5 0
S_306618243 Gage1 J_306618243 0.5 22.2 50 0.5 0
S_306618242 Gage1 J_306618242 0.5 7.7 50 0.5 0
S_10081725595 Gage1 J_10081725595 0.5 5.3 50 0.5 0
S_306618602 Gage1 J_306618602 0.5 28.7 50 0.5 0
S_306618400 Gage1 J_306618400 0.5 34.3 50 0.5 0
S_306618516 Gage1 J_306618516 0.5 24.1 50 0.5 0
S_306618755 Gage1 J_306618755 0.5 26.2 50 0.5 0
S_306618704 Gage1 J_306618704 0.5 22.3 50 0.5 0
S_7478115630 Gage1 J_7478115630 0.5 22.8 50 0.5 0
S_313460477 Gage1 J_313460477 0.5 17.9 50 0.5 0
S_306618719 Gage1 J_306618719 0.5 32.5 50 0.5 0
S_1417443578 Gage1 J_1417443578 0.5 31.5 50 0.5 0
S_306618743 Gage1 J_306618743 0.5 18.0 50 0.5 0
S_306618811 Gage1 J_306618811 0.5 26.4 50 0.5 0
S_7478115636 Gage1 J_7478115636 0.5 31.5 50 0.5 0
S_306618983 Gage1 J_306618983 0.5 32.3 50 0.5 0
S_306618876 Gage1 J_306618876 0.5 32.5 50 0.5 0
S_306618974 Gage1 J_306618974 0.5 30.4 50 0.5 0
S_306618958 Gage1 J_306618958 0.5 31.6 50 0.5 0
S_306619063 Gage1 J_306619063 0.5 30.6 50 0.5 0
S_7478115632 Gage1 J_7478115632 0.5 32.9 50 0.5 0
S_306619067 Gage1 J_306619067 0.5 31.1 50 0.5 0
S_306619097 Gage1 J_306619097 0.5 35.4 50 0.5 0
S_306619095 Gage1 J_306619095 0.5 25.1 50 0.5 0
S_8984867006 Gage1 J_8984867006 0.5 34.4 50 0.5 0
S_6180287627 Gage1 J_6180287627 0.5 21.5 50 0.5 0
S_7478118969 Gage1 J_7478118969 0.5 25.4 50 0.5 0
S_306619108 Gage1 J_306619108 0.5 19.5 50 0.5 0
S_306619114 Gage1 J_306619114 0.5 25.8 50 0.5 0
S_3161269203 Gage1 J_3161269203 0.5 16.5 50 0.5 0
S_306619112 Gage1 J_306619112 0.5 25.6 50 0.5 0
S_306619111 Gage1 J_306619111 0.5 41.4 50 0.5 0
S_12174120924 Gage1 J_12174120924 0.5 29.7 50 0.5 0
S_306619149 Gage1 J_306619149 0.5 23.6 50 0.5 0
S_6885082500 Gage1 J_6885082500 0.5 19.0 50 0.5 0
S_306619138 Gage1 J_306619138 0.5 17.9 50 0.5 0
S_306619304 Gage1 J_306619304 0.5 35.4 50 0.5 0
S_306619251 Gage1 J_306619251 0.5 41.7 50 0.5 0
S_10081671366 Gage1 J_10081671366 0.5 7.9 50 0.5 0
S_306619537 Gage1 J_306619537 0.5 32.6 50 0.5 0
S_306619290 Gage1 J_306619290 0.5 36.6 50 0.5 0
S_306619548 Gage1 J_306619548 0.5 37.1 50 0.5 0
S_306619358 Gage1 J_306619358 0.5 37.4 50 0.5 0
S_306619613 Gage1 J_306619613 0.5 38.9 50 0.5 0
S_306619459 Gage1 J_306619459 0.5 48.4 50 0.5 0
S_6885082496 Gage1 J_6885082496 0.5 40.1 50 0.5 0
S_306619430 Gage1 J_306619430 0.5 44.5 50 0.5 0
S_306619660 Gage1 J_306619660 0.5 35.8 50 0.5 0
S_5928014162 Gage1 J_5928014162 0.5 14.9 50 0.5 0
S_306619844 Gage1 J_306619844 0.5 29.1 50 0.5 0
S_306619995 Gage1 J_306619995 0.5 35.0 50 0.5 0
S_306619845 Gage1 J_306619845 0.5 44.8 50 0.5 0
S_306619847 Gage1 J_306619847 0.5 37.7 50 0.5 0
S_306620209 Gage1 J_306620209 0.5 43.7 50 0.5 0
S_306620777 Gage1 J_306620777 0.5 40.0 50 0.5 0
S_306620753 Gage1 J_306620753 0.5 38.1 50 0.5 0
S_306620173 Gage1 J_306620173 0.5 34.3 50 0.5 0
S_306620148 Gage1 J_306620148 0.5 32.4 50 0.5 0
S_306620088 Gage1 J_306620088 0.5 31.8 50 0.5 0
S_6887795923 Gage1 J_6887795923 0.5 39.4 50 0.5 0
S_595767079 Gage1 J_595767079 0.5 27.6 50 0.5 0
S_306620210 Gage1 J_306620210 0.5 41.2 50 0.5 0
S_306620788 Gage1 J_306620788 0.5 50.8 50 0.5 0
S_306620795 Gage1 J_306620795 0.5 49.8 50 0.5 0
S_2414639343 Gage1 J_2414639343 0.5 34.6 50 0.5 0
S_306620833 Gage1 J_306620833 0.5 51.6 50 0.5 0
S_306620800 Gage1 J_306620800 0.5 50.8 50 0.5 0
S_306620804 Gage1 J_306620804 0.5 46.3 50 0.5 0
S_306620826 Gage1 J_306620826 0.5 51.2 50 0.5 0
S_306620870 Gage1 J_306620870 0.5 32.2 50 0.5 0
S_306621104 Gage1 J_306621104 0.5 27.6 50 0.5 0
S_2387017508 Gage1 J_2387017508 0.5 19.6 50 0.5 0
S_2447310407 Gage1 J_2447310407 0.5 25.8 50 0.5 0
S_7432244856 Gage1 J_7432244856 0.5 16.8 50 0.5 0
S_306621179 Gage1 J_306621179 0.5 37.8 50 0.5 0
S_2388266816 Gage1 J_2388266816 0.5 35.4 50 0.5 0
S_13475843621 Gage1 J_13475843621 0.5 32.7 50 0.5 0
S_6196261543 Gage1 J_6196261543 0.5 31.5 50 0.5 0
S_7432244870 Gage1 J_7432244870 0.5 41.0 50 0.5 0
S_306621229 Gage1 J_306621229 0.5 19.3 50 0.5 0
S_306621778 Gage1 J_306621778 0.5 34.2 50 0.5 0
S_7432244863 Gage1 J_7432244863 0.5 26.8 50 0.5 0
S_306621270 Gage1 J_306621270 0.5 15.0 50 0.5 0
S_2387127863 Gage1 J_2387127863 0.5 7.7 50 0.5 0
S_306621271 Gage1 J_306621271 0.5 41.2 50 0.5 0
S_5267402569 Gage1 J_5267402569 0.5 31.1 50 0.5 0
S_306621762 Gage1 J_306621762 0.5 40.6 50 0.5 0
S_4146211280 Gage1 J_4146211280 0.5 36.1 50 0.5 0
S_306621654 Gage1 J_306621654 0.5 20.2 50 0.5 0
S_306621921 Gage1 J_306621921 0.5 31.5 50 0.5 0
S_306621760 Gage1 J_306621760 0.5 31.6 50 0.5 0
S_4146211271 Gage1 J_4146211271 0.5 28.1 50 0.5 0
S_306622059 Gage1 J_306622059 0.5 29.1 50 0.5 0
S_306622853 Gage1 J_306622853 0.5 28.7 50 0.5 0
S_306622844 Gage1 J_306622844 0.5 19.7 50 0.5 0
S_306622157 Gage1 J_306622157 0.5 45.2 50 0.5 0
S_6505392518 Gage1 J_6505392518 0.5 23.3 50 0.5 0
S_306622943 Gage1 J_306622943 0.5 41.1 50 0.5 0
S_306622953 Gage1 J_306622953 0.5 36.3 50 0.5 0
S_306622244 Gage1 J_306622244 0.5 38.4 50 0.5 0
S_306622782 Gage1 J_306622782 0.5 35.9 50 0.5 0
S_5267402571 Gage1 J_5267402571 0.5 25.2 50 0.5 0
S_306622845 Gage1 J_306622845 0.5 30.2 50 0.5 0
S_306622934 Gage1 J_306622934 0.5 27.6 50 0.5 0
S_306622967 Gage1 J_306622967 0.5 30.4 50 0.5 0
S_306622884 Gage1 J_306622884 0.5 41.4 50 0.5 0
S_306622935 Gage1 J_306622935 0.5 40.4 50 0.5 0
S_1054699509 Gage1 J_1054699509 0.5 29.5 50 0.5 0
S_306623034 Gage1 J_306623034 0.5 40.3 50 0.5 0
S_306622987 Gage1 J_306622987 0.5 40.5 50 0.5 0
S_306623026 Gage1 J_306623026 0.5 41.0 50 0.5 0
S_306622963 Gage1 J_306622963 0.5 39.5 50 0.5 0
S_306622944 Gage1 J_306622944 0.5 27.5 50 0.5 0
S_306622973 Gage1 J_306622973 0.5 32.2 50 0.5 0
S_1054699551 Gage1 J_1054699551 0.5 26.9 50 0.5 0
S_1054699537 Gage1 J_1054699537 0.5 36.4 50 0.5 0
S_306622975 Gage1 J_306622975 0.5 30.3 50 0.5 0
S_306623023 Gage1 J_306623023 0.5 38.9 50 0.5 0
S_306623000 Gage1 J_306623000 0.5 37.6 50 0.5 0
S_836238547 Gage1 J_836238547 0.5 28.9 50 0.5 0
S_3549124825 Gage1 J_3549124825 0.5 33.3 50 0.5 0
S_306623144 Gage1 J_306623144 0.5 45.4 50 0.5 0
S_3549124908 Gage1 J_3549124908 0.5 18.1 50 0.5 0
S_306623127 Gage1 J_306623127 0.5 28.1 50 0.5 0
S_5267402561 Gage1 J_5267402561 0.5 49.9 50 0.5 0
S_7432244880 Gage1 J_7432244880 0.5 29.4 50 0.5 0
S_306623172 Gage1 J_306623172 0.5 30.7 50 0.5 0
S_306623288 Gage1 J_306623288 0.5 32.1 50 0.5 0
S_306623366 Gage1 J_306623366 0.5 19.9 50 0.5 0
S_306623545 Gage1 J_306623545 0.5 25.0 50 0.5 0
S_7432244881 Gage1 J_7432244881 0.5 34.6 50 0.5 0
S_306623250 Gage1 J_306623250 0.5 42.3 50 0.5 0
S_306623289 Gage1 J_306623289 0.5 33.9 50 0.5 0
S_6143210298 Gage1 J_6143210298 0.5 37.2 50 0.5 0
S_6567395226 Gage1 J_6567395226 0.5 55.6 50 0.5 0
S_306623252 Gage1 J_306623252 0.5 44.2 50 0.5 0
S_306626269 Gage1 J_306626269 0.5 46.4 50 0.5 0
S_6567395231 Gage1 J_6567395231 0.5 43.3 50 0.5 0
S_306623346 Gage1 J_306623346 0.5 28.0 50 0.5 0
S_306623579 Gage1 J_306623579 0.5 26.6 50 0.5 0
S_306623646 Gage1 J_306623646 0.5 31.9 50 0.5 0
S_306623614 Gage1 J_306623614 0.5 35.7 50 0.5 0
S_306623368 Gage1 J_306623368 0.5 34.4 50 0.5 0
S_306624836 Gage1 J_306624836 0.5 41.7 50 0.5 0
S_306623514 Gage1 J_306623514 0.5 36.1 50 0.5 0
S_306623471 Gage1 J_306623471 0.5 44.2 50 0.5 0
S_306623640 Gage1 J_306623640 0.5 41.6 50 0.5 0
S_10094529583 Gage1 J_10094529583 0.5 41.7 50 0.5 0
S_306623540 Gage1 J_306623540 0.5 28.7 50 0.5 0
S_836238514 Gage1 J_836238514 0.5 30.1 50 0.5 0
S_306623632 Gage1 J_306623632 0.5 45.0 50 0.5 0
S_306623633 Gage1 J_306623633 0.5 33.7 50 0.5 0
S_836238561 Gage1 J_836238561 0.5 40.6 50 0.5 0
S_10094529584 Gage1 J_10094529584 0.5 32.1 50 0.5 0
S_306623642 Gage1 J_306623642 0.5 31.4 50 0.5 0
S_6193921852 Gage1 J_6193921852 0.5 31.2 50 0.5 0
S_6193921851 Gage1 J_6193921851 0.5 34.1 50 0.5 0
S_1468908333 Gage1 J_1468908333 0.5 44.7 50 0.5 0
S_306623783 Gage1 J_306623783 0.5 4.4 50 0.5 0
S_4377707469 Gage1 J_4377707469 0.5 9.3 50 0.5 0
S_2387012139 Gage1 J_2387012139 0.5 10.0 50 0.5 0
S_1488526923 Gage1 J_1488526923 0.5 21.9 50 0.5 0
S_306625001 Gage1 J_306625001 0.5 39.3 50 0.5 0
S_306624987 Gage1 J_306624987 0.5 35.7 50 0.5 0
S_306625124 Gage1 J_306625124 0.5 33.0 50 0.5 0
S_306624943 Gage1 J_306624943 0.5 36.9 50 0.5 0
S_306624837 Gage1 J_306624837 0.5 34.4 50 0.5 0
S_306624842 Gage1 J_306624842 0.5 46.9 50 0.5 0
S_306624983 Gage1 J_306624983 0.5 31.8 50 0.5 0
S_306624999 Gage1 J_306624999 0.5 40.0 50 0.5 0
S_306624988 Gage1 J_306624988 0.5 36.3 50 0.5 0
S_7467099419 Gage1 J_7467099419 0.5 36.4 50 0.5 0
S_7467099418 Gage1 J_7467099418 0.5 33.0 50 0.5 0
S_306625194 Gage1 J_306625194 0.5 36.9 50 0.5 0
S_306625286 Gage1 J_306625286 0.5 46.6 50 0.5 0
S_306625203 Gage1 J_306625203 0.5 40.7 50 0.5 0
S_306625106 Gage1 J_306625106 0.5 37.2 50 0.5 0
S_306626042 Gage1 J_306626042 0.5 21.4 50 0.5 0
S_306626118 Gage1 J_306626118 0.5 41.9 50 0.5 0
S_306625656 Gage1 J_306625656 0.5 32.9 50 0.5 0
S_622363166 Gage1 J_622363166 0.5 46.8 50 0.5 0
S_306626245 Gage1 J_306626245 0.5 33.4 50 0.5 0
S_306626120 Gage1 J_306626120 0.5 16.6 50 0.5 0
S_306625687 Gage1 J_306625687 0.5 42.9 50 0.5 0
S_306626041 Gage1 J_306626041 0.5 28.5 50 0.5 0
S_306626116 Gage1 J_306626116 0.5 40.2 50 0.5 0
S_2414635985 Gage1 J_2414635985 0.5 15.3 50 0.5 0
S_306625812 Gage1 J_306625812 0.5 26.0 50 0.5 0
S_306625696 Gage1 J_306625696 0.5 21.3 50 0.5 0
S_2414635986 Gage1 J_2414635986 0.5 20.5 50 0.5 0
S_306625946 Gage1 J_306625946 0.5 24.3 50 0.5 0
S_306625751 Gage1 J_306625751 0.5 20.1 50 0.5 0
S_10094529594 Gage1 J_10094529594 0.5 23.7 50 0.5 0
S_306625994 Gage1 J_306625994 0.5 15.0 50 0.5 0
S_306625818 Gage1 J_306625818 0.5 24.4 50 0.5 0
S_306625861 Gage1 J_306625861 0.5 24.1 50 0.5 0
S_6195583528 Gage1 J_6195583528 0.5 25.4 50 0.5 0
S_306625912 Gage1 J_306625912 0.5 27.7 50 0.5 0
S_6195583527 Gage1 J_6195583527 0.5 26.3 50 0.5 0
S_306625916 Gage1 J_306625916 0.5 25.5 50 0.5 0
S_2414635979 Gage1 J_2414635979 0.5 25.8 50 0.5 0
S_6130692320 Gage1 J_6130692320 0.5 11.7 50 0.5 0
S_306625919 Gage1 J_306625919 0.5 24.4 50 0.5 0
S_2414635981 Gage1 J_2414635981 0.5 20.5 50 0.5 0
S_306625927 Gage1 J_306625927 0.5 7.8 50 0.5 0
S_306625980 Gage1 J_306625980 0.5 12.1 50 0.5 0
S_2273437034 Gage1 J_2273437034 0.5 7.0 50 0.5 0
S_10994556964 Gage1 J_10994556964 0.5 25.9 50 0.5 0
S_306626040 Gage1 J_306626040 0.5 14.1 50 0.5 0
S_306626044 Gage1 J_306626044 0.5 19.0 50 0.5 0
S_306626117 Gage1 J_306626117 0.5 17.3 50 0.5 0
S_622363165 Gage1 J_622363165 0.5 42.8 50 0.5 0
S_6567395234 Gage1 J_6567395234 0.5 39.0 50 0.5 0
S_313460313 Gage1 J_313460313 0.5 25.7 50 0.5 0
S_1488556150 Gage1 J_1488556150 0.5 35.7 50 0.5 0
S_1473871929 Gage1 J_1473871929 0.5 19.4 50 0.5 0
S_10081725591 Gage1 J_10081725591 0.5 32.7 50 0.5 0
S_1488556131 Gage1 J_1488556131 0.5 21.7 50 0.5 0
S_313460396 Gage1 J_313460396 0.5 17.4 50 0.5 0
S_3161269199 Gage1 J_3161269199 0.5 29.4 50 0.5 0
S_3161268847 Gage1 J_3161268847 0.5 18.2 50 0.5 0
S_313460398 Gage1 J_313460398 0.5 31.0 50 0.5 0
S_3096683823 Gage1 J_3096683823 0.5 28.9 50 0.5 0
S_1473871961 Gage1 J_1473871961 0.5 18.9 50 0.5 0
S_5267835373 Gage1 J_5267835373 0.5 25.3 50 0.5 0
S_313460484 Gage1 J_313460484 0.5 27.4 50 0.5 0
S_313460485 Gage1 J_313460485 0.5 30.8 50 0.5 0
S_1417443652 Gage1 J_1417443652 0.5 32.7 50 0.5 0
S_313460550 Gage1 J_313460550 0.5 32.5 50 0.5 0
S_1417443629 Gage1 J_1417443629 0.5 30.6 50 0.5 0
S_10081706680 Gage1 J_10081706680 0.5 35.3 50 0.5 0
S_6528148964 Gage1 J_6528148964 0.5 36.6 50 0.5 0
S_10081706678 Gage1 J_10081706678 0.5 42.0 50 0.5 0
S_313460551 Gage1 J_313460551 0.5 28.7 50 0.5 0
S_2450399408 Gage1 J_2450399408 0.5 31.5 50 0.5 0
S_2450399406 Gage1 J_2450399406 0.5 27.9 50 0.5 0
S_348036183 Gage1 J_348036183 0.5 52.3 50 0.5 0
S_3149541717 Gage1 J_3149541717 0.5 49.1 50 0.5 0
S_3149541720 Gage1 J_3149541720 0.5 54.0 50 0.5 0
S_7327251302 Gage1 J_7327251302 0.5 27.5 50 0.5 0
S_417298245 Gage1 J_417298245 0.5 37.0 50 0.5 0
S_4918203529 Gage1 J_4918203529 0.5 39.7 50 0.5 0
S_1471714437 Gage1 J_1471714437 0.5 50.2 50 0.5 0
S_1481366487 Gage1 J_1481366487 0.5 33.7 50 0.5 0
S_650140575 Gage1 J_650140575 0.5 3.2 50 0.5 0
S_650141428 Gage1 J_650141428 0.5 1.7 50 0.5 0
S_2400167287 Gage1 J_2400167287 0.5 5.7 50 0.5 0
S_650141087 Gage1 J_650141087 0.5 10.0 50 0.5 0
S_650141020 Gage1 J_650141020 0.5 6.2 50 0.5 0
S_2385141385 Gage1 J_2385141385 0.5 2.4 50 0.5 0
S_2387017507 Gage1 J_2387017507 0.5 12.6 50 0.5 0
S_1653906408 Gage1 J_1653906408 0.5 6.6 50 0.5 0
S_747660340 Gage1 J_747660340 0.5 15.2 50 0.5 0
S_3235639712 Gage1 J_3235639712 0.5 4.7 50 0.5 0
S_2389119100 Gage1 J_2389119100 0.5 12.7 50 0.5 0
S_747660344 Gage1 J_747660344 0.5 39.3 50 0.5 0
S_3149523801 Gage1 J_3149523801 0.5 36.4 50 0.5 0
S_13152778980 Gage1 J_13152778980 0.5 25.0 50 0.5 0
S_1417443691 Gage1 J_1417443691 0.5 39.9 50 0.5 0
S_2450399422 Gage1 J_2450399422 0.5 25.1 50 0.5 0
S_11259448973 Gage1 J_11259448973 0.5 25.1 50 0.5 0
S_3549123747 Gage1 J_3549123747 0.5 43.4 50 0.5 0
S_836238551 Gage1 J_836238551 0.5 37.5 50 0.5 0
S_10001905133 Gage1 J_10001905133 0.5 48.6 50 0.5 0
S_3549124910 Gage1 J_3549124910 0.5 29.1 50 0.5 0
S_10001905132 Gage1 J_10001905132 0.5 23.1 50 0.5 0
S_836238553 Gage1 J_836238553 0.5 42.8 50 0.5 0
S_3549124811 Gage1 J_3549124811 0.5 42.2 50 0.5 0
S_3549123780 Gage1 J_3549123780 0.5 17.9 50 0.5 0
S_5267369428 Gage1 J_5267369428 0.5 42.1 50 0.5 0
S_3549123729 Gage1 J_3549123729 0.5 38.0 50 0.5 0
S_5267369424 Gage1 J_5267369424 0.5 22.0 50 0.5 0
S_1278162234 Gage1 J_1278162234 0.5 57.1 50 0.5 0
S_1278162335 Gage1 J_1278162335 0.5 56.3 50 0.5 0
S_10153868763 Gage1 J_10153868763 0.5 62.6 50 0.5 0
S_3158788597 Gage1 J_3158788597 0.5 47.8 50 0.5 0
S_1278162239 Gage1 J_1278162239 0.5 53.6 50 0.5 0
S_10839366478 Gage1 J_10839366478 0.5 53.8 50 0.5 0
S_11385670152 Gage1 J_11385670152 0.5 60.5 50 0.5 0
S_1278162252 Gage1 J_1278162252 0.5 59.8 50 0.5 0
S_3158788604 Gage1 J_3158788604 0.5 61.8 50 0.5 0
S_1278162290 Gage1 J_1278162290 0.5 28.1 50 0.5 0
S_6454862032 Gage1 J_6454862032 0.5 64.7 50 0.5 0
S_1278162256 Gage1 J_1278162256 0.5 22.2 50 0.5 0
S_7432244834 Gage1 J_7432244834 0.5 20.0 50 0.5 0
S_1377861068 Gage1 J_1377861068 0.5 55.1 50 0.5 0
S_1278162270 Gage1 J_1278162270 0.5 28.6 50 0.5 0
S_3149542145 Gage1 J_3149542145 0.5 27.6 50 0.5 0
S_7432244840 Gage1 J_7432244840 0.5 58.4 50 0.5 0
S_3158788133 Gage1 J_3158788133 0.5 25.4 50 0.5 0
S_1278162293 Gage1 J_1278162293 0.5 1.1 50 0.5 0
S_1278162286 Gage1 J_1278162286 0.5 59.3 50 0.5 0
S_3158788120 Gage1 J_3158788120 0.5 61.1 50 0.5 0
S_3149542147 Gage1 J_3149542147 0.5 61.8 50 0.5 0
S_11385626668 Gage1 J_11385626668 0.5 61.5 50 0.5 0
S_6454862031 Gage1 J_6454862031 0.5 34.5 50 0.5 0
S_3158788134 Gage1 J_3158788134 0.5 21.8 50 0.5 0
S_1377861139 Gage1 J_1377861139 0.5 2.8 50 0.5 0
S_1278162311 Gage1 J_1278162311 0.5 60.8 50 0.5 0
S_1278162357 Gage1 J_1278162357 0.5 54.5 50 0.5 0
S_3158788574 Gage1 J_3158788574 0.5 40.9 50 0.5 0
S_3158788139 Gage1 J_3158788139 0.5 66.4 50 0.5 0
S_13279121428 Gage1 J_13279121428 0.5 57.4 50 0.5 0
S_13415110849 Gage1 J_13415110849 0.5 48.0 50 0.5 0
S_1377861052 Gage1 J_1377861052 0.5 59.3 50 0.5 0
S_1377861085 Gage1 J_1377861085 0.5 42.3 50 0.5 0
S_6531845899 Gage1 J_6531845899 0.5 53.3 50 0.5 0
S_6142604397 Gage1 J_6142604397 0.5 64.9 50 0.5 0
S_1377861055 Gage1 J_1377861055 0.5 58.6 50 0.5 0
S_10081671262 Gage1 J_10081671262 0.5 62.7 50 0.5 0
S_3149541686 Gage1 J_3149541686 0.5 57.8 50 0.5 0
S_3158788600 Gage1 J_3158788600 0.5 66.8 50 0.5 0
S_3158788633 Gage1 J_3158788633 0.5 42.7 50 0.5 0
S_11012063564 Gage1 J_11012063564 0.5 61.2 50 0.5 0
S_1377861070 Gage1 J_1377861070 0.5 32.1 50 0.5 0
S_3761074302 Gage1 J_3761074302 0.5 45.1 50 0.5 0
S_1377861078 Gage1 J_1377861078 0.5 44.2 50 0.5 0
S_1377861121 Gage1 J_1377861121 0.5 42.2 50 0.5 0
S_3149541700 Gage1 J_3149541700 0.5 33.0 50 0.5 0
S_1377861114 Gage1 J_1377861114 0.5 37.6 50 0.5 0
S_2407764624 Gage1 J_2407764624 0.5 45.7 50 0.5 0
S_1377861103 Gage1 J_1377861103 0.5 36.8 50 0.5 0
S_13410465942 Gage1 J_13410465942 0.5 36.7 50 0.5 0
S_2407764625 Gage1 J_2407764625 0.5 55.1 50 0.5 0
S_4582754028 Gage1 J_4582754028 0.5 35.5 50 0.5 0
S_1377861104 Gage1 J_1377861104 0.5 52.1 50 0.5 0
S_6518859305 Gage1 J_6518859305 0.5 54.8 50 0.5 0
S_6518859320 Gage1 J_6518859320 0.5 52.0 50 0.5 0
S_4918188102 Gage1 J_4918188102 0.5 54.2 50 0.5 0
S_1377861123 Gage1 J_1377861123 0.5 47.1 50 0.5 0
S_11387496338 Gage1 J_11387496338 0.5 49.6 50 0.5 0
S_4415687414 Gage1 J_4415687414 0.5 42.0 50 0.5 0
S_2110371291 Gage1 J_2110371291 0.5 19.6 50 0.5 0
S_1377861129 Gage1 J_1377861129 0.5 60.6 50 0.5 0
S_3149541689 Gage1 J_3149541689 0.5 59.9 50 0.5 0
S_7478257546 Gage1 J_7478257546 0.5 55.6 50 0.5 0
S_3158788115 Gage1 J_3158788115 0.5 63.0 50 0.5 0
S_3158788135 Gage1 J_3158788135 0.5 23.5 50 0.5 0
S_2406072874 Gage1 J_2406072874 0.5 0.6 50 0.5 0
S_3158788624 Gage1 J_3158788624 0.5 11.7 50 0.5 0
S_1417443438 Gage1 J_1417443438 0.5 9.8 50 0.5 0
S_2057491159 Gage1 J_2057491159 0.5 10.1 50 0.5 0
S_1488526915 Gage1 J_1488526915 0.5 15.8 50 0.5 0
S_4377707475 Gage1 J_4377707475 0.5 9.8 50 0.5 0
S_1417443496 Gage1 J_1417443496 0.5 10.1 50 0.5 0
S_5493854958 Gage1 J_5493854958 0.5 19.6 50 0.5 0
S_1488526892 Gage1 J_1488526892 0.5 11.6 50 0.5 0
S_1417443503 Gage1 J_1417443503 0.5 21.3 50 0.5 0
S_7432244850 Gage1 J_7432244850 0.5 25.0 50 0.5 0
S_1488526889 Gage1 J_1488526889 0.5 21.9 50 0.5 0
S_1488526909 Gage1 J_1488526909 0.5 23.9 50 0.5 0
S_1417443508 Gage1 J_1417443508 0.5 16.5 50 0.5 0
S_3161269164 Gage1 J_3161269164 0.5 14.1 50 0.5 0
S_3504342593 Gage1 J_3504342593 0.5 49.9 50 0.5 0
S_1417443542 Gage1 J_1417443542 0.5 29.7 50 0.5 0
S_1417443612 Gage1 J_1417443612 0.5 36.3 50 0.5 0
S_6528148952 Gage1 J_6528148952 0.5 33.7 50 0.5 0
S_10989273453 Gage1 J_10989273453 0.5 22.5 50 0.5 0
S_1417443557 Gage1 J_1417443557 0.5 3.8 50 0.5 0
S_6528148954 Gage1 J_6528148954 0.5 17.6 50 0.5 0
S_6528148957 Gage1 J_6528148957 0.5 19.2 50 0.5 0
S_1417443563 Gage1 J_1417443563 0.5 46.5 50 0.5 0
S_1417443584 Gage1 J_1417443584 0.5 41.9 50 0.5 0
S_10081725588 Gage1 J_10081725588 0.5 19.3 50 0.5 0
S_10081671394 Gage1 J_10081671394 0.5 21.4 50 0.5 0
S_6528148966 Gage1 J_6528148966 0.5 37.9 50 0.5 0
S_6528148967 Gage1 J_6528148967 0.5 42.7 50 0.5 0
S_1417443628 Gage1 J_1417443628 0.5 17.3 50 0.5 0
S_6528148968 Gage1 J_6528148968 0.5 16.5 50 0.5 0
S_1417443633 Gage1 J_1417443633 0.5 29.6 50 0.5 0
S_6528148969 Gage1 J_6528148969 0.5 29.1 50 0.5 0
S_5493844924 Gage1 J_5493844924 0.5 7.7 50 0.5 0
S_1488526924 Gage1 J_1488526924 0.5 26.7 50 0.5 0
S_6528148971 Gage1 J_6528148971 0.5 34.2 50 0.5 0
S_1417443659 Gage1 J_1417443659 0.5 25.0 50 0.5 0
S_6528148973 Gage1 J_6528148973 0.5 26.1 50 0.5 0
S_9743339252 Gage1 J_9743339252 0.5 31.4 50 0.5 0
S_1417443666 Gage1 J_1417443666 0.5 27.6 50 0.5 0
S_2450399430 Gage1 J_2450399430 0.5 27.9 50 0.5 0
S_3235639719 Gage1 J_3235639719 0.5 35.4 50 0.5 0
S_3235639720 Gage1 J_3235639720 0.5 39.5 50 0.5 0
S_1417443716 Gage1 J_1417443716 0.5 35.8 50 0.5 0
S_6142327790 Gage1 J_6142327790 0.5 33.1 50 0.5 0
S_10081671376 Gage1 J_10081671376 0.5 32.6 50 0.5 0
S_1417443726 Gage1 J_1417443726 0.5 41.9 50 0.5 0
S_6180272976 Gage1 J_6180272976 0.5 47.7 50 0.5 0
S_1417443734 Gage1 J_1417443734 0.5 43.2 50 0.5 0
S_10081671363 Gage1 J_10081671363 0.5 46.6 50 0.5 0
S_1417443736 Gage1 J_1417443736 0.5 35.0 50 0.5 0
S_12196455086 Gage1 J_12196455086 0.5 21.0 50 0.5 0
S_1417443740 Gage1 J_1417443740 0.5 42.8 50 0.5 0
S_10081671364 Gage1 J_10081671364 0.5 25.9 50 0.5 0
S_6193921850 Gage1 J_6193921850 0.5 46.6 50 0.5 0
S_1471714099 Gage1 J_1471714099 0.5 26.0 50 0.5 0
S_1481354885 Gage1 J_1481354885 0.5 25.3 50 0.5 0
S_4918188103 Gage1 J_4918188103 0.5 54.9 50 0.5 0
S_1473826426 Gage1 J_1473826426 0.5 64.5 50 0.5 0
S_1473826428 Gage1 J_1473826428 0.5 56.8 50 0.5 0
S_1481366489 Gage1 J_1481366489 0.5 56.4 50 0.5 0
S_5388494824 Gage1 J_5388494824 0.5 53.5 50 0.5 0
S_1473826436 Gage1 J_1473826436 0.5 66.9 50 0.5 0
S_1473871923 Gage1 J_1473871923 0.5 32.1 50 0.5 0
S_7432244843 Gage1 J_7432244843 0.5 29.3 50 0.5 0
S_1473871926 Gage1 J_1473871926 0.5 21.1 50 0.5 0
S_1473871955 Gage1 J_1473871955 0.5 26.7 50 0.5 0
S_1488526920 Gage1 J_1488526920 0.5 20.4 50 0.5 0
S_1473871954 Gage1 J_1473871954 0.5 22.1 50 0.5 0
S_7432244844 Gage1 J_7432244844 0.5 21.0 50 0.5 0
S_1473871927 Gage1 J_1473871927 0.5 12.4 50 0.5 0
S_1473871937 Gage1 J_1473871937 0.5 17.9 50 0.5 0
S_10094580864 Gage1 J_10094580864 0.5 23.3 50 0.5 0
S_5267823521 Gage1 J_5267823521 0.5 17.9 50 0.5 0
S_1473871942 Gage1 J_1473871942 0.5 34.7 50 0.5 0
S_3096683824 Gage1 J_3096683824 0.5 26.2 50 0.5 0
S_1473871936 Gage1 J_1473871936 0.5 19.7 50 0.5 0
S_1473871947 Gage1 J_1473871947 0.5 22.3 50 0.5 0
S_1473871956 Gage1 J_1473871956 0.5 11.8 50 0.5 0
S_1473871957 Gage1 J_1473871957 0.5 12.0 50 0.5 0
S_1473871959 Gage1 J_1473871959 0.5 31.4 50 0.5 0
S_1473871938 Gage1 J_1473871938 0.5 29.4 50 0.5 0
S_7432244848 Gage1 J_7432244848 0.5 25.0 50 0.5 0
S_1473871941 Gage1 J_1473871941 0.5 24.5 50 0.5 0
S_1473871958 Gage1 J_1473871958 0.5 23.3 50 0.5 0
S_7432244847 Gage1 J_7432244847 0.5 27.6 50 0.5 0
S_7432244845 Gage1 J_7432244845 0.5 19.4 50 0.5 0
S_7432244846 Gage1 J_7432244846 0.5 20.6 50 0.5 0
S_1473885237 Gage1 J_1473885237 0.5 30.4 50 0.5 0
S_1473885223 Gage1 J_1473885223 0.5 29.1 50 0.5 0
S_7432244854 Gage1 J_7432244854 0.5 33.3 50 0.5 0
S_1473885226 Gage1 J_1473885226 0.5 19.2 50 0.5 0
S_1473885458 Gage1 J_1473885458 0.5 34.7 50 0.5 0
S_1473885439 Gage1 J_1473885439 0.5 22.8 50 0.5 0
S_11663050338 Gage1 J_11663050338 0.5 13.9 50 0.5 0
S_1473890785 Gage1 J_1473890785 0.5 39.2 50 0.5 0
S_12695945997 Gage1 J_12695945997 0.5 31.6 50 0.5 0
S_6178041424 Gage1 J_6178041424 0.5 36.2 50 0.5 0
S_6463519072 Gage1 J_6463519072 0.5 28.2 50 0.5 0
S_1473890791 Gage1 J_1473890791 0.5 44.4 50 0.5 0
S_6178041420 Gage1 J_6178041420 0.5 33.8 50 0.5 0
S_12151399348 Gage1 J_12151399348 0.5 25.0 50 0.5 0
S_1477138900 Gage1 J_1477138900 0.5 10.0 50 0.5 0
S_1481354884 Gage1 J_1481354884 0.5 51.1 50 0.5 0
S_4918188104 Gage1 J_4918188104 0.5 56.9 50 0.5 0
S_6130764691 Gage1 J_6130764691 0.5 18.0 50 0.5 0
S_11387517314 Gage1 J_11387517314 0.5 36.7 50 0.5 0
S_1488526851 Gage1 J_1488526851 0.5 21.2 50 0.5 0
S_1488526884 Gage1 J_1488526884 0.5 26.0 50 0.5 0
S_1488526859 Gage1 J_1488526859 0.5 13.4 50 0.5 0
S_1488526883 Gage1 J_1488526883 0.5 14.5 50 0.5 0
S_1488526869 Gage1 J_1488526869 0.5 17.5 50 0.5 0
S_1488526866 Gage1 J_1488526866 0.5 19.2 50 0.5 0
S_11665987959 Gage1 J_11665987959 0.5 18.9 50 0.5 0
S_1488526894 Gage1 J_1488526894 0.5 21.7 50 0.5 0
S_1488526919 Gage1 J_1488526919 0.5 16.2 50 0.5 0
S_6152326682 Gage1 J_6152326682 0.5 10.0 50 0.5 0
S_1488526911 Gage1 J_1488526911 0.5 21.7 50 0.5 0
S_5267823528 Gage1 J_5267823528 0.5 21.7 50 0.5 0
S_5493854959 Gage1 J_5493854959 0.5 29.6 50 0.5 0
S_6567100315 Gage1 J_6567100315 0.5 11.1 50 0.5 0
S_4377707474 Gage1 J_4377707474 0.5 22.8 50 0.5 0
S_1488526896 Gage1 J_1488526896 0.5 13.3 50 0.5 0
S_3168039449 Gage1 J_3168039449 0.5 19.7 50 0.5 0
S_3538106723 Gage1 J_3538106723 0.5 22.5 50 0.5 0
S_5267823527 Gage1 J_5267823527 0.5 29.3 50 0.5 0
S_7432244851 Gage1 J_7432244851 0.5 18.9 50 0.5 0
S_4377707480 Gage1 J_4377707480 0.5 20.9 50 0.5 0
S_3168039448 Gage1 J_3168039448 0.5 20.1 50 0.5 0
S_10094580887 Gage1 J_10094580887 0.5 27.2 50 0.5 0
S_10094580889 Gage1 J_10094580889 0.5 29.1 50 0.5 0
S_1608973468 Gage1 J_1608973468 0.5 3.3 50 0.5 0
S_12067305544 Gage1 J_12067305544 0.5 1.5 50 0.5 0
S_1645178560 Gage1 J_1645178560 0.5 6.5 50 0.5 0
S_6463569335 Gage1 J_6463569335 0.5 4.7 50 0.5 0
S_650141496 Gage1 J_650141496 0.5 5.6 50 0.5 0
S_1653906433 Gage1 J_1653906433 0.5 5.2 50 0.5 0
S_2389125034 Gage1 J_2389125034 0.5 3.5 50 0.5 0
S_2407745357 Gage1 J_2407745357 0.5 6.3 50 0.5 0
S_1653906436 Gage1 J_1653906436 0.5 9.1 50 0.5 0
S_11977577698 Gage1 J_11977577698 0.5 13.4 50 0.5 0
S_11260122965 Gage1 J_11260122965 0.5 5.7 50 0.5 0
S_2019288831 Gage1 J_2019288831 0.5 17.0 50 0.5 0
S_6141722653 Gage1 J_6141722653 0.5 21.8 50 0.5 0
S_6141722656 Gage1 J_6141722656 0.5 17.6 50 0.5 0
S_2019288832 Gage1 J_2019288832 0.5 11.6 50 0.5 0
S_6141722658 Gage1 J_6141722658 0.5 14.7 50 0.5 0
S_2110371293 Gage1 J_2110371293 0.5 12.7 50 0.5 0
S_11260122968 Gage1 J_11260122968 0.5 8.8 50 0.5 0
S_3761074303 Gage1 J_3761074303 0.5 20.5 50 0.5 0
S_2127279448 Gage1 J_2127279448 0.5 8.6 50 0.5 0
S_6884276685 Gage1 J_6884276685 0.5 11.4 50 0.5 0
S_2414635978 Gage1 J_2414635978 0.5 8.8 50 0.5 0
S_2385141390 Gage1 J_2385141390 0.5 3.1 50 0.5 0
S_3826045400 Gage1 J_3826045400 0.5 0.7 50 0.5 0
S_2387017402 Gage1 J_2387017402 0.5 23.0 50 0.5 0
S_6130226927 Gage1 J_6130226927 0.5 25.7 50 0.5 0
S_6131800547 Gage1 J_6131800547 0.5 18.1 50 0.5 0
S_2387173529 Gage1 J_2387173529 0.5 15.8 50 0.5 0
S_2387173530 Gage1 J_2387173530 0.5 7.5 50 0.5 0
S_2407763129 Gage1 J_2407763129 0.5 7.7 50 0.5 0
S_2388266803 Gage1 J_2388266803 0.5 38.6 50 0.5 0
S_2388266830 Gage1 J_2388266830 0.5 40.4 50 0.5 0
S_2509419434 Gage1 J_2509419434 0.5 32.4 50 0.5 0
S_4146210958 Gage1 J_4146210958 0.5 39.7 50 0.5 0
S_2388266812 Gage1 J_2388266812 0.5 33.4 50 0.5 0
S_7432244869 Gage1 J_7432244869 0.5 39.5 50 0.5 0
S_11007263820 Gage1 J_11007263820 0.5 33.9 50 0.5 0
S_4146211277 Gage1 J_4146211277 0.5 35.5 50 0.5 0
S_3543166934 Gage1 J_3543166934 0.5 37.4 50 0.5 0
S_7429952410 Gage1 J_7429952410 0.5 33.6 50 0.5 0
S_2388266833 Gage1 J_2388266833 0.5 31.3 50 0.5 0
S_2509419436 Gage1 J_2509419436 0.5 29.9 50 0.5 0
S_2388266836 Gage1 J_2388266836 0.5 26.3 50 0.5 0
S_5267402566 Gage1 J_5267402566 0.5 27.5 50 0.5 0
S_11903564939 Gage1 J_11903564939 0.5 12.8 50 0.5 0
S_2389119097 Gage1 J_2389119097 0.5 37.8 50 0.5 0
S_3235639716 Gage1 J_3235639716 0.5 36.9 50 0.5 0
S_3149523797 Gage1 J_3149523797 0.5 40.5 50 0.5 0
S_11977577699 Gage1 J_11977577699 0.5 8.7 50 0.5 0
S_2399992907 Gage1 J_2399992907 0.5 17.8 50 0.5 0
S_10094504108 Gage1 J_10094504108 0.5 18.1 50 0.5 0
S_10094504105 Gage1 J_10094504105 0.5 35.8 50 0.5 0
S_3298857094 Gage1 J_3298857094 0.5 21.3 50 0.5 0
S_3287849051 Gage1 J_3287849051 0.5 4.2 50 0.5 0
S_11374930009 Gage1 J_11374930009 0.5 19.4 50 0.5 0
S_10081671286 Gage1 J_10081671286 0.5 2.4 50 0.5 0
S_2407764622 Gage1 J_2407764622 0.5 45.0 50 0.5 0
S_6531845897 Gage1 J_6531845897 0.5 67.8 50 0.5 0
S_6531845895 Gage1 J_6531845895 0.5 47.4 50 0.5 0
S_2414626606 Gage1 J_2414626606 0.5 19.3 50 0.5 0
S_6887565739 Gage1 J_6887565739 0.5 20.4 50 0.5 0
S_2447310402 Gage1 J_2447310402 0.5 29.5 50 0.5 0
S_2447310404 Gage1 J_2447310404 0.5 35.1 50 0.5 0
S_2447310403 Gage1 J_2447310403 0.5 19.1 50 0.5 0
S_6130226930 Gage1 J_6130226930 0.5 16.8 50 0.5 0
S_2447310406 Gage1 J_2447310406 0.5 17.0 50 0.5 0
S_6130226931 Gage1 J_6130226931 0.5 39.4 50 0.5 0
S_6131800546 Gage1 J_6131800546 0.5 34.6 50 0.5 0
S_2450399417 Gage1 J_2450399417 0.5 13.9 50 0.5 0
S_2450399435 Gage1 J_2450399435 0.5 26.3 50 0.5 0
S_2450399416 Gage1 J_2450399416 0.5 31.3 50 0.5 0
S_2450399415 Gage1 J_2450399415 0.5 12.0 50 0.5 0
S_2450399433 Gage1 J_2450399433 0.5 19.5 50 0.5 0
S_2450399429 Gage1 J_2450399429 0.5 25.8 50 0.5 0
S_11259448953 Gage1 J_11259448953 0.5 23.6 50 0.5 0
S_6528148976 Gage1 J_6528148976 0.5 29.0 50 0.5 0
S_3149523809 Gage1 J_3149523809 0.5 43.2 50 0.5 0
S_3149523807 Gage1 J_3149523807 0.5 41.4 50 0.5 0
S_10172729085 Gage1 J_10172729085 0.5 41.2 50 0.5 0
S_2509419432 Gage1 J_2509419432 0.5 14.3 50 0.5 0
S_12073866974 Gage1 J_12073866974 0.5 12.9 50 0.5 0
S_7432244857 Gage1 J_7432244857 0.5 31.5 50 0.5 0
S_2509419435 Gage1 J_2509419435 0.5 22.0 50 0.5 0
S_3161269196 Gage1 J_3161269196 0.5 30.2 50 0.5 0
S_6901563123 Gage1 J_6901563123 0.5 38.3 50 0.5 0
S_7086183227 Gage1 J_7086183227 0.5 26.3 50 0.5 0
S_3149523798 Gage1 J_3149523798 0.5 42.4 50 0.5 0
S_3149523799 Gage1 J_3149523799 0.5 12.8 50 0.5 0
S_3149523802 Gage1 J_3149523802 0.5 43.7 50 0.5 0
S_3149523800 Gage1 J_3149523800 0.5 12.5 50 0.5 0
S_3149523803 Gage1 J_3149523803 0.5 36.0 50 0.5 0
S_3149523804 Gage1 J_3149523804 0.5 29.8 50 0.5 0
S_3149523806 Gage1 J_3149523806 0.5 31.2 50 0.5 0
S_5389382766 Gage1 J_5389382766 0.5 53.4 50 0.5 0
S_3149541696 Gage1 J_3149541696 0.5 62.6 50 0.5 0
S_3149541706 Gage1 J_3149541706 0.5 62.7 50 0.5 0
S_3149541705 Gage1 J_3149541705 0.5 54.2 50 0.5 0
S_10081671278 Gage1 J_10081671278 0.5 50.1 50 0.5 0
S_3149541704 Gage1 J_3149541704 0.5 61.4 50 0.5 0
S_3149541707 Gage1 J_3149541707 0.5 63.4 50 0.5 0
S_10081671274 Gage1 J_10081671274 0.5 62.7 50 0.5 0
S_3149541708 Gage1 J_3149541708 0.5 61.5 50 0.5 0
S_10081671276 Gage1 J_10081671276 0.5 54.8 50 0.5 0
S_10081671275 Gage1 J_10081671275 0.5 57.7 50 0.5 0
S_3149541710 Gage1 J_3149541710 0.5 54.0 50 0.5 0
S_10081671277 Gage1 J_10081671277 0.5 55.5 50 0.5 0
S_3149542132 Gage1 J_3149542132 0.5 45.8 50 0.5 0
S_3158788637 Gage1 J_3158788637 0.5 48.7 50 0.5 0
S_3158788638 Gage1 J_3158788638 0.5 26.4 50 0.5 0
S_6137799426 Gage1 J_6137799426 0.5 34.5 50 0.5 0
S_3149542136 Gage1 J_3149542136 0.5 52.4 50 0.5 0
S_3158788639 Gage1 J_3158788639 0.5 53.2 50 0.5 0
S_3158788641 Gage1 J_3158788641 0.5 56.2 50 0.5 0
S_9840710126 Gage1 J_9840710126 0.5 18.9 50 0.5 0
S_3158788131 Gage1 J_3158788131 0.5 47.3 50 0.5 0
S_3149542146 Gage1 J_3149542146 0.5 63.8 50 0.5 0
S_3158788114 Gage1 J_3158788114 0.5 61.6 50 0.5 0
S_3158788105 Gage1 J_3158788105 0.5 51.7 50 0.5 0
S_3158788145 Gage1 J_3158788145 0.5 54.5 50 0.5 0
S_3158788662 Gage1 J_3158788662 0.5 49.8 50 0.5 0
S_13415111434 Gage1 J_13415111434 0.5 40.7 50 0.5 0
S_3158788107 Gage1 J_3158788107 0.5 54.0 50 0.5 0
S_3158788108 Gage1 J_3158788108 0.5 53.6 50 0.5 0
S_7432244830 Gage1 J_7432244830 0.5 55.1 50 0.5 0
S_5388494832 Gage1 J_5388494832 0.5 49.0 50 0.5 0
S_3158788608 Gage1 J_3158788608 0.5 54.6 50 0.5 0
S_3158788144 Gage1 J_3158788144 0.5 67.8 50 0.5 0
S_13410902781 Gage1 J_13410902781 0.5 57.3 50 0.5 0
S_3158788110 Gage1 J_3158788110 0.5 60.8 50 0.5 0
S_7432244839 Gage1 J_7432244839 0.5 58.5 50 0.5 0
S_3158788140 Gage1 J_3158788140 0.5 63.6 50 0.5 0
S_3158788112 Gage1 J_3158788112 0.5 58.1 50 0.5 0
S_3158788116 Gage1 J_3158788116 0.5 62.4 50 0.5 0
S_3158788113 Gage1 J_3158788113 0.5 48.2 50 0.5 0
S_3158788118 Gage1 J_3158788118 0.5 60.8 50 0.5 0
S_11385670151 Gage1 J_11385670151 0.5 42.8 50 0.5 0
S_3158788117 Gage1 J_3158788117 0.5 64.4 50 0.5 0
S_3158788119 Gage1 J_3158788119 0.5 66.4 50 0.5 0
S_3158788124 Gage1 J_3158788124 0.5 53.5 50 0.5 0
S_4579649727 Gage1 J_4579649727 0.5 63.2 50 0.5 0
S_3158788129 Gage1 J_3158788129 0.5 59.7 50 0.5 0
S_3158788132 Gage1 J_3158788132 0.5 60.6 50 0.5 0
S_10153868766 Gage1 J_10153868766 0.5 59.5 50 0.5 0
S_10153868767 Gage1 J_10153868767 0.5 59.4 50 0.5 0
S_3158788612 Gage1 J_3158788612 0.5 21.9 50 0.5 0
S_3158788141 Gage1 J_3158788141 0.5 56.1 50 0.5 0
S_3158788142 Gage1 J_3158788142 0.5 68.4 50 0.5 0
S_3158788571 Gage1 J_3158788571 0.5 43.2 50 0.5 0
S_3158788565 Gage1 J_3158788565 0.5 27.1 50 0.5 0
S_7429952388 Gage1 J_7429952388 0.5 31.9 50 0.5 0
S_10153862358 Gage1 J_10153862358 0.5 38.5 50 0.5 0
S_3158788611 Gage1 J_3158788611 0.5 58.6 50 0.5 0
S_3158788629 Gage1 J_3158788629 0.5 30.8 50 0.5 0
S_3158788615 Gage1 J_3158788615 0.5 48.6 50 0.5 0
S_3158788616 Gage1 J_3158788616 0.5 70.5 50 0.5 0
S_3158788620 Gage1 J_3158788620 0.5 15.8 50 0.5 0
S_7432244836 Gage1 J_7432244836 0.5 21.7 50 0.5 0
S_3158788621 Gage1 J_3158788621 0.5 55.3 50 0.5 0
S_3158788632 Gage1 J_3158788632 0.5 67.2 50 0.5 0
S_3158788635 Gage1 J_3158788635 0.5 66.8 50 0.5 0
S_3158788636 Gage1 J_3158788636 0.5 62.4 50 0.5 0
S_3158788640 Gage1 J_3158788640 0.5 35.2 50 0.5 0
S_3158788642 Gage1 J_3158788642 0.5 42.0 50 0.5 0
S_3161118525 Gage1 J_3161118525 0.5 16.3 50 0.5 0
S_6131076159 Gage1 J_6131076159 0.5 24.2 50 0.5 0
S_10081725549 Gage1 J_10081725549 0.5 22.7 50 0.5 0
S_3161269161 Gage1 J_3161269161 0.5 20.0 50 0.5 0
S_3161269162 Gage1 J_3161269162 0.5 15.3 50 0.5 0
S_3221362713 Gage1 J_3221362713 0.5 14.5 50 0.5 0
S_3504751071 Gage1 J_3504751071 0.5 34.5 50 0.5 0
S_11353404310 Gage1 J_11353404310 0.5 30.2 50 0.5 0
S_3161269197 Gage1 J_3161269197 0.5 35.4 50 0.5 0
S_8979004920 Gage1 J_8979004920 0.5 43.3 50 0.5 0
S_8979004919 Gage1 J_8979004919 0.5 32.7 50 0.5 0
S_3168039450 Gage1 J_3168039450 0.5 21.3 50 0.5 0
S_5493868902 Gage1 J_5493868902 0.5 30.8 50 0.5 0
S_5493868901 Gage1 J_5493868901 0.5 29.4 50 0.5 0
S_3965281000 Gage1 J_3965281000 0.5 41.6 50 0.5 0
S_10081671392 Gage1 J_10081671392 0.5 44.3 50 0.5 0
S_12197618359 Gage1 J_12197618359 0.5 30.4 50 0.5 0
S_3235639717 Gage1 J_3235639717 0.5 24.8 50 0.5 0
S_3235639718 Gage1 J_3235639718 0.5 32.8 50 0.5 0
S_3235639721 Gage1 J_3235639721 0.5 26.9 50 0.5 0
S_12197618361 Gage1 J_12197618361 0.5 30.8 50 0.5 0
S_12067305543 Gage1 J_12067305543 0.5 0.8 50 0.5 0
S_3298864776 Gage1 J_3298864776 0.5 37.9 50 0.5 0
S_11865527609 Gage1 J_11865527609 0.5 29.2 50 0.5 0
S_5780852347 Gage1 J_5780852347 0.5 27.4 50 0.5 0
S_3421682934 Gage1 J_3421682934 0.5 19.1 50 0.5 0
S_12695960102 Gage1 J_12695960102 0.5 29.4 50 0.5 0
S_3538106692 Gage1 J_3538106692 0.5 23.0 50 0.5 0
S_7086183230 Gage1 J_7086183230 0.5 28.4 50 0.5 0
S_7086183228 Gage1 J_7086183228 0.5 23.9 50 0.5 0
S_7432283509 Gage1 J_7432283509 0.5 26.6 50 0.5 0
S_4146210945 Gage1 J_4146210945 0.5 33.6 50 0.5 0
S_3549123725 Gage1 J_3549123725 0.5 27.6 50 0.5 0
S_5267369426 Gage1 J_5267369426 0.5 32.2 50 0.5 0
S_5267369427 Gage1 J_5267369427 0.5 42.5 50 0.5 0
S_5267369429 Gage1 J_5267369429 0.5 44.8 50 0.5 0
S_3549124813 Gage1 J_3549124813 0.5 42.1 50 0.5 0
S_3549124818 Gage1 J_3549124818 0.5 30.0 50 0.5 0
S_3549124909 Gage1 J_3549124909 0.5 24.6 50 0.5 0
S_3549124822 Gage1 J_3549124822 0.5 23.5 50 0.5 0
S_2387385680 Gage1 J_2387385680 0.5 10.0 50 0.5 0
S_12186005569 Gage1 J_12186005569 0.5 3.9 50 0.5 0
S_3965280993 Gage1 J_3965280993 0.5 29.6 50 0.5 0
S_3965280999 Gage1 J_3965280999 0.5 46.7 50 0.5 0
S_3965280995 Gage1 J_3965280995 0.5 26.2 50 0.5 0
S_4146210931 Gage1 J_4146210931 0.5 37.2 50 0.5 0
S_6457067893 Gage1 J_6457067893 0.5 34.0 50 0.5 0
S_4146210932 Gage1 J_4146210932 0.5 35.0 50 0.5 0
S_6458176794 Gage1 J_6458176794 0.5 34.7 50 0.5 0
S_6458176792 Gage1 J_6458176792 0.5 39.1 50 0.5 0
S_4146210944 Gage1 J_4146210944 0.5 43.0 50 0.5 0
S_6457067894 Gage1 J_6457067894 0.5 41.8 50 0.5 0
S_4146210951 Gage1 J_4146210951 0.5 34.4 50 0.5 0
S_4146210953 Gage1 J_4146210953 0.5 31.8 50 0.5 0
S_11007254971 Gage1 J_11007254971 0.5 37.4 50 0.5 0
S_4146211263 Gage1 J_4146211263 0.5 34.7 50 0.5 0
S_4146211265 Gage1 J_4146211265 0.5 43.1 50 0.5 0
S_4146211266 Gage1 J_4146211266 0.5 34.5 50 0.5 0
S_6196261541 Gage1 J_6196261541 0.5 37.1 50 0.5 0
S_4146211267 Gage1 J_4146211267 0.5 34.6 50 0.5 0
S_4146211269 Gage1 J_4146211269 0.5 35.7 50 0.5 0
S_4146211270 Gage1 J_4146211270 0.5 35.3 50 0.5 0
S_7429952406 Gage1 J_7429952406 0.5 39.2 50 0.5 0
S_6504556325 Gage1 J_6504556325 0.5 42.7 50 0.5 0
S_4146211279 Gage1 J_4146211279 0.5 31.2 50 0.5 0
S_4146211273 Gage1 J_4146211273 0.5 36.2 50 0.5 0
S_4146211275 Gage1 J_4146211275 0.5 32.1 50 0.5 0
S_7432244868 Gage1 J_7432244868 0.5 36.5 50 0.5 0
S_4146211283 Gage1 J_4146211283 0.5 26.9 50 0.5 0
S_7432244867 Gage1 J_7432244867 0.5 37.6 50 0.5 0
S_4146211281 Gage1 J_4146211281 0.5 33.2 50 0.5 0
S_4146211286 Gage1 J_4146211286 0.5 33.5 50 0.5 0
S_4918188101 Gage1 J_4918188101 0.5 51.9 50 0.5 0
S_4918203528 Gage1 J_4918203528 0.5 48.4 50 0.5 0
S_5267402562 Gage1 J_5267402562 0.5 50.6 50 0.5 0
S_10049434084 Gage1 J_10049434084 0.5 40.1 50 0.5 0
S_5267402567 Gage1 J_5267402567 0.5 30.9 50 0.5 0
S_5267822919 Gage1 J_5267822919 0.5 25.8 50 0.5 0
S_5267823525 Gage1 J_5267823525 0.5 29.8 50 0.5 0
S_5267822920 Gage1 J_5267822920 0.5 30.0 50 0.5 0
S_5267823523 Gage1 J_5267823523 0.5 26.7 50 0.5 0
S_5267823522 Gage1 J_5267823522 0.5 19.7 50 0.5 0
S_5267823524 Gage1 J_5267823524 0.5 26.8 50 0.5 0
S_5267823526 Gage1 J_5267823526 0.5 30.5 50 0.5 0
S_5267823530 Gage1 J_5267823530 0.5 29.3 50 0.5 0
S_5292923939 Gage1 J_5292923939 0.5 38.3 50 0.5 0
S_5388479540 Gage1 J_5388479540 0.5 34.0 50 0.5 0
S_5388494831 Gage1 J_5388494831 0.5 61.5 50 0.5 0
S_6884276481 Gage1 J_6884276481 0.5 11.0 50 0.5 0
S_12181798460 Gage1 J_12181798460 0.5 29.6 50 0.5 0
S_6017833806 Gage1 J_6017833806 0.5 18.5 50 0.5 0
S_6017833807 Gage1 J_6017833807 0.5 18.7 50 0.5 0
S_6130226929 Gage1 J_6130226929 0.5 33.2 50 0.5 0
S_6130226928 Gage1 J_6130226928 0.5 30.6 50 0.5 0
S_11063510865 Gage1 J_11063510865 0.5 28.1 50 0.5 0
S_9189234398 Gage1 J_9189234398 0.5 33.7 50 0.5 0
S_6196261538 Gage1 J_6196261538 0.5 33.8 50 0.5 0
S_12067305554 Gage1 J_12067305554 0.5 25.0 50 0.5 0
S_6132603450 Gage1 J_6132603450 0.5 23.8 50 0.5 0
S_11476594021 Gage1 J_11476594021 0.5 6.0 50 0.5 0
S_6141722654 Gage1 J_6141722654 0.5 22.1 50 0.5 0
S_9189927159 Gage1 J_9189927159 0.5 18.1 50 0.5 0
S_10094580906 Gage1 J_10094580906 0.5 13.5 50 0.5 0
S_7432244855 Gage1 J_7432244855 0.5 31.5 50 0.5 0
S_6567395238 Gage1 J_6567395238 0.5 37.4 50 0.5 0
S_6567395227 Gage1 J_6567395227 0.5 55.4 50 0.5 0
S_6144301681 Gage1 J_6144301681 0.5 52.9 50 0.5 0
S_6178041419 Gage1 J_6178041419 0.5 34.7 50 0.5 0
S_6178041422 Gage1 J_6178041422 0.5 32.5 50 0.5 0
S_10094529581 Gage1 J_10094529581 0.5 39.3 50 0.5 0
S_6196261537 Gage1 J_6196261537 0.5 32.2 50 0.5 0
S_6196261540 Gage1 J_6196261540 0.5 23.6 50 0.5 0
S_6196261539 Gage1 J_6196261539 0.5 18.8 50 0.5 0
S_6196261542 Gage1 J_6196261542 0.5 20.5 50 0.5 0
S_11007259534 Gage1 J_11007259534 0.5 30.6 50 0.5 0
S_6462301370 Gage1 J_6462301370 0.5 14.3 50 0.5 0
S_6518859304 Gage1 J_6518859304 0.5 61.1 50 0.5 0
S_10839341172 Gage1 J_10839341172 0.5 33.6 50 0.5 0
S_6528148940 Gage1 J_6528148940 0.5 18.4 50 0.5 0
S_6528148951 Gage1 J_6528148951 0.5 35.2 50 0.5 0
S_6528148953 Gage1 J_6528148953 0.5 23.6 50 0.5 0
S_6528148955 Gage1 J_6528148955 0.5 29.1 50 0.5 0
S_6528148956 Gage1 J_6528148956 0.5 28.2 50 0.5 0
S_10081706681 Gage1 J_10081706681 0.5 16.2 50 0.5 0
S_6528148963 Gage1 J_6528148963 0.5 37.1 50 0.5 0
S_6528148965 Gage1 J_6528148965 0.5 31.4 50 0.5 0
S_6528148970 Gage1 J_6528148970 0.5 23.5 50 0.5 0
S_6528148975 Gage1 J_6528148975 0.5 39.2 50 0.5 0
S_6529626685 Gage1 J_6529626685 0.5 51.0 50 0.5 0
S_6531845894 Gage1 J_6531845894 0.5 57.4 50 0.5 0
S_13410465225 Gage1 J_13410465225 0.5 70.2 50 0.5 0
S_10081671279 Gage1 J_10081671279 0.5 67.2 50 0.5 0
S_7432359269 Gage1 J_7432359269 0.5 19.4 50 0.5 0
S_6567395228 Gage1 J_6567395228 0.5 51.5 50 0.5 0
S_6567395229 Gage1 J_6567395229 0.5 53.2 50 0.5 0
S_12174205245 Gage1 J_12174205245 0.5 45.5 50 0.5 0
S_6567395235 Gage1 J_6567395235 0.5 38.6 50 0.5 0
S_6567395237 Gage1 J_6567395237 0.5 43.8 50 0.5 0
S_6633301856 Gage1 J_6633301856 0.5 17.7 50 0.5 0
S_6884276477 Gage1 J_6884276477 0.5 17.2 50 0.5 0
S_6884276686 Gage1 J_6884276686 0.5 13.6 50 0.5 0
S_11374930012 Gage1 J_11374930012 0.5 16.2 50 0.5 0
S_11178931802 Gage1 J_11178931802 0.5 19.3 50 0.5 0
S_6887565743 Gage1 J_6887565743 0.5 24.4 50 0.5 0
S_11178931798 Gage1 J_11178931798 0.5 26.1 50 0.5 0
S_7086183229 Gage1 J_7086183229 0.5 26.7 50 0.5 0
S_7429952389 Gage1 J_7429952389 0.5 18.8 50 0.5 0
S_7429952390 Gage1 J_7429952390 0.5 53.6 50 0.5 0
S_7429952391 Gage1 J_7429952391 0.5 12.0 50 0.5 0
S_10153862361 Gage1 J_10153862361 0.5 8.0 50 0.5 0
S_7429952393 Gage1 J_7429952393 0.5 10.0 50 0.5 0
S_7429952399 Gage1 J_7429952399 0.5 43.0 50 0.5 0
S_7429952405 Gage1 J_7429952405 0.5 35.3 50 0.5 0
S_7432244829 Gage1 J_7432244829 0.5 69.8 50 0.5 0
S_7432244831 Gage1 J_7432244831 0.5 45.0 50 0.5 0
S_7432244835 Gage1 J_7432244835 0.5 60.7 50 0.5 0
S_7432244837 Gage1 J_7432244837 0.5 65.8 50 0.5 0
S_7432244838 Gage1 J_7432244838 0.5 61.6 50 0.5 0
S_7432244842 Gage1 J_7432244842 0.5 26.9 50 0.5 0
S_7432244862 Gage1 J_7432244862 0.5 25.1 50 0.5 0
S_7432244864 Gage1 J_7432244864 0.5 24.3 50 0.5 0
S_7432244865 Gage1 J_7432244865 0.5 32.5 50 0.5 0
S_7432244866 Gage1 J_7432244866 0.5 26.3 50 0.5 0
S_7432244871 Gage1 J_7432244871 0.5 36.3 50 0.5 0
S_7432244873 Gage1 J_7432244873 0.5 36.8 50 0.5 0
S_7432359284 Gage1 J_7432359284 0.5 19.5 50 0.5 0
S_7432359283 Gage1 J_7432359283 0.5 18.4 50 0.5 0
S_12695960101 Gage1 J_12695960101 0.5 26.3 50 0.5 0
S_7432382398 Gage1 J_7432382398 0.5 19.1 50 0.5 0
S_7478115637 Gage1 J_7478115637 0.5 4.3 50 0.5 0
S_7478257545 Gage1 J_7478257545 0.5 55.6 50 0.5 0
S_8979004921 Gage1 J_8979004921 0.5 23.9 50 0.5 0
S_8984867007 Gage1 J_8984867007 0.5 32.5 50 0.5 0
S_9189234403 Gage1 J_9189234403 0.5 56.8 50 0.5 0
S_9813619345 Gage1 J_9813619345 0.5 36.6 50 0.5 0
S_9918817333 Gage1 J_9918817333 0.5 19.0 50 0.5 0
S_10081671261 Gage1 J_10081671261 0.5 36.3 50 0.5 0
S_10081671263 Gage1 J_10081671263 0.5 43.0 50 0.5 0
S_10081671268 Gage1 J_10081671268 0.5 46.4 50 0.5 0
S_10081671273 Gage1 J_10081671273 0.5 62.7 50 0.5 0
S_10081671388 Gage1 J_10081671388 0.5 37.5 50 0.5 0
S_10081671389 Gage1 J_10081671389 0.5 38.6 50 0.5 0
S_10081671390 Gage1 J_10081671390 0.5 37.6 50 0.5 0
S_10081671391 Gage1 J_10081671391 0.5 15.7 50 0.5 0
S_10081671393 Gage1 J_10081671393 0.5 20.7 50 0.5 0
S_10081706679 Gage1 J_10081706679 0.5 37.3 50 0.5 0
S_10081706684 Gage1 J_10081706684 0.5 13.9 50 0.5 0
S_10081706683 Gage1 J_10081706683 0.5 32.9 50 0.5 0
S_10081706686 Gage1 J_10081706686 0.5 25.0 50 0.5 0
S_10081725589 Gage1 J_10081725589 0.5 20.7 50 0.5 0
S_10081725590 Gage1 J_10081725590 0.5 37.1 50 0.5 0
S_10081725592 Gage1 J_10081725592 0.5 38.2 50 0.5 0
S_10848086334 Gage1 J_10848086334 0.5 31.9 50 0.5 0
S_12196366168 Gage1 J_12196366168 0.5 34.8 50 0.5 0
S_10094504106 Gage1 J_10094504106 0.5 38.0 50 0.5 0
S_10094529582 Gage1 J_10094529582 0.5 37.8 50 0.5 0
S_10094580865 Gage1 J_10094580865 0.5 23.9 50 0.5 0
S_10094580888 Gage1 J_10094580888 0.5 29.6 50 0.5 0
S_10094580890 Gage1 J_10094580890 0.5 31.2 50 0.5 0
S_10094586220 Gage1 J_10094586220 0.5 47.3 50 0.5 0
S_10153862359 Gage1 J_10153862359 0.5 68.2 50 0.5 0
S_13410902898 Gage1 J_13410902898 0.5 47.6 50 0.5 0
S_10153868765 Gage1 J_10153868765 0.5 40.9 50 0.5 0
S_10989273452 Gage1 J_10989273452 0.5 31.9 50 0.5 0
S_10989273454 Gage1 J_10989273454 0.5 26.7 50 0.5 0
S_10994556963 Gage1 J_10994556963 0.5 20.7 50 0.5 0
S_11006990856 Gage1 J_11006990856 0.5 66.8 50 0.5 0
S_11007263821 Gage1 J_11007263821 0.5 33.4 50 0.5 0
S_11007435039 Gage1 J_11007435039 0.5 31.3 50 0.5 0
S_11012063565 Gage1 J_11012063565 0.5 60.4 50 0.5 0
S_11063510864 Gage1 J_11063510864 0.5 24.9 50 0.5 0
S_11178931803 Gage1 J_11178931803 0.5 20.0 50 0.5 0
S_11259448961 Gage1 J_11259448961 0.5 24.8 50 0.5 0
S_11259448963 Gage1 J_11259448963 0.5 24.7 50 0.5 0
S_11259448962 Gage1 J_11259448962 0.5 23.2 50 0.5 0
S_11892824101 Gage1 J_11892824101 0.5 10.0 50 0.5 0
S_11374930007 Gage1 J_11374930007 0.5 19.3 50 0.5 0
S_11374930008 Gage1 J_11374930008 0.5 15.7 50 0.5 0
S_11374930010 Gage1 J_11374930010 0.5 14.9 50 0.5 0
S_11374930011 Gage1 J_11374930011 0.5 19.0 50 0.5 0
S_11663109187 Gage1 J_11663109187 0.5 23.8 50 0.5 0
S_11892824102 Gage1 J_11892824102 0.5 10.0 50 0.5 0
S_12203527486 Gage1 J_12203527486 0.5 7.6 50 0.5 0
S_12186005568 Gage1 J_12186005568 0.5 5.0 50 0.5 0
S_12197618360 Gage1 J_12197618360 0.5 31.4 50 0.5 0
S_12197618362 Gage1 J_12197618362 0.5 29.5 50 0.5 0
S_12695946000 Gage1 J_12695946000 0.5 27.8 50 0.5 0
S_12695960103 Gage1 J_12695960103 0.5 27.8 50 0.5 0
S_13152778981 Gage1 J_13152778981 0.5 22.7 50 0.5 0
S_13410465226 Gage1 J_13410465226 0.5 68.9 50 0.5 0
S_13410465941 Gage1 J_13410465941 0.5 41.9 50 0.5 0
S_13415111431 Gage1 J_13415111431 0.5 28.7 50 0.5 0
S_13475843622 Gage1 J_13475843622 0.5 29.4 50 0.5 0

[SUBAREAS]
;;Subcatchment N-Imperv N-Perv S-Imperv S-Perv PctZero RouteTo
S_263386428 0.013 0.1 2.0 5.0 25 OUTLET
S_306622120 0.013 0.1 2.0 5.0 25 OUTLET
S_306621809 0.013 0.1 2.0 5.0 25 OUTLET
S_11533595484 0.013 0.1 2.0 5.0 25 OUTLET
S_263386438 0.013 0.1 2.0 5.0 25 OUTLET
S_7432382412 0.013 0.1 2.0 5.0 25 OUTLET
S_306615032 0.013 0.1 2.0 5.0 25 OUTLET
S_7432382410 0.013 0.1 2.0 5.0 25 OUTLET
S_263386445 0.013 0.1 2.0 5.0 25 OUTLET
S_7432382420 0.013 0.1 2.0 5.0 25 OUTLET
S_306623098 0.013 0.1 2.0 5.0 25 OUTLET
S_263386457 0.013 0.1 2.0 5.0 25 OUTLET
S_306623631 0.013 0.1 2.0 5.0 25 OUTLET
S_836238509 0.013 0.1 2.0 5.0 25 OUTLET
S_306623149 0.013 0.1 2.0 5.0 25 OUTLET
S_263394718 0.013 0.1 2.0 5.0 25 OUTLET
S_266268086 0.013 0.1 2.0 5.0 25 OUTLET
S_263400205 0.013 0.1 2.0 5.0 25 OUTLET
S_11178931799 0.013 0.1 2.0 5.0 25 OUTLET
S_263400148 0.013 0.1 2.0 5.0 25 OUTLET
S_266271044 0.013 0.1 2.0 5.0 25 OUTLET
S_266271204 0.013 0.1 2.0 5.0 25 OUTLET
S_650089427 0.013 0.1 2.0 5.0 25 OUTLET
S_263400179 0.013 0.1 2.0 5.0 25 OUTLET
S_10094586219 0.013 0.1 2.0 5.0 25 OUTLET
S_4467082413 0.013 0.1 2.0 5.0 25 OUTLET
S_306620123 0.013 0.1 2.0 5.0 25 OUTLET
S_263400192 0.013 0.1 2.0 5.0 25 OUTLET
S_5267402564 0.013 0.1 2.0 5.0 25 OUTLET
S_306620053 0.013 0.1 2.0 5.0 25 OUTLET
S_266275087 0.013 0.1 2.0 5.0 25 OUTLET
S_263415776 0.013 0.1 2.0 5.0 25 OUTLET
S_263415826 0.013 0.1 2.0 5.0 25 OUTLET
S_306620181 0.013 0.1 2.0 5.0 25 OUTLET
S_306620007 0.013 0.1 2.0 5.0 25 OUTLET
S_266271046 0.013 0.1 2.0 5.0 25 OUTLET
S_263415839 0.013 0.1 2.0 5.0 25 OUTLET
S_306615019 0.013 0.1 2.0 5.0 25 OUTLET
S_306615476 0.013 0.1 2.0 5.0 25 OUTLET
S_306615164 0.013 0.1 2.0 5.0 25 OUTLET
S_263415852 0.013 0.1 2.0 5.0 25 OUTLET
S_266318626 0.013 0.1 2.0 5.0 25 OUTLET
S_306615014 0.013 0.1 2.0 5.0 25 OUTLET
S_306620859 0.013 0.1 2.0 5.0 25 OUTLET
S_263431510 0.013 0.1 2.0 5.0 25 OUTLET
S_4146211264 0.013 0.1 2.0 5.0 25 OUTLET
S_266310426 0.013 0.1 2.0 5.0 25 OUTLET
S_2406084997 0.013 0.1 2.0 5.0 25 OUTLET
S_266163778 0.013 0.1 2.0 5.0 25 OUTLET
S_306617302 0.013 0.1 2.0 5.0 25 OUTLET
S_7432382401 0.013 0.1 2.0 5.0 25 OUTLET
S_7432382395 0.013 0.1 2.0 5.0 25 OUTLET
S_266164910 0.013 0.1 2.0 5.0 25 OUTLET
S_622363164 0.013 0.1 2.0 5.0 25 OUTLET
S_306623347 0.013 0.1 2.0 5.0 25 OUTLET
S_306623648 0.013 0.1 2.0 5.0 25 OUTLET
S_306626271 0.013 0.1 2.0 5.0 25 OUTLET
S_266164941 0.013 0.1 2.0 5.0 25 OUTLET
S_266318559 0.013 0.1 2.0 5.0 25 OUTLET
S_11007435038 0.013 0.1 2.0 5.0 25 OUTLET
S_266304400 0.013 0.1 2.0 5.0 25 OUTLET
S_266164942 0.013 0.1 2.0 5.0 25 OUTLET
S_266314035 0.013 0.1 2.0 5.0 25 OUTLET
S_266318994 0.013 0.1 2.0 5.0 25 OUTLET
S_266164948 0.013 0.1 2.0 5.0 25 OUTLET
S_2406084995 0.013 0.1 2.0 5.0 25 OUTLET
S_4146211262 0.013 0.1 2.0 5.0 25 OUTLET
S_4146211261 0.013 0.1 2.0 5.0 25 OUTLET
S_266174853 0.013 0.1 2.0 5.0 25 OUTLET
S_266265561 0.013 0.1 2.0 5.0 25 OUTLET
S_306625695 0.013 0.1 2.0 5.0 25 OUTLET
S_306625759 0.013 0.1 2.0 5.0 25 OUTLET
S_306626127 0.013 0.1 2.0 5.0 25 OUTLET
S_266174854 0.013 0.1 2.0 5.0 25 OUTLET
S_266298095 0.013 0.1 2.0 5.0 25 OUTLET
S_1417443647 0.013 0.1 2.0 5.0 25 OUTLET
S_1417443641 0.013 0.1 2.0 5.0 25 OUTLET
S_266174856 0.013 0.1 2.0 5.0 25 OUTLET
S_1473871931 0.013 0.1 2.0 5.0 25 OUTLET
S_1473871940 0.013 0.1 2.0 5.0 25 OUTLET
S_266272487 0.013 0.1 2.0 5.0 25 OUTLET
S_266174857 0.013 0.1 2.0 5.0 25 OUTLET
S_313460308 0.013 0.1 2.0 5.0 25 OUTLET
S_1473885221 0.013 0.1 2.0 5.0 25 OUTLET
S_266272874 0.013 0.1 2.0 5.0 25 OUTLET
S_266177660 0.013 0.1 2.0 5.0 25 OUTLET
S_2526081636 0.013 0.1 2.0 5.0 25 OUTLET
S_6560240052 0.013 0.1 2.0 5.0 25 OUTLET
S_306616744 0.013 0.1 2.0 5.0 25 OUTLET
S_266268082 0.013 0.1 2.0 5.0 25 OUTLET
S_266267494 0.013 0.1 2.0 5.0 25 OUTLET
S_266267499 0.013 0.1 2.0 5.0 25 OUTLET
S_306624820 0.013 0.1 2.0 5.0 25 OUTLET
S_266267666 0.013 0.1 2.0 5.0 25 OUTLET
S_1469644202 0.013 0.1 2.0 5.0 25 OUTLET
S_306625528 0.013 0.1 2.0 5.0 25 OUTLET
S_12174142491 0.013 0.1 2.0 5.0 25 OUTLET
S_306617429 0.013 0.1 2.0 5.0 25 OUTLET
S_266268084 0.013 0.1 2.0 5.0 25 OUTLET
S_306617477 0.013 0.1 2.0 5.0 25 OUTLET
S_266268085 0.013 0.1 2.0 5.0 25 OUTLET
S_306616740 0.013 0.1 2.0 5.0 25 OUTLET
S_2407671508 0.013 0.1 2.0 5.0 25 OUTLET
S_266268374 0.013 0.1 2.0 5.0 25 OUTLET
S_306623673 0.013 0.1 2.0 5.0 25 OUTLET
S_10094529579 0.013 0.1 2.0 5.0 25 OUTLET
S_266268375 0.013 0.1 2.0 5.0 25 OUTLET
S_306623367 0.013 0.1 2.0 5.0 25 OUTLET
S_306624975 0.013 0.1 2.0 5.0 25 OUTLET
S_266268377 0.013 0.1 2.0 5.0 25 OUTLET
S_306624796 0.013 0.1 2.0 5.0 25 OUTLET
S_5780852321 0.013 0.1 2.0 5.0 25 OUTLET
S_266268380 0.013 0.1 2.0 5.0 25 OUTLET
S_6884276690 0.013 0.1 2.0 5.0 25 OUTLET
S_306624839 0.013 0.1 2.0 5.0 25 OUTLET
S_306620124 0.013 0.1 2.0 5.0 25 OUTLET
S_306620177 0.013 0.1 2.0 5.0 25 OUTLET
S_10094586221 0.013 0.1 2.0 5.0 25 OUTLET
S_1488556180 0.013 0.1 2.0 5.0 25 OUTLET
S_266298088 0.013 0.1 2.0 5.0 25 OUTLET
S_266272838 0.013 0.1 2.0 5.0 25 OUTLET
S_266272839 0.013 0.1 2.0 5.0 25 OUTLET
S_7432382393 0.013 0.1 2.0 5.0 25 OUTLET
S_306609464 0.013 0.1 2.0 5.0 25 OUTLET
S_266272840 0.013 0.1 2.0 5.0 25 OUTLET
S_306609693 0.013 0.1 2.0 5.0 25 OUTLET
S_306609695 0.013 0.1 2.0 5.0 25 OUTLET
S_266272841 0.013 0.1 2.0 5.0 25 OUTLET
S_266272842 0.013 0.1 2.0 5.0 25 OUTLET
S_306610651 0.013 0.1 2.0 5.0 25 OUTLET
S_306614126 0.013 0.1 2.0 5.0 25 OUTLET
S_266272843 0.013 0.1 2.0 5.0 25 OUTLET
S_306619706 0.013 0.1 2.0 5.0 25 OUTLET
S_11259448972 0.013 0.1 2.0 5.0 25 OUTLET
S_306614127 0.013 0.1 2.0 5.0 25 OUTLET
S_306618090 0.013 0.1 2.0 5.0 25 OUTLET
S_3161269200 0.013 0.1 2.0 5.0 25 OUTLET
S_266273088 0.013 0.1 2.0 5.0 25 OUTLET
S_1473871924 0.013 0.1 2.0 5.0 25 OUTLET
S_1473871945 0.013 0.1 2.0 5.0 25 OUTLET
S_1488526913 0.013 0.1 2.0 5.0 25 OUTLET
S_266273090 0.013 0.1 2.0 5.0 25 OUTLET
S_3096683821 0.013 0.1 2.0 5.0 25 OUTLET
S_4377707444 0.013 0.1 2.0 5.0 25 OUTLET
S_4377707454 0.013 0.1 2.0 5.0 25 OUTLET
S_266273458 0.013 0.1 2.0 5.0 25 OUTLET
S_6141732621 0.013 0.1 2.0 5.0 25 OUTLET
S_266298086 0.013 0.1 2.0 5.0 25 OUTLET
S_266273460 0.013 0.1 2.0 5.0 25 OUTLET
S_7432244853 0.013 0.1 2.0 5.0 25 OUTLET
S_266298084 0.013 0.1 2.0 5.0 25 OUTLET
S_266274986 0.013 0.1 2.0 5.0 25 OUTLET
S_266275089 0.013 0.1 2.0 5.0 25 OUTLET
S_10094586223 0.013 0.1 2.0 5.0 25 OUTLET
S_266275021 0.013 0.1 2.0 5.0 25 OUTLET
S_306615461 0.013 0.1 2.0 5.0 25 OUTLET
S_266275022 0.013 0.1 2.0 5.0 25 OUTLET
S_306615202 0.013 0.1 2.0 5.0 25 OUTLET
S_266275023 0.013 0.1 2.0 5.0 25 OUTLET
S_7432382418 0.013 0.1 2.0 5.0 25 OUTLET
S_306623067 0.013 0.1 2.0 5.0 25 OUTLET
S_306623066 0.013 0.1 2.0 5.0 25 OUTLET
S_266275088 0.013 0.1 2.0 5.0 25 OUTLET
S_306619953 0.013 0.1 2.0 5.0 25 OUTLET
S_266275456 0.013 0.1 2.0 5.0 25 OUTLET
S_6462301371 0.013 0.1 2.0 5.0 25 OUTLET
S_2388266844 0.013 0.1 2.0 5.0 25 OUTLET
S_11007254966 0.013 0.1 2.0 5.0 25 OUTLET
S_266275460 0.013 0.1 2.0 5.0 25 OUTLET
S_266275461 0.013 0.1 2.0 5.0 25 OUTLET
S_6196907479 0.013 0.1 2.0 5.0 25 OUTLET
S_11431805314 0.013 0.1 2.0 5.0 25 OUTLET
S_10211111398 0.013 0.1 2.0 5.0 25 OUTLET
S_4146211288 0.013 0.1 2.0 5.0 25 OUTLET
S_266275462 0.013 0.1 2.0 5.0 25 OUTLET
S_5267402570 0.013 0.1 2.0 5.0 25 OUTLET
S_4146211268 0.013 0.1 2.0 5.0 25 OUTLET
S_4146211272 0.013 0.1 2.0 5.0 25 OUTLET
S_266276707 0.013 0.1 2.0 5.0 25 OUTLET
S_266276753 0.013 0.1 2.0 5.0 25 OUTLET
S_6567395240 0.013 0.1 2.0 5.0 25 OUTLET
S_6143210301 0.013 0.1 2.0 5.0 25 OUTLET
S_266276754 0.013 0.1 2.0 5.0 25 OUTLET
S_306616974 0.013 0.1 2.0 5.0 25 OUTLET
S_266276755 0.013 0.1 2.0 5.0 25 OUTLET
S_306617098 0.013 0.1 2.0 5.0 25 OUTLET
S_266276756 0.013 0.1 2.0 5.0 25 OUTLET
S_306617018 0.013 0.1 2.0 5.0 25 OUTLET
S_266298089 0.013 0.1 2.0 5.0 25 OUTLET
S_266300662 0.013 0.1 2.0 5.0 25 OUTLET
S_266298087 0.013 0.1 2.0 5.0 25 OUTLET
S_266298092 0.013 0.1 2.0 5.0 25 OUTLET
S_266300742 0.013 0.1 2.0 5.0 25 OUTLET
S_266298091 0.013 0.1 2.0 5.0 25 OUTLET
S_266298093 0.013 0.1 2.0 5.0 25 OUTLET
S_266300657 0.013 0.1 2.0 5.0 25 OUTLET
S_6141732622 0.013 0.1 2.0 5.0 25 OUTLET
S_3304204552 0.013 0.1 2.0 5.0 25 OUTLET
S_266300661 0.013 0.1 2.0 5.0 25 OUTLET
S_266300741 0.013 0.1 2.0 5.0 25 OUTLET
S_11663109183 0.013 0.1 2.0 5.0 25 OUTLET
S_266302974 0.013 0.1 2.0 5.0 25 OUTLET
S_2414639341 0.013 0.1 2.0 5.0 25 OUTLET
S_266302978 0.013 0.1 2.0 5.0 25 OUTLET
S_5961754417 0.013 0.1 2.0 5.0 25 OUTLET
S_306614881 0.013 0.1 2.0 5.0 25 OUTLET
S_306614901 0.013 0.1 2.0 5.0 25 OUTLET
S_7432283512 0.013 0.1 2.0 5.0 25 OUTLET
S_266303004 0.013 0.1 2.0 5.0 25 OUTLET
S_266303953 0.013 0.1 2.0 5.0 25 OUTLET
S_266303064 0.013 0.1 2.0 5.0 25 OUTLET
S_2414639342 0.013 0.1 2.0 5.0 25 OUTLET
S_266304629 0.013 0.1 2.0 5.0 25 OUTLET
S_2385138309 0.013 0.1 2.0 5.0 25 OUTLET
S_2414635984 0.013 0.1 2.0 5.0 25 OUTLET
S_266303623 0.013 0.1 2.0 5.0 25 OUTLET
S_306614842 0.013 0.1 2.0 5.0 25 OUTLET
S_266303624 0.013 0.1 2.0 5.0 25 OUTLET
S_266303625 0.013 0.1 2.0 5.0 25 OUTLET
S_306614967 0.013 0.1 2.0 5.0 25 OUTLET
S_306614850 0.013 0.1 2.0 5.0 25 OUTLET
S_266303626 0.013 0.1 2.0 5.0 25 OUTLET
S_306614734 0.013 0.1 2.0 5.0 25 OUTLET
S_306617634 0.013 0.1 2.0 5.0 25 OUTLET
S_266303627 0.013 0.1 2.0 5.0 25 OUTLET
S_306617742 0.013 0.1 2.0 5.0 25 OUTLET
S_306617687 0.013 0.1 2.0 5.0 25 OUTLET
S_266303628 0.013 0.1 2.0 5.0 25 OUTLET
S_11007453622 0.013 0.1 2.0 5.0 25 OUTLET
S_266303629 0.013 0.1 2.0 5.0 25 OUTLET
S_306617758 0.013 0.1 2.0 5.0 25 OUTLET
S_306617751 0.013 0.1 2.0 5.0 25 OUTLET
S_9189927178 0.013 0.1 2.0 5.0 25 OUTLET
S_6178041423 0.013 0.1 2.0 5.0 25 OUTLET
S_306617686 0.013 0.1 2.0 5.0 25 OUTLET
S_266303954 0.013 0.1 2.0 5.0 25 OUTLET
S_266303955 0.013 0.1 2.0 5.0 25 OUTLET
S_266304630 0.013 0.1 2.0 5.0 25 OUTLET
S_266303956 0.013 0.1 2.0 5.0 25 OUTLET
S_266304631 0.013 0.1 2.0 5.0 25 OUTLET
S_266304632 0.013 0.1 2.0 5.0 25 OUTLET
S_6132249479 0.013 0.1 2.0 5.0 25 OUTLET
S_266304402 0.013 0.1 2.0 5.0 25 OUTLET
S_266313958 0.013 0.1 2.0 5.0 25 OUTLET
S_306620508 0.013 0.1 2.0 5.0 25 OUTLET
S_266318288 0.013 0.1 2.0 5.0 25 OUTLET
S_308452451 0.013 0.1 2.0 5.0 25 OUTLET
S_308452454 0.013 0.1 2.0 5.0 25 OUTLET
S_5292923940 0.013 0.1 2.0 5.0 25 OUTLET
S_2407759902 0.013 0.1 2.0 5.0 25 OUTLET
S_2400167301 0.013 0.1 2.0 5.0 25 OUTLET
S_3298857091 0.013 0.1 2.0 5.0 25 OUTLET
S_306621180 0.013 0.1 2.0 5.0 25 OUTLET
S_266310433 0.013 0.1 2.0 5.0 25 OUTLET
S_7432244872 0.013 0.1 2.0 5.0 25 OUTLET
S_266310437 0.013 0.1 2.0 5.0 25 OUTLET
S_266310471 0.013 0.1 2.0 5.0 25 OUTLET
S_266310441 0.013 0.1 2.0 5.0 25 OUTLET
S_306620828 0.013 0.1 2.0 5.0 25 OUTLET
S_306620318 0.013 0.1 2.0 5.0 25 OUTLET
S_306620866 0.013 0.1 2.0 5.0 25 OUTLET
S_266310445 0.013 0.1 2.0 5.0 25 OUTLET
S_266318286 0.013 0.1 2.0 5.0 25 OUTLET
S_266318343 0.013 0.1 2.0 5.0 25 OUTLET
S_306620825 0.013 0.1 2.0 5.0 25 OUTLET
S_266313980 0.013 0.1 2.0 5.0 25 OUTLET
S_266313984 0.013 0.1 2.0 5.0 25 OUTLET
S_5292300571 0.013 0.1 2.0 5.0 25 OUTLET
S_266313967 0.013 0.1 2.0 5.0 25 OUTLET
S_306616045 0.013 0.1 2.0 5.0 25 OUTLET
S_11245714088 0.013 0.1 2.0 5.0 25 OUTLET
S_266313975 0.013 0.1 2.0 5.0 25 OUTLET
S_306622080 0.013 0.1 2.0 5.0 25 OUTLET
S_306616029 0.013 0.1 2.0 5.0 25 OUTLET
S_10094504111 0.013 0.1 2.0 5.0 25 OUTLET
S_266318628 0.013 0.1 2.0 5.0 25 OUTLET
S_266313990 0.013 0.1 2.0 5.0 25 OUTLET
S_266314020 0.013 0.1 2.0 5.0 25 OUTLET
S_266314026 0.013 0.1 2.0 5.0 25 OUTLET
S_266314031 0.013 0.1 2.0 5.0 25 OUTLET
S_266318996 0.013 0.1 2.0 5.0 25 OUTLET
S_266316218 0.013 0.1 2.0 5.0 25 OUTLET
S_306622275 0.013 0.1 2.0 5.0 25 OUTLET
S_306622887 0.013 0.1 2.0 5.0 25 OUTLET
S_306622206 0.013 0.1 2.0 5.0 25 OUTLET
S_2406084993 0.013 0.1 2.0 5.0 25 OUTLET
S_266318287 0.013 0.1 2.0 5.0 25 OUTLET
S_306620373 0.013 0.1 2.0 5.0 25 OUTLET
S_9696939532 0.013 0.1 2.0 5.0 25 OUTLET
S_266318344 0.013 0.1 2.0 5.0 25 OUTLET
S_306620803 0.013 0.1 2.0 5.0 25 OUTLET
S_266318345 0.013 0.1 2.0 5.0 25 OUTLET
S_306620799 0.013 0.1 2.0 5.0 25 OUTLET
S_306620763 0.013 0.1 2.0 5.0 25 OUTLET
S_3298857093 0.013 0.1 2.0 5.0 25 OUTLET
S_266318627 0.013 0.1 2.0 5.0 25 OUTLET
S_306616044 0.013 0.1 2.0 5.0 25 OUTLET
S_306616092 0.013 0.1 2.0 5.0 25 OUTLET
S_10094504107 0.013 0.1 2.0 5.0 25 OUTLET
S_10094504110 0.013 0.1 2.0 5.0 25 OUTLET
S_306608060 0.013 0.1 2.0 5.0 25 OUTLET
S_6131903446 0.013 0.1 2.0 5.0 25 OUTLET
S_1417443517 0.013 0.1 2.0 5.0 25 OUTLET
S_306608698 0.013 0.1 2.0 5.0 25 OUTLET
S_2407745349 0.013 0.1 2.0 5.0 25 OUTLET
S_306608898 0.013 0.1 2.0 5.0 25 OUTLET
S_306608699 0.013 0.1 2.0 5.0 25 OUTLET
S_306613002 0.013 0.1 2.0 5.0 25 OUTLET
S_3287849054 0.013 0.1 2.0 5.0 25 OUTLET
S_306608700 0.013 0.1 2.0 5.0 25 OUTLET
S_306609212 0.013 0.1 2.0 5.0 25 OUTLET
S_306612973 0.013 0.1 2.0 5.0 25 OUTLET
S_595766458 0.013 0.1 2.0 5.0 25 OUTLET
S_306609696 0.013 0.1 2.0 5.0 25 OUTLET
S_306610173 0.013 0.1 2.0 5.0 25 OUTLET
S_306609958 0.013 0.1 2.0 5.0 25 OUTLET
S_306609759 0.013 0.1 2.0 5.0 25 OUTLET
S_306612919 0.013 0.1 2.0 5.0 25 OUTLET
S_306609760 0.013 0.1 2.0 5.0 25 OUTLET
S_306610572 0.013 0.1 2.0 5.0 25 OUTLET
S_306612931 0.013 0.1 2.0 5.0 25 OUTLET
S_306619696 0.013 0.1 2.0 5.0 25 OUTLET
S_306612958 0.013 0.1 2.0 5.0 25 OUTLET
S_306610154 0.013 0.1 2.0 5.0 25 OUTLET
S_306612930 0.013 0.1 2.0 5.0 25 OUTLET
S_306610155 0.013 0.1 2.0 5.0 25 OUTLET
S_306611495 0.013 0.1 2.0 5.0 25 OUTLET
S_306610573 0.013 0.1 2.0 5.0 25 OUTLET
S_306610698 0.013 0.1 2.0 5.0 25 OUTLET
S_11259448960 0.013 0.1 2.0 5.0 25 OUTLET
S_306611194 0.013 0.1 2.0 5.0 25 OUTLET
S_306611189 0.013 0.1 2.0 5.0 25 OUTLET
S_306611195 0.013 0.1 2.0 5.0 25 OUTLET
S_2619300330 0.013 0.1 2.0 5.0 25 OUTLET
S_306611382 0.013 0.1 2.0 5.0 25 OUTLET
S_306611892 0.013 0.1 2.0 5.0 25 OUTLET
S_306619117 0.013 0.1 2.0 5.0 25 OUTLET
S_306611415 0.013 0.1 2.0 5.0 25 OUTLET
S_1417443741 0.013 0.1 2.0 5.0 25 OUTLET
S_306611644 0.013 0.1 2.0 5.0 25 OUTLET
S_12249984864 0.013 0.1 2.0 5.0 25 OUTLET
S_595766589 0.013 0.1 2.0 5.0 25 OUTLET
S_306611516 0.013 0.1 2.0 5.0 25 OUTLET
S_306611889 0.013 0.1 2.0 5.0 25 OUTLET
S_10081671362 0.013 0.1 2.0 5.0 25 OUTLET
S_306611517 0.013 0.1 2.0 5.0 25 OUTLET
S_306611552 0.013 0.1 2.0 5.0 25 OUTLET
S_306611796 0.013 0.1 2.0 5.0 25 OUTLET
S_306612056 0.013 0.1 2.0 5.0 25 OUTLET
S_306611825 0.013 0.1 2.0 5.0 25 OUTLET
S_306612124 0.013 0.1 2.0 5.0 25 OUTLET
S_306611919 0.013 0.1 2.0 5.0 25 OUTLET
S_306611891 0.013 0.1 2.0 5.0 25 OUTLET
S_6182617723 0.013 0.1 2.0 5.0 25 OUTLET
S_306612586 0.013 0.1 2.0 5.0 25 OUTLET
S_306619140 0.013 0.1 2.0 5.0 25 OUTLET
S_306612221 0.013 0.1 2.0 5.0 25 OUTLET
S_306612001 0.013 0.1 2.0 5.0 25 OUTLET
S_306611966 0.013 0.1 2.0 5.0 25 OUTLET
S_1417443754 0.013 0.1 2.0 5.0 25 OUTLET
S_7478115610 0.013 0.1 2.0 5.0 25 OUTLET
S_5267822911 0.013 0.1 2.0 5.0 25 OUTLET
S_306612467 0.013 0.1 2.0 5.0 25 OUTLET
S_306612483 0.013 0.1 2.0 5.0 25 OUTLET
S_306612013 0.013 0.1 2.0 5.0 25 OUTLET
S_5267822917 0.013 0.1 2.0 5.0 25 OUTLET
S_5267822918 0.013 0.1 2.0 5.0 25 OUTLET
S_306612052 0.013 0.1 2.0 5.0 25 OUTLET
S_306612561 0.013 0.1 2.0 5.0 25 OUTLET
S_306612055 0.013 0.1 2.0 5.0 25 OUTLET
S_306612295 0.013 0.1 2.0 5.0 25 OUTLET
S_306612267 0.013 0.1 2.0 5.0 25 OUTLET
S_306612223 0.013 0.1 2.0 5.0 25 OUTLET
S_306612391 0.013 0.1 2.0 5.0 25 OUTLET
S_306612552 0.013 0.1 2.0 5.0 25 OUTLET
S_3149523811 0.013 0.1 2.0 5.0 25 OUTLET
S_306612618 0.013 0.1 2.0 5.0 25 OUTLET
S_306613918 0.013 0.1 2.0 5.0 25 OUTLET
S_306612710 0.013 0.1 2.0 5.0 25 OUTLET
S_306613150 0.013 0.1 2.0 5.0 25 OUTLET
S_3221362717 0.013 0.1 2.0 5.0 25 OUTLET
S_12249984863 0.013 0.1 2.0 5.0 25 OUTLET
S_306612712 0.013 0.1 2.0 5.0 25 OUTLET
S_306613796 0.013 0.1 2.0 5.0 25 OUTLET
S_306613207 0.013 0.1 2.0 5.0 25 OUTLET
S_306612714 0.013 0.1 2.0 5.0 25 OUTLET
S_6529626686 0.013 0.1 2.0 5.0 25 OUTLET
S_306612914 0.013 0.1 2.0 5.0 25 OUTLET
S_306613125 0.013 0.1 2.0 5.0 25 OUTLET
S_3149523808 0.013 0.1 2.0 5.0 25 OUTLET
S_9792476719 0.013 0.1 2.0 5.0 25 OUTLET
S_2450399427 0.013 0.1 2.0 5.0 25 OUTLET
S_3221362720 0.013 0.1 2.0 5.0 25 OUTLET
S_306619236 0.013 0.1 2.0 5.0 25 OUTLET
S_306613322 0.013 0.1 2.0 5.0 25 OUTLET
S_306613711 0.013 0.1 2.0 5.0 25 OUTLET
S_306613706 0.013 0.1 2.0 5.0 25 OUTLET
S_11259448969 0.013 0.1 2.0 5.0 25 OUTLET
S_6142327787 0.013 0.1 2.0 5.0 25 OUTLET
S_306613917 0.013 0.1 2.0 5.0 25 OUTLET
S_306613955 0.013 0.1 2.0 5.0 25 OUTLET
S_306618000 0.013 0.1 2.0 5.0 25 OUTLET
S_306618152 0.013 0.1 2.0 5.0 25 OUTLET
S_306618047 0.013 0.1 2.0 5.0 25 OUTLET
S_306614002 0.013 0.1 2.0 5.0 25 OUTLET
S_306614043 0.013 0.1 2.0 5.0 25 OUTLET
S_306618040 0.013 0.1 2.0 5.0 25 OUTLET
S_306618049 0.013 0.1 2.0 5.0 25 OUTLET
S_306618037 0.013 0.1 2.0 5.0 25 OUTLET
S_306614003 0.013 0.1 2.0 5.0 25 OUTLET
S_306618051 0.013 0.1 2.0 5.0 25 OUTLET
S_747660349 0.013 0.1 2.0 5.0 25 OUTLET
S_306618038 0.013 0.1 2.0 5.0 25 OUTLET
S_306614045 0.013 0.1 2.0 5.0 25 OUTLET
S_1473885459 0.013 0.1 2.0 5.0 25 OUTLET
S_13285069336 0.013 0.1 2.0 5.0 25 OUTLET
S_306614125 0.013 0.1 2.0 5.0 25 OUTLET
S_306618319 0.013 0.1 2.0 5.0 25 OUTLET
S_1488556147 0.013 0.1 2.0 5.0 25 OUTLET
S_306618148 0.013 0.1 2.0 5.0 25 OUTLET
S_306618203 0.013 0.1 2.0 5.0 25 OUTLET
S_306617982 0.013 0.1 2.0 5.0 25 OUTLET
S_306618031 0.013 0.1 2.0 5.0 25 OUTLET
S_306614479 0.013 0.1 2.0 5.0 25 OUTLET
S_306614480 0.013 0.1 2.0 5.0 25 OUTLET
S_306614924 0.013 0.1 2.0 5.0 25 OUTLET
S_306614481 0.013 0.1 2.0 5.0 25 OUTLET
S_306617731 0.013 0.1 2.0 5.0 25 OUTLET
S_306614738 0.013 0.1 2.0 5.0 25 OUTLET
S_306614832 0.013 0.1 2.0 5.0 25 OUTLET
S_11982570362 0.013 0.1 2.0 5.0 25 OUTLET
S_306614739 0.013 0.1 2.0 5.0 25 OUTLET
S_6178041421 0.013 0.1 2.0 5.0 25 OUTLET
S_306617738 0.013 0.1 2.0 5.0 25 OUTLET
S_11982570360 0.013 0.1 2.0 5.0 25 OUTLET
S_11476594000 0.013 0.1 2.0 5.0 25 OUTLET
S_306620879 0.013 0.1 2.0 5.0 25 OUTLET
S_306619786 0.013 0.1 2.0 5.0 25 OUTLET
S_306615155 0.013 0.1 2.0 5.0 25 OUTLET
S_306615653 0.013 0.1 2.0 5.0 25 OUTLET
S_306615904 0.013 0.1 2.0 5.0 25 OUTLET
S_306615597 0.013 0.1 2.0 5.0 25 OUTLET
S_306615239 0.013 0.1 2.0 5.0 25 OUTLET
S_306615426 0.013 0.1 2.0 5.0 25 OUTLET
S_306615208 0.013 0.1 2.0 5.0 25 OUTLET
S_306615608 0.013 0.1 2.0 5.0 25 OUTLET
S_306615250 0.013 0.1 2.0 5.0 25 OUTLET
S_306615227 0.013 0.1 2.0 5.0 25 OUTLET
S_3298878325 0.013 0.1 2.0 5.0 25 OUTLET
S_7432382415 0.013 0.1 2.0 5.0 25 OUTLET
S_306615877 0.013 0.1 2.0 5.0 25 OUTLET
S_306615629 0.013 0.1 2.0 5.0 25 OUTLET
S_10094586224 0.013 0.1 2.0 5.0 25 OUTLET
S_306615730 0.013 0.1 2.0 5.0 25 OUTLET
S_306615643 0.013 0.1 2.0 5.0 25 OUTLET
S_306615937 0.013 0.1 2.0 5.0 25 OUTLET
S_306615876 0.013 0.1 2.0 5.0 25 OUTLET
S_306616007 0.013 0.1 2.0 5.0 25 OUTLET
S_306623070 0.013 0.1 2.0 5.0 25 OUTLET
S_306616031 0.013 0.1 2.0 5.0 25 OUTLET
S_5961715635 0.013 0.1 2.0 5.0 25 OUTLET
S_306622158 0.013 0.1 2.0 5.0 25 OUTLET
S_1054699489 0.013 0.1 2.0 5.0 25 OUTLET
S_3298878307 0.013 0.1 2.0 5.0 25 OUTLET
S_306617262 0.013 0.1 2.0 5.0 25 OUTLET
S_11663109186 0.013 0.1 2.0 5.0 25 OUTLET
S_12680448313 0.013 0.1 2.0 5.0 25 OUTLET
S_306617283 0.013 0.1 2.0 5.0 25 OUTLET
S_306617463 0.013 0.1 2.0 5.0 25 OUTLET
S_306617457 0.013 0.1 2.0 5.0 25 OUTLET
S_12680448312 0.013 0.1 2.0 5.0 25 OUTLET
S_306617440 0.013 0.1 2.0 5.0 25 OUTLET
S_306617409 0.013 0.1 2.0 5.0 25 OUTLET
S_306617486 0.013 0.1 2.0 5.0 25 OUTLET
S_306617444 0.013 0.1 2.0 5.0 25 OUTLET
S_306617465 0.013 0.1 2.0 5.0 25 OUTLET
S_9189927179 0.013 0.1 2.0 5.0 25 OUTLET
S_306617735 0.013 0.1 2.0 5.0 25 OUTLET
S_306617745 0.013 0.1 2.0 5.0 25 OUTLET
S_306618011 0.013 0.1 2.0 5.0 25 OUTLET
S_306618039 0.013 0.1 2.0 5.0 25 OUTLET
S_306618035 0.013 0.1 2.0 5.0 25 OUTLET
S_306618045 0.013 0.1 2.0 5.0 25 OUTLET
S_306618684 0.013 0.1 2.0 5.0 25 OUTLET
S_306619061 0.013 0.1 2.0 5.0 25 OUTLET
S_306619043 0.013 0.1 2.0 5.0 25 OUTLET
S_306618864 0.013 0.1 2.0 5.0 25 OUTLET
S_306618121 0.013 0.1 2.0 5.0 25 OUTLET
S_306618913 0.013 0.1 2.0 5.0 25 OUTLET
S_2447849296 0.013 0.1 2.0 5.0 25 OUTLET
S_306618053 0.013 0.1 2.0 5.0 25 OUTLET
S_306619089 0.013 0.1 2.0 5.0 25 OUTLET
S_306618845 0.013 0.1 2.0 5.0 25 OUTLET
S_306618089 0.013 0.1 2.0 5.0 25 OUTLET
S_12174120925 0.013 0.1 2.0 5.0 25 OUTLET
S_306619109 0.013 0.1 2.0 5.0 25 OUTLET
S_306618120 0.013 0.1 2.0 5.0 25 OUTLET
S_306618091 0.013 0.1 2.0 5.0 25 OUTLET
S_6141578243 0.013 0.1 2.0 5.0 25 OUTLET
S_306618241 0.013 0.1 2.0 5.0 25 OUTLET
S_306618149 0.013 0.1 2.0 5.0 25 OUTLET
S_306618227 0.013 0.1 2.0 5.0 25 OUTLET
S_306618131 0.013 0.1 2.0 5.0 25 OUTLET
S_306618139 0.013 0.1 2.0 5.0 25 OUTLET
S_306619107 0.013 0.1 2.0 5.0 25 OUTLET
S_306618624 0.013 0.1 2.0 5.0 25 OUTLET
S_306618151 0.013 0.1 2.0 5.0 25 OUTLET
S_306618660 0.013 0.1 2.0 5.0 25 OUTLET
S_306618226 0.013 0.1 2.0 5.0 25 OUTLET
S_306618421 0.013 0.1 2.0 5.0 25 OUTLET
S_306618244 0.013 0.1 2.0 5.0 25 OUTLET
S_306618228 0.013 0.1 2.0 5.0 25 OUTLET
S_7478115641 0.013 0.1 2.0 5.0 25 OUTLET
S_306618229 0.013 0.1 2.0 5.0 25 OUTLET
S_306618243 0.013 0.1 2.0 5.0 25 OUTLET
S_306618242 0.013 0.1 2.0 5.0 25 OUTLET
S_10081725595 0.013 0.1 2.0 5.0 25 OUTLET
S_306618602 0.013 0.1 2.0 5.0 25 OUTLET
S_306618400 0.013 0.1 2.0 5.0 25 OUTLET
S_306618516 0.013 0.1 2.0 5.0 25 OUTLET
S_306618755 0.013 0.1 2.0 5.0 25 OUTLET
S_306618704 0.013 0.1 2.0 5.0 25 OUTLET
S_7478115630 0.013 0.1 2.0 5.0 25 OUTLET
S_313460477 0.013 0.1 2.0 5.0 25 OUTLET
S_306618719 0.013 0.1 2.0 5.0 25 OUTLET
S_1417443578 0.013 0.1 2.0 5.0 25 OUTLET
S_306618743 0.013 0.1 2.0 5.0 25 OUTLET
S_306618811 0.013 0.1 2.0 5.0 25 OUTLET
S_7478115636 0.013 0.1 2.0 5.0 25 OUTLET
S_306618983 0.013 0.1 2.0 5.0 25 OUTLET
S_306618876 0.013 0.1 2.0 5.0 25 OUTLET
S_306618974 0.013 0.1 2.0 5.0 25 OUTLET
S_306618958 0.013 0.1 2.0 5.0 25 OUTLET
S_306619063 0.013 0.1 2.0 5.0 25 OUTLET
S_7478115632 0.013 0.1 2.0 5.0 25 OUTLET
S_306619067 0.013 0.1 2.0 5.0 25 OUTLET
S_306619097 0.013 0.1 2.0 5.0 25 OUTLET
S_306619095 0.013 0.1 2.0 5.0 25 OUTLET
S_8984867006 0.013 0.1 2.0 5.0 25 OUTLET
S_6180287627 0.013 0.1 2.0 5.0 25 OUTLET
S_7478118969 0.013 0.1 2.0 5.0 25 OUTLET
S_306619108 0.013 0.1 2.0 5.0 25 OUTLET
S_306619114 0.013 0.1 2.0 5.0 25 OUTLET
S_3161269203 0.013 0.1 2.0 5.0 25 OUTLET
S_306619112 0.013 0.1 2.0 5.0 25 OUTLET
S_306619111 0.013 0.1 2.0 5.0 25 OUTLET
S_12174120924 0.013 0.1 2.0 5.0 25 OUTLET
S_306619149 0.013 0.1 2.0 5.0 25 OUTLET
S_6885082500 0.013 0.1 2.0 5.0 25 OUTLET
S_306619138 0.013 0.1 2.0 5.0 25 OUTLET
S_306619304 0.013 0.1 2.0 5.0 25 OUTLET
S_306619251 0.013 0.1 2.0 5.0 25 OUTLET
S_10081671366 0.013 0.1 2.0 5.0 25 OUTLET
S_306619537 0.013 0.1 2.0 5.0 25 OUTLET
S_306619290 0.013 0.1 2.0 5.0 25 OUTLET
S_306619548 0.013 0.1 2.0 5.0 25 OUTLET
S_306619358 0.013 0.1 2.0 5.0 25 OUTLET
S_306619613 0.013 0.1 2.0 5.0 25 OUTLET
S_306619459 0.013 0.1 2.0 5.0 25 OUTLET
S_6885082496 0.013 0.1 2.0 5.0 25 OUTLET
S_306619430 0.013 0.1 2.0 5.0 25 OUTLET
S_306619660 0.013 0.1 2.0 5.0 25 OUTLET
S_5928014162 0.013 0.1 2.0 5.0 25 OUTLET
S_306619844 0.013 0.1 2.0 5.0 25 OUTLET
S_306619995 0.013 0.1 2.0 5.0 25 OUTLET
S_306619845 0.013 0.1 2.0 5.0 25 OUTLET
S_306619847 0.013 0.1 2.0 5.0 25 OUTLET
S_306620209 0.013 0.1 2.0 5.0 25 OUTLET
S_306620777 0.013 0.1 2.0 5.0 25 OUTLET
S_306620753 0.013 0.1 2.0 5.0 25 OUTLET
S_306620173 0.013 0.1 2.0 5.0 25 OUTLET
S_306620148 0.013 0.1 2.0 5.0 25 OUTLET
S_306620088 0.013 0.1 2.0 5.0 25 OUTLET
S_6887795923 0.013 0.1 2.0 5.0 25 OUTLET
S_595767079 0.013 0.1 2.0 5.0 25 OUTLET
S_306620210 0.013 0.1 2.0 5.0 25 OUTLET
S_306620788 0.013 0.1 2.0 5.0 25 OUTLET
S_306620795 0.013 0.1 2.0 5.0 25 OUTLET
S_2414639343 0.013 0.1 2.0 5.0 25 OUTLET
S_306620833 0.013 0.1 2.0 5.0 25 OUTLET
S_306620800 0.013 0.1 2.0 5.0 25 OUTLET
S_306620804 0.013 0.1 2.0 5.0 25 OUTLET
S_306620826 0.013 0.1 2.0 5.0 25 OUTLET
S_306620870 0.013 0.1 2.0 5.0 25 OUTLET
S_306621104 0.013 0.1 2.0 5.0 25 OUTLET
S_2387017508 0.013 0.1 2.0 5.0 25 OUTLET
S_2447310407 0.013 0.1 2.0 5.0 25 OUTLET
S_7432244856 0.013 0.1 2.0 5.0 25 OUTLET
S_306621179 0.013 0.1 2.0 5.0 25 OUTLET
S_2388266816 0.013 0.1 2.0 5.0 25 OUTLET
S_13475843621 0.013 0.1 2.0 5.0 25 OUTLET
S_6196261543 0.013 0.1 2.0 5.0 25 OUTLET
S_7432244870 0.013 0.1 2.0 5.0 25 OUTLET
S_306621229 0.013 0.1 2.0 5.0 25 OUTLET
S_306621778 0.013 0.1 2.0 5.0 25 OUTLET
S_7432244863 0.013 0.1 2.0 5.0 25 OUTLET
S_306621270 0.013 0.1 2.0 5.0 25 OUTLET
S_2387127863 0.013 0.1 2.0 5.0 25 OUTLET
S_306621271 0.013 0.1 2.0 5.0 25 OUTLET
S_5267402569 0.013 0.1 2.0 5.0 25 OUTLET
S_306621762 0.013 0.1 2.0 5.0 25 OUTLET
S_4146211280 0.013 0.1 2.0 5.0 25 OUTLET
S_306621654 0.013 0.1 2.0 5.0 25 OUTLET
S_306621921 0.013 0.1 2.0 5.0 25 OUTLET
S_306621760 0.013 0.1 2.0 5.0 25 OUTLET
S_4146211271 0.013 0.1 2.0 5.0 25 OUTLET
S_306622059 0.013 0.1 2.0 5.0 25 OUTLET
S_306622853 0.013 0.1 2.0 5.0 25 OUTLET
S_306622844 0.013 0.1 2.0 5.0 25 OUTLET
S_306622157 0.013 0.1 2.0 5.0 25 OUTLET
S_6505392518 0.013 0.1 2.0 5.0 25 OUTLET
S_306622943 0.013 0.1 2.0 5.0 25 OUTLET
S_306622953 0.013 0.1 2.0 5.0 25 OUTLET
S_306622244 0.013 0.1 2.0 5.0 25 OUTLET
S_306622782 0.013 0.1 2.0 5.0 25 OUTLET
S_5267402571 0.013 0.1 2.0 5.0 25 OUTLET
S_306622845 0.013 0.1 2.0 5.0 25 OUTLET
S_306622934 0.013 0.1 2.0 5.0 25 OUTLET
S_306622967 0.013 0.1 2.0 5.0 25 OUTLET
S_306622884 0.013 0.1 2.0 5.0 25 OUTLET
S_306622935 0.013 0.1 2.0 5.0 25 OUTLET
S_1054699509 0.013 0.1 2.0 5.0 25 OUTLET
S_306623034 0.013 0.1 2.0 5.0 25 OUTLET
S_306622987 0.013 0.1 2.0 5.0 25 OUTLET
S_306623026 0.013 0.1 2.0 5.0 25 OUTLET
S_306622963 0.013 0.1 2.0 5.0 25 OUTLET
S_306622944 0.013 0.1 2.0 5.0 25 OUTLET
S_306622973 0.013 0.1 2.0 5.0 25 OUTLET
S_1054699551 0.013 0.1 2.0 5.0 25 OUTLET
S_1054699537 0.013 0.1 2.0 5.0 25 OUTLET
S_306622975 0.013 0.1 2.0 5.0 25 OUTLET
S_306623023 0.013 0.1 2.0 5.0 25 OUTLET
S_306623000 0.013 0.1 2.0 5.0 25 OUTLET
S_836238547 0.013 0.1 2.0 5.0 25 OUTLET
S_3549124825 0.013 0.1 2.0 5.0 25 OUTLET
S_306623144 0.013 0.1 2.0 5.0 25 OUTLET
S_3549124908 0.013 0.1 2.0 5.0 25 OUTLET
S_306623127 0.013 0.1 2.0 5.0 25 OUTLET
S_5267402561 0.013 0.1 2.0 5.0 25 OUTLET
S_7432244880 0.013 0.1 2.0 5.0 25 OUTLET
S_306623172 0.013 0.1 2.0 5.0 25 OUTLET
S_306623288 0.013 0.1 2.0 5.0 25 OUTLET
S_306623366 0.013 0.1 2.0 5.0 25 OUTLET
S_306623545 0.013 0.1 2.0 5.0 25 OUTLET
S_7432244881 0.013 0.1 2.0 5.0 25 OUTLET
S_306623250 0.013 0.1 2.0 5.0 25 OUTLET
S_306623289 0.013 0.1 2.0 5.0 25 OUTLET
S_6143210298 0.013 0.1 2.0 5.0 25 OUTLET
S_6567395226 0.013 0.1 2.0 5.0 25 OUTLET
S_306623252 0.013 0.1 2.0 5.0 25 OUTLET
S_306626269 0.013 0.1 2.0 5.0 25 OUTLET
S_6567395231 0.013 0.1 2.0 5.0 25 OUTLET
S_306623346 0.013 0.1 2.0 5.0 25 OUTLET
S_306623579 0.013 0.1 2.0 5.0 25 OUTLET
S_306623646 0.013 0.1 2.0 5.0 25 OUTLET
S_306623614 0.013 0.1 2.0 5.0 25 OUTLET
S_306623368 0.013 0.1 2.0 5.0 25 OUTLET
S_306624836 0.013 0.1 2.0 5.0 25 OUTLET
S_306623514 0.013 0.1 2.0 5.0 25 OUTLET
S_306623471 0.013 0.1 2.0 5.0 25 OUTLET
S_306623640 0.013 0.1 2.0 5.0 25 OUTLET
S_10094529583 0.013 0.1 2.0 5.0 25 OUTLET
S_306623540 0.013 0.1 2.0 5.0 25 OUTLET
S_836238514 0.013 0.1 2.0 5.0 25 OUTLET
S_306623632 0.013 0.1 2.0 5.0 25 OUTLET
S_306623633 0.013 0.1 2.0 5.0 25 OUTLET
S_836238561 0.013 0.1 2.0 5.0 25 OUTLET
S_10094529584 0.013 0.1 2.0 5.0 25 OUTLET
S_306623642 0.013 0.1 2.0 5.0 25 OUTLET
S_6193921852 0.013 0.1 2.0 5.0 25 OUTLET
S_6193921851 0.013 0.1 2.0 5.0 25 OUTLET
S_1468908333 0.013 0.1 2.0 5.0 25 OUTLET
S_306623783 0.013 0.1 2.0 5.0 25 OUTLET
S_4377707469 0.013 0.1 2.0 5.0 25 OUTLET
S_2387012139 0.013 0.1 2.0 5.0 25 OUTLET
S_1488526923 0.013 0.1 2.0 5.0 25 OUTLET
S_306625001 0.013 0.1 2.0 5.0 25 OUTLET
S_306624987 0.013 0.1 2.0 5.0 25 OUTLET
S_306625124 0.013 0.1 2.0 5.0 25 OUTLET
S_306624943 0.013 0.1 2.0 5.0 25 OUTLET
S_306624837 0.013 0.1 2.0 5.0 25 OUTLET
S_306624842 0.013 0.1 2.0 5.0 25 OUTLET
S_306624983 0.013 0.1 2.0 5.0 25 OUTLET
S_306624999 0.013 0.1 2.0 5.0 25 OUTLET
S_306624988 0.013 0.1 2.0 5.0 25 OUTLET
S_7467099419 0.013 0.1 2.0 5.0 25 OUTLET
S_7467099418 0.013 0.1 2.0 5.0 25 OUTLET
S_306625194 0.013 0.1 2.0 5.0 25 OUTLET
S_306625286 0.013 0.1 2.0 5.0 25 OUTLET
S_306625203 0.013 0.1 2.0 5.0 25 OUTLET
S_306625106 0.013 0.1 2.0 5.0 25 OUTLET
S_306626042 0.013 0.1 2.0 5.0 25 OUTLET
S_306626118 0.013 0.1 2.0 5.0 25 OUTLET
S_306625656 0.013 0.1 2.0 5.0 25 OUTLET
S_622363166 0.013 0.1 2.0 5.0 25 OUTLET
S_306626245 0.013 0.1 2.0 5.0 25 OUTLET
S_306626120 0.013 0.1 2.0 5.0 25 OUTLET
S_306625687 0.013 0.1 2.0 5.0 25 OUTLET
S_306626041 0.013 0.1 2.0 5.0 25 OUTLET
S_306626116 0.013 0.1 2.0 5.0 25 OUTLET
S_2414635985 0.013 0.1 2.0 5.0 25 OUTLET
S_306625812 0.013 0.1 2.0 5.0 25 OUTLET
S_306625696 0.013 0.1 2.0 5.0 25 OUTLET
S_2414635986 0.013 0.1 2.0 5.0 25 OUTLET
S_306625946 0.013 0.1 2.0 5.0 25 OUTLET
S_306625751 0.013 0.1 2.0 5.0 25 OUTLET
S_10094529594 0.013 0.1 2.0 5.0 25 OUTLET
S_306625994 0.013 0.1 2.0 5.0 25 OUTLET
S_306625818 0.013 0.1 2.0 5.0 25 OUTLET
S_306625861 0.013 0.1 2.0 5.0 25 OUTLET
S_6195583528 0.013 0.1 2.0 5.0 25 OUTLET
S_306625912 0.013 0.1 2.0 5.0 25 OUTLET
S_6195583527 0.013 0.1 2.0 5.0 25 OUTLET
S_306625916 0.013 0.1 2.0 5.0 25 OUTLET
S_2414635979 0.013 0.1 2.0 5.0 25 OUTLET
S_6130692320 0.013 0.1 2.0 5.0 25 OUTLET
S_306625919 0.013 0.1 2.0 5.0 25 OUTLET
S_2414635981 0.013 0.1 2.0 5.0 25 OUTLET
S_306625927 0.013 0.1 2.0 5.0 25 OUTLET
S_306625980 0.013 0.1 2.0 5.0 25 OUTLET
S_2273437034 0.013 0.1 2.0 5.0 25 OUTLET
S_10994556964 0.013 0.1 2.0 5.0 25 OUTLET
S_306626040 0.013 0.1 2.0 5.0 25 OUTLET
S_306626044 0.013 0.1 2.0 5.0 25 OUTLET
S_306626117 0.013 0.1 2.0 5.0 25 OUTLET
S_622363165 0.013 0.1 2.0 5.0 25 OUTLET
S_6567395234 0.013 0.1 2.0 5.0 25 OUTLET
S_313460313 0.013 0.1 2.0 5.0 25 OUTLET
S_1488556150 0.013 0.1 2.0 5.0 25 OUTLET
S_1473871929 0.013 0.1 2.0 5.0 25 OUTLET
S_10081725591 0.013 0.1 2.0 5.0 25 OUTLET
S_1488556131 0.013 0.1 2.0 5.0 25 OUTLET
S_313460396 0.013 0.1 2.0 5.0 25 OUTLET
S_3161269199 0.013 0.1 2.0 5.0 25 OUTLET
S_3161268847 0.013 0.1 2.0 5.0 25 OUTLET
S_313460398 0.013 0.1 2.0 5.0 25 OUTLET
S_3096683823 0.013 0.1 2.0 5.0 25 OUTLET
S_1473871961 0.013 0.1 2.0 5.0 25 OUTLET
S_5267835373 0.013 0.1 2.0 5.0 25 OUTLET
S_313460484 0.013 0.1 2.0 5.0 25 OUTLET
S_313460485 0.013 0.1 2.0 5.0 25 OUTLET
S_1417443652 0.013 0.1 2.0 5.0 25 OUTLET
S_313460550 0.013 0.1 2.0 5.0 25 OUTLET
S_1417443629 0.013 0.1 2.0 5.0 25 OUTLET
S_10081706680 0.013 0.1 2.0 5.0 25 OUTLET
S_6528148964 0.013 0.1 2.0 5.0 25 OUTLET
S_10081706678 0.013 0.1 2.0 5.0 25 OUTLET
S_313460551 0.013 0.1 2.0 5.0 25 OUTLET
S_2450399408 0.013 0.1 2.0 5.0 25 OUTLET
S_2450399406 0.013 0.1 2.0 5.0 25 OUTLET
S_348036183 0.013 0.1 2.0 5.0 25 OUTLET
S_3149541717 0.013 0.1 2.0 5.0 25 OUTLET
S_3149541720 0.013 0.1 2.0 5.0 25 OUTLET
S_7327251302 0.013 0.1 2.0 5.0 25 OUTLET
S_417298245 0.013 0.1 2.0 5.0 25 OUTLET
S_4918203529 0.013 0.1 2.0 5.0 25 OUTLET
S_1471714437 0.013 0.1 2.0 5.0 25 OUTLET
S_1481366487 0.013 0.1 2.0 5.0 25 OUTLET
S_650140575 0.013 0.1 2.0 5.0 25 OUTLET
S_650141428 0.013 0.1 2.0 5.0 25 OUTLET
S_2400167287 0.013 0.1 2.0 5.0 25 OUTLET
S_650141087 0.013 0.1 2.0 5.0 25 OUTLET
S_650141020 0.013 0.1 2.0 5.0 25 OUTLET
S_2385141385 0.013 0.1 2.0 5.0 25 OUTLET
S_2387017507 0.013 0.1 2.0 5.0 25 OUTLET
S_1653906408 0.013 0.1 2.0 5.0 25 OUTLET
S_747660340 0.013 0.1 2.0 5.0 25 OUTLET
S_3235639712 0.013 0.1 2.0 5.0 25 OUTLET
S_2389119100 0.013 0.1 2.0 5.0 25 OUTLET
S_747660344 0.013 0.1 2.0 5.0 25 OUTLET
S_3149523801 0.013 0.1 2.0 5.0 25 OUTLET
S_13152778980 0.013 0.1 2.0 5.0 25 OUTLET
S_1417443691 0.013 0.1 2.0 5.0 25 OUTLET
S_2450399422 0.013 0.1 2.0 5.0 25 OUTLET
S_11259448973 0.013 0.1 2.0 5.0 25 OUTLET
S_3549123747 0.013 0.1 2.0 5.0 25 OUTLET
S_836238551 0.013 0.1 2.0 5.0 25 OUTLET
S_10001905133 0.013 0.1 2.0 5.0 25 OUTLET
S_3549124910 0.013 0.1 2.0 5.0 25 OUTLET
S_10001905132 0.013 0.1 2.0 5.0 25 OUTLET
S_836238553 0.013 0.1 2.0 5.0 25 OUTLET
S_3549124811 0.013 0.1 2.0 5.0 25 OUTLET
S_3549123780 0.013 0.1 2.0 5.0 25 OUTLET
S_5267369428 0.013 0.1 2.0 5.0 25 OUTLET
S_3549123729 0.013 0.1 2.0 5.0 25 OUTLET
S_5267369424 0.013 0.1 2.0 5.0 25 OUTLET
S_1278162234 0.013 0.1 2.0 5.0 25 OUTLET
S_1278162335 0.013 0.1 2.0 5.0 25 OUTLET
S_10153868763 0.013 0.1 2.0 5.0 25 OUTLET
S_3158788597 0.013 0.1 2.0 5.0 25 OUTLET
S_1278162239 0.013 0.1 2.0 5.0 25 OUTLET
S_10839366478 0.013 0.1 2.0 5.0 25 OUTLET
S_11385670152 0.013 0.1 2.0 5.0 25 OUTLET
S_1278162252 0.013 0.1 2.0 5.0 25 OUTLET
S_3158788604 0.013 0.1 2.0 5.0 25 OUTLET
S_1278162290 0.013 0.1 2.0 5.0 25 OUTLET
S_6454862032 0.013 0.1 2.0 5.0 25 OUTLET
S_1278162256 0.013 0.1 2.0 5.0 25 OUTLET
S_7432244834 0.013 0.1 2.0 5.0 25 OUTLET
S_1377861068 0.013 0.1 2.0 5.0 25 OUTLET
S_1278162270 0.013 0.1 2.0 5.0 25 OUTLET
S_3149542145 0.013 0.1 2.0 5.0 25 OUTLET
S_7432244840 0.013 0.1 2.0 5.0 25 OUTLET
S_3158788133 0.013 0.1 2.0 5.0 25 OUTLET
S_1278162293 0.013 0.1 2.0 5.0 25 OUTLET
S_1278162286 0.013 0.1 2.0 5.0 25 OUTLET
S_3158788120 0.013 0.1 2.0 5.0 25 OUTLET
S_3149542147 0.013 0.1 2.0 5.0 25 OUTLET
S_11385626668 0.013 0.1 2.0 5.0 25 OUTLET
S_6454862031 0.013 0.1 2.0 5.0 25 OUTLET
S_3158788134 0.013 0.1 2.0 5.0 25 OUTLET
S_1377861139 0.013 0.1 2.0 5.0 25 OUTLET
S_1278162311 0.013 0.1 2.0 5.0 25 OUTLET
S_1278162357 0.013 0.1 2.0 5.0 25 OUTLET
S_3158788574 0.013 0.1 2.0 5.0 25 OUTLET
S_3158788139 0.013 0.1 2.0 5.0 25 OUTLET
S_13279121428 0.013 0.1 2.0 5.0 25 OUTLET
S_13415110849 0.013 0.1 2.0 5.0 25 OUTLET
S_1377861052 0.013 0.1 2.0 5.0 25 OUTLET
S_1377861085 0.013 0.1 2.0 5.0 25 OUTLET
S_6531845899 0.013 0.1 2.0 5.0 25 OUTLET
S_6142604397 0.013 0.1 2.0 5.0 25 OUTLET
S_1377861055 0.013 0.1 2.0 5.0 25 OUTLET
S_10081671262 0.013 0.1 2.0 5.0 25 OUTLET
S_3149541686 0.013 0.1 2.0 5.0 25 OUTLET
S_3158788600 0.013 0.1 2.0 5.0 25 OUTLET
S_3158788633 0.013 0.1 2.0 5.0 25 OUTLET
S_11012063564 0.013 0.1 2.0 5.0 25 OUTLET
S_1377861070 0.013 0.1 2.0 5.0 25 OUTLET
S_3761074302 0.013 0.1 2.0 5.0 25 OUTLET
S_1377861078 0.013 0.1 2.0 5.0 25 OUTLET
S_1377861121 0.013 0.1 2.0 5.0 25 OUTLET
S_3149541700 0.013 0.1 2.0 5.0 25 OUTLET
S_1377861114 0.013 0.1 2.0 5.0 25 OUTLET
S_2407764624 0.013 0.1 2.0 5.0 25 OUTLET
S_1377861103 0.013 0.1 2.0 5.0 25 OUTLET
S_13410465942 0.013 0.1 2.0 5.0 25 OUTLET
S_2407764625 0.013 0.1 2.0 5.0 25 OUTLET
S_4582754028 0.013 0.1 2.0 5.0 25 OUTLET
S_1377861104 0.013 0.1 2.0 5.0 25 OUTLET
S_6518859305 0.013 0.1 2.0 5.0 25 OUTLET
S_6518859320 0.013 0.1 2.0 5.0 25 OUTLET
S_4918188102 0.013 0.1 2.0 5.0 25 OUTLET
S_1377861123 0.013 0.1 2.0 5.0 25 OUTLET
S_11387496338 0.013 0.1 2.0 5.0 25 OUTLET
S_4415687414 0.013 0.1 2.0 5.0 25 OUTLET
S_2110371291 0.013 0.1 2.0 5.0 25 OUTLET
S_1377861129 0.013 0.1 2.0 5.0 25 OUTLET
S_3149541689 0.013 0.1 2.0 5.0 25 OUTLET
S_7478257546 0.013 0.1 2.0 5.0 25 OUTLET
S_3158788115 0.013 0.1 2.0 5.0 25 OUTLET
S_3158788135 0.013 0.1 2.0 5.0 25 OUTLET
S_2406072874 0.013 0.1 2.0 5.0 25 OUTLET
S_3158788624 0.013 0.1 2.0 5.0 25 OUTLET
S_1417443438 0.013 0.1 2.0 5.0 25 OUTLET
S_2057491159 0.013 0.1 2.0 5.0 25 OUTLET
S_1488526915 0.013 0.1 2.0 5.0 25 OUTLET
S_4377707475 0.013 0.1 2.0 5.0 25 OUTLET
S_1417443496 0.013 0.1 2.0 5.0 25 OUTLET
S_5493854958 0.013 0.1 2.0 5.0 25 OUTLET
S_1488526892 0.013 0.1 2.0 5.0 25 OUTLET
S_1417443503 0.013 0.1 2.0 5.0 25 OUTLET
S_7432244850 0.013 0.1 2.0 5.0 25 OUTLET
S_1488526889 0.013 0.1 2.0 5.0 25 OUTLET
S_1488526909 0.013 0.1 2.0 5.0 25 OUTLET
S_1417443508 0.013 0.1 2.0 5.0 25 OUTLET
S_3161269164 0.013 0.1 2.0 5.0 25 OUTLET
S_3504342593 0.013 0.1 2.0 5.0 25 OUTLET
S_1417443542 0.013 0.1 2.0 5.0 25 OUTLET
S_1417443612 0.013 0.1 2.0 5.0 25 OUTLET
S_6528148952 0.013 0.1 2.0 5.0 25 OUTLET
S_10989273453 0.013 0.1 2.0 5.0 25 OUTLET
S_1417443557 0.013 0.1 2.0 5.0 25 OUTLET
S_6528148954 0.013 0.1 2.0 5.0 25 OUTLET
S_6528148957 0.013 0.1 2.0 5.0 25 OUTLET
S_1417443563 0.013 0.1 2.0 5.0 25 OUTLET
S_1417443584 0.013 0.1 2.0 5.0 25 OUTLET
S_10081725588 0.013 0.1 2.0 5.0 25 OUTLET
S_10081671394 0.013 0.1 2.0 5.0 25 OUTLET
S_6528148966 0.013 0.1 2.0 5.0 25 OUTLET
S_6528148967 0.013 0.1 2.0 5.0 25 OUTLET
S_1417443628 0.013 0.1 2.0 5.0 25 OUTLET
S_6528148968 0.013 0.1 2.0 5.0 25 OUTLET
S_1417443633 0.013 0.1 2.0 5.0 25 OUTLET
S_6528148969 0.013 0.1 2.0 5.0 25 OUTLET
S_5493844924 0.013 0.1 2.0 5.0 25 OUTLET
S_1488526924 0.013 0.1 2.0 5.0 25 OUTLET
S_6528148971 0.013 0.1 2.0 5.0 25 OUTLET
S_1417443659 0.013 0.1 2.0 5.0 25 OUTLET
S_6528148973 0.013 0.1 2.0 5.0 25 OUTLET
S_9743339252 0.013 0.1 2.0 5.0 25 OUTLET
S_1417443666 0.013 0.1 2.0 5.0 25 OUTLET
S_2450399430 0.013 0.1 2.0 5.0 25 OUTLET
S_3235639719 0.013 0.1 2.0 5.0 25 OUTLET
S_3235639720 0.013 0.1 2.0 5.0 25 OUTLET
S_1417443716 0.013 0.1 2.0 5.0 25 OUTLET
S_6142327790 0.013 0.1 2.0 5.0 25 OUTLET
S_10081671376 0.013 0.1 2.0 5.0 25 OUTLET
S_1417443726 0.013 0.1 2.0 5.0 25 OUTLET
S_6180272976 0.013 0.1 2.0 5.0 25 OUTLET
S_1417443734 0.013 0.1 2.0 5.0 25 OUTLET
S_10081671363 0.013 0.1 2.0 5.0 25 OUTLET
S_1417443736 0.013 0.1 2.0 5.0 25 OUTLET
S_12196455086 0.013 0.1 2.0 5.0 25 OUTLET
S_1417443740 0.013 0.1 2.0 5.0 25 OUTLET
S_10081671364 0.013 0.1 2.0 5.0 25 OUTLET
S_6193921850 0.013 0.1 2.0 5.0 25 OUTLET
S_1471714099 0.013 0.1 2.0 5.0 25 OUTLET
S_1481354885 0.013 0.1 2.0 5.0 25 OUTLET
S_4918188103 0.013 0.1 2.0 5.0 25 OUTLET
S_1473826426 0.013 0.1 2.0 5.0 25 OUTLET
S_1473826428 0.013 0.1 2.0 5.0 25 OUTLET
S_1481366489 0.013 0.1 2.0 5.0 25 OUTLET
S_5388494824 0.013 0.1 2.0 5.0 25 OUTLET
S_1473826436 0.013 0.1 2.0 5.0 25 OUTLET
S_1473871923 0.013 0.1 2.0 5.0 25 OUTLET
S_7432244843 0.013 0.1 2.0 5.0 25 OUTLET
S_1473871926 0.013 0.1 2.0 5.0 25 OUTLET
S_1473871955 0.013 0.1 2.0 5.0 25 OUTLET
S_1488526920 0.013 0.1 2.0 5.0 25 OUTLET
S_1473871954 0.013 0.1 2.0 5.0 25 OUTLET
S_7432244844 0.013 0.1 2.0 5.0 25 OUTLET
S_1473871927 0.013 0.1 2.0 5.0 25 OUTLET
S_1473871937 0.013 0.1 2.0 5.0 25 OUTLET
S_10094580864 0.013 0.1 2.0 5.0 25 OUTLET
S_5267823521 0.013 0.1 2.0 5.0 25 OUTLET
S_1473871942 0.013 0.1 2.0 5.0 25 OUTLET
S_3096683824 0.013 0.1 2.0 5.0 25 OUTLET
S_1473871936 0.013 0.1 2.0 5.0 25 OUTLET
S_1473871947 0.013 0.1 2.0 5.0 25 OUTLET
S_1473871956 0.013 0.1 2.0 5.0 25 OUTLET
S_1473871957 0.013 0.1 2.0 5.0 25 OUTLET
S_1473871959 0.013 0.1 2.0 5.0 25 OUTLET
S_1473871938 0.013 0.1 2.0 5.0 25 OUTLET
S_7432244848 0.013 0.1 2.0 5.0 25 OUTLET
S_1473871941 0.013 0.1 2.0 5.0 25 OUTLET
S_1473871958 0.013 0.1 2.0 5.0 25 OUTLET
S_7432244847 0.013 0.1 2.0 5.0 25 OUTLET
S_7432244845 0.013 0.1 2.0 5.0 25 OUTLET
S_7432244846 0.013 0.1 2.0 5.0 25 OUTLET
S_1473885237 0.013 0.1 2.0 5.0 25 OUTLET
S_1473885223 0.013 0.1 2.0 5.0 25 OUTLET
S_7432244854 0.013 0.1 2.0 5.0 25 OUTLET
S_1473885226 0.013 0.1 2.0 5.0 25 OUTLET
S_1473885458 0.013 0.1 2.0 5.0 25 OUTLET
S_1473885439 0.013 0.1 2.0 5.0 25 OUTLET
S_11663050338 0.013 0.1 2.0 5.0 25 OUTLET
S_1473890785 0.013 0.1 2.0 5.0 25 OUTLET
S_12695945997 0.013 0.1 2.0 5.0 25 OUTLET
S_6178041424 0.013 0.1 2.0 5.0 25 OUTLET
S_6463519072 0.013 0.1 2.0 5.0 25 OUTLET
S_1473890791 0.013 0.1 2.0 5.0 25 OUTLET
S_6178041420 0.013 0.1 2.0 5.0 25 OUTLET
S_12151399348 0.013 0.1 2.0 5.0 25 OUTLET
S_1477138900 0.013 0.1 2.0 5.0 25 OUTLET
S_1481354884 0.013 0.1 2.0 5.0 25 OUTLET
S_4918188104 0.013 0.1 2.0 5.0 25 OUTLET
S_6130764691 0.013 0.1 2.0 5.0 25 OUTLET
S_11387517314 0.013 0.1 2.0 5.0 25 OUTLET
S_1488526851 0.013 0.1 2.0 5.0 25 OUTLET
S_1488526884 0.013 0.1 2.0 5.0 25 OUTLET
S_1488526859 0.013 0.1 2.0 5.0 25 OUTLET
S_1488526883 0.013 0.1 2.0 5.0 25 OUTLET
S_1488526869 0.013 0.1 2.0 5.0 25 OUTLET
S_1488526866 0.013 0.1 2.0 5.0 25 OUTLET
S_11665987959 0.013 0.1 2.0 5.0 25 OUTLET
S_1488526894 0.013 0.1 2.0 5.0 25 OUTLET
S_1488526919 0.013 0.1 2.0 5.0 25 OUTLET
S_6152326682 0.013 0.1 2.0 5.0 25 OUTLET
S_1488526911 0.013 0.1 2.0 5.0 25 OUTLET
S_5267823528 0.013 0.1 2.0 5.0 25 OUTLET
S_5493854959 0.013 0.1 2.0 5.0 25 OUTLET
S_6567100315 0.013 0.1 2.0 5.0 25 OUTLET
S_4377707474 0.013 0.1 2.0 5.0 25 OUTLET
S_1488526896 0.013 0.1 2.0 5.0 25 OUTLET
S_3168039449 0.013 0.1 2.0 5.0 25 OUTLET
S_3538106723 0.013 0.1 2.0 5.0 25 OUTLET
S_5267823527 0.013 0.1 2.0 5.0 25 OUTLET
S_7432244851 0.013 0.1 2.0 5.0 25 OUTLET
S_4377707480 0.013 0.1 2.0 5.0 25 OUTLET
S_3168039448 0.013 0.1 2.0 5.0 25 OUTLET
S_10094580887 0.013 0.1 2.0 5.0 25 OUTLET
S_10094580889 0.013 0.1 2.0 5.0 25 OUTLET
S_1608973468 0.013 0.1 2.0 5.0 25 OUTLET
S_12067305544 0.013 0.1 2.0 5.0 25 OUTLET
S_1645178560 0.013 0.1 2.0 5.0 25 OUTLET
S_6463569335 0.013 0.1 2.0 5.0 25 OUTLET
S_650141496 0.013 0.1 2.0 5.0 25 OUTLET
S_1653906433 0.013 0.1 2.0 5.0 25 OUTLET
S_2389125034 0.013 0.1 2.0 5.0 25 OUTLET
S_2407745357 0.013 0.1 2.0 5.0 25 OUTLET
S_1653906436 0.013 0.1 2.0 5.0 25 OUTLET
S_11977577698 0.013 0.1 2.0 5.0 25 OUTLET
S_11260122965 0.013 0.1 2.0 5.0 25 OUTLET
S_2019288831 0.013 0.1 2.0 5.0 25 OUTLET
S_6141722653 0.013 0.1 2.0 5.0 25 OUTLET
S_6141722656 0.013 0.1 2.0 5.0 25 OUTLET
S_2019288832 0.013 0.1 2.0 5.0 25 OUTLET
S_6141722658 0.013 0.1 2.0 5.0 25 OUTLET
S_2110371293 0.013 0.1 2.0 5.0 25 OUTLET
S_11260122968 0.013 0.1 2.0 5.0 25 OUTLET
S_3761074303 0.013 0.1 2.0 5.0 25 OUTLET
S_2127279448 0.013 0.1 2.0 5.0 25 OUTLET
S_6884276685 0.013 0.1 2.0 5.0 25 OUTLET
S_2414635978 0.013 0.1 2.0 5.0 25 OUTLET
S_2385141390 0.013 0.1 2.0 5.0 25 OUTLET
S_3826045400 0.013 0.1 2.0 5.0 25 OUTLET
S_2387017402 0.013 0.1 2.0 5.0 25 OUTLET
S_6130226927 0.013 0.1 2.0 5.0 25 OUTLET
S_6131800547 0.013 0.1 2.0 5.0 25 OUTLET
S_2387173529 0.013 0.1 2.0 5.0 25 OUTLET
S_2387173530 0.013 0.1 2.0 5.0 25 OUTLET
S_2407763129 0.013 0.1 2.0 5.0 25 OUTLET
S_2388266803 0.013 0.1 2.0 5.0 25 OUTLET
S_2388266830 0.013 0.1 2.0 5.0 25 OUTLET
S_2509419434 0.013 0.1 2.0 5.0 25 OUTLET
S_4146210958 0.013 0.1 2.0 5.0 25 OUTLET
S_2388266812 0.013 0.1 2.0 5.0 25 OUTLET
S_7432244869 0.013 0.1 2.0 5.0 25 OUTLET
S_11007263820 0.013 0.1 2.0 5.0 25 OUTLET
S_4146211277 0.013 0.1 2.0 5.0 25 OUTLET
S_3543166934 0.013 0.1 2.0 5.0 25 OUTLET
S_7429952410 0.013 0.1 2.0 5.0 25 OUTLET
S_2388266833 0.013 0.1 2.0 5.0 25 OUTLET
S_2509419436 0.013 0.1 2.0 5.0 25 OUTLET
S_2388266836 0.013 0.1 2.0 5.0 25 OUTLET
S_5267402566 0.013 0.1 2.0 5.0 25 OUTLET
S_11903564939 0.013 0.1 2.0 5.0 25 OUTLET
S_2389119097 0.013 0.1 2.0 5.0 25 OUTLET
S_3235639716 0.013 0.1 2.0 5.0 25 OUTLET
S_3149523797 0.013 0.1 2.0 5.0 25 OUTLET
S_11977577699 0.013 0.1 2.0 5.0 25 OUTLET
S_2399992907 0.013 0.1 2.0 5.0 25 OUTLET
S_10094504108 0.013 0.1 2.0 5.0 25 OUTLET
S_10094504105 0.013 0.1 2.0 5.0 25 OUTLET
S_3298857094 0.013 0.1 2.0 5.0 25 OUTLET
S_3287849051 0.013 0.1 2.0 5.0 25 OUTLET
S_11374930009 0.013 0.1 2.0 5.0 25 OUTLET
S_10081671286 0.013 0.1 2.0 5.0 25 OUTLET
S_2407764622 0.013 0.1 2.0 5.0 25 OUTLET
S_6531845897 0.013 0.1 2.0 5.0 25 OUTLET
S_6531845895 0.013 0.1 2.0 5.0 25 OUTLET
S_2414626606 0.013 0.1 2.0 5.0 25 OUTLET
S_6887565739 0.013 0.1 2.0 5.0 25 OUTLET
S_2447310402 0.013 0.1 2.0 5.0 25 OUTLET
S_2447310404 0.013 0.1 2.0 5.0 25 OUTLET
S_2447310403 0.013 0.1 2.0 5.0 25 OUTLET
S_6130226930 0.013 0.1 2.0 5.0 25 OUTLET
S_2447310406 0.013 0.1 2.0 5.0 25 OUTLET
S_6130226931 0.013 0.1 2.0 5.0 25 OUTLET
S_6131800546 0.013 0.1 2.0 5.0 25 OUTLET
S_2450399417 0.013 0.1 2.0 5.0 25 OUTLET
S_2450399435 0.013 0.1 2.0 5.0 25 OUTLET
S_2450399416 0.013 0.1 2.0 5.0 25 OUTLET
S_2450399415 0.013 0.1 2.0 5.0 25 OUTLET
S_2450399433 0.013 0.1 2.0 5.0 25 OUTLET
S_2450399429 0.013 0.1 2.0 5.0 25 OUTLET
S_11259448953 0.013 0.1 2.0 5.0 25 OUTLET
S_6528148976 0.013 0.1 2.0 5.0 25 OUTLET
S_3149523809 0.013 0.1 2.0 5.0 25 OUTLET
S_3149523807 0.013 0.1 2.0 5.0 25 OUTLET
S_10172729085 0.013 0.1 2.0 5.0 25 OUTLET
S_2509419432 0.013 0.1 2.0 5.0 25 OUTLET
S_12073866974 0.013 0.1 2.0 5.0 25 OUTLET
S_7432244857 0.013 0.1 2.0 5.0 25 OUTLET
S_2509419435 0.013 0.1 2.0 5.0 25 OUTLET
S_3161269196 0.013 0.1 2.0 5.0 25 OUTLET
S_6901563123 0.013 0.1 2.0 5.0 25 OUTLET
S_7086183227 0.013 0.1 2.0 5.0 25 OUTLET
S_3149523798 0.013 0.1 2.0 5.0 25 OUTLET
S_3149523799 0.013 0.1 2.0 5.0 25 OUTLET
S_3149523802 0.013 0.1 2.0 5.0 25 OUTLET
S_3149523800 0.013 0.1 2.0 5.0 25 OUTLET
S_3149523803 0.013 0.1 2.0 5.0 25 OUTLET
S_3149523804 0.013 0.1 2.0 5.0 25 OUTLET
S_3149523806 0.013 0.1 2.0 5.0 25 OUTLET
S_5389382766 0.013 0.1 2.0 5.0 25 OUTLET
S_3149541696 0.013 0.1 2.0 5.0 25 OUTLET
S_3149541706 0.013 0.1 2.0 5.0 25 OUTLET
S_3149541705 0.013 0.1 2.0 5.0 25 OUTLET
S_10081671278 0.013 0.1 2.0 5.0 25 OUTLET
S_3149541704 0.013 0.1 2.0 5.0 25 OUTLET
S_3149541707 0.013 0.1 2.0 5.0 25 OUTLET
S_10081671274 0.013 0.1 2.0 5.0 25 OUTLET
S_3149541708 0.013 0.1 2.0 5.0 25 OUTLET
S_10081671276 0.013 0.1 2.0 5.0 25 OUTLET
S_10081671275 0.013 0.1 2.0 5.0 25 OUTLET
S_3149541710 0.013 0.1 2.0 5.0 25 OUTLET
S_10081671277 0.013 0.1 2.0 5.0 25 OUTLET
S_3149542132 0.013 0.1 2.0 5.0 25 OUTLET
S_3158788637 0.013 0.1 2.0 5.0 25 OUTLET
S_3158788638 0.013 0.1 2.0 5.0 25 OUTLET
S_6137799426 0.013 0.1 2.0 5.0 25 OUTLET
S_3149542136 0.013 0.1 2.0 5.0 25 OUTLET
S_3158788639 0.013 0.1 2.0 5.0 25 OUTLET
S_3158788641 0.013 0.1 2.0 5.0 25 OUTLET
S_9840710126 0.013 0.1 2.0 5.0 25 OUTLET
S_3158788131 0.013 0.1 2.0 5.0 25 OUTLET
S_3149542146 0.013 0.1 2.0 5.0 25 OUTLET
S_3158788114 0.013 0.1 2.0 5.0 25 OUTLET
S_3158788105 0.013 0.1 2.0 5.0 25 OUTLET
S_3158788145 0.013 0.1 2.0 5.0 25 OUTLET
S_3158788662 0.013 0.1 2.0 5.0 25 OUTLET
S_13415111434 0.013 0.1 2.0 5.0 25 OUTLET
S_3158788107 0.013 0.1 2.0 5.0 25 OUTLET
S_3158788108 0.013 0.1 2.0 5.0 25 OUTLET
S_7432244830 0.013 0.1 2.0 5.0 25 OUTLET
S_5388494832 0.013 0.1 2.0 5.0 25 OUTLET
S_3158788608 0.013 0.1 2.0 5.0 25 OUTLET
S_3158788144 0.013 0.1 2.0 5.0 25 OUTLET
S_13410902781 0.013 0.1 2.0 5.0 25 OUTLET
S_3158788110 0.013 0.1 2.0 5.0 25 OUTLET
S_7432244839 0.013 0.1 2.0 5.0 25 OUTLET
S_3158788140 0.013 0.1 2.0 5.0 25 OUTLET
S_3158788112 0.013 0.1 2.0 5.0 25 OUTLET
S_3158788116 0.013 0.1 2.0 5.0 25 OUTLET
S_3158788113 0.013 0.1 2.0 5.0 25 OUTLET
S_3158788118 0.013 0.1 2.0 5.0 25 OUTLET
S_11385670151 0.013 0.1 2.0 5.0 25 OUTLET
S_3158788117 0.013 0.1 2.0 5.0 25 OUTLET
S_3158788119 0.013 0.1 2.0 5.0 25 OUTLET
S_3158788124 0.013 0.1 2.0 5.0 25 OUTLET
S_4579649727 0.013 0.1 2.0 5.0 25 OUTLET
S_3158788129 0.013 0.1 2.0 5.0 25 OUTLET
S_3158788132 0.013 0.1 2.0 5.0 25 OUTLET
S_10153868766 0.013 0.1 2.0 5.0 25 OUTLET
S_10153868767 0.013 0.1 2.0 5.0 25 OUTLET
S_3158788612 0.013 0.1 2.0 5.0 25 OUTLET
S_3158788141 0.013 0.1 2.0 5.0 25 OUTLET
S_3158788142 0.013 0.1 2.0 5.0 25 OUTLET
S_3158788571 0.013 0.1 2.0 5.0 25 OUTLET
S_3158788565 0.013 0.1 2.0 5.0 25 OUTLET
S_7429952388 0.013 0.1 2.0 5.0 25 OUTLET
S_10153862358 0.013 0.1 2.0 5.0 25 OUTLET
S_3158788611 0.013 0.1 2.0 5.0 25 OUTLET
S_3158788629 0.013 0.1 2.0 5.0 25 OUTLET
S_3158788615 0.013 0.1 2.0 5.0 25 OUTLET
S_3158788616 0.013 0.1 2.0 5.0 25 OUTLET
S_3158788620 0.013 0.1 2.0 5.0 25 OUTLET
S_7432244836 0.013 0.1 2.0 5.0 25 OUTLET
S_3158788621 0.013 0.1 2.0 5.0 25 OUTLET
S_3158788632 0.013 0.1 2.0 5.0 25 OUTLET
S_3158788635 0.013 0.1 2.0 5.0 25 OUTLET
S_3158788636 0.013 0.1 2.0 5.0 25 OUTLET
S_3158788640 0.013 0.1 2.0 5.0 25 OUTLET
S_3158788642 0.013 0.1 2.0 5.0 25 OUTLET
S_3161118525 0.013 0.1 2.0 5.0 25 OUTLET
S_6131076159 0.013 0.1 2.0 5.0 25 OUTLET
S_10081725549 0.013 0.1 2.0 5.0 25 OUTLET
S_3161269161 0.013 0.1 2.0 5.0 25 OUTLET
S_3161269162 0.013 0.1 2.0 5.0 25 OUTLET
S_3221362713 0.013 0.1 2.0 5.0 25 OUTLET
S_3504751071 0.013 0.1 2.0 5.0 25 OUTLET
S_11353404310 0.013 0.1 2.0 5.0 25 OUTLET
S_3161269197 0.013 0.1 2.0 5.0 25 OUTLET
S_8979004920 0.013 0.1 2.0 5.0 25 OUTLET
S_8979004919 0.013 0.1 2.0 5.0 25 OUTLET
S_3168039450 0.013 0.1 2.0 5.0 25 OUTLET
S_5493868902 0.013 0.1 2.0 5.0 25 OUTLET
S_5493868901 0.013 0.1 2.0 5.0 25 OUTLET
S_3965281000 0.013 0.1 2.0 5.0 25 OUTLET
S_10081671392 0.013 0.1 2.0 5.0 25 OUTLET
S_12197618359 0.013 0.1 2.0 5.0 25 OUTLET
S_3235639717 0.013 0.1 2.0 5.0 25 OUTLET
S_3235639718 0.013 0.1 2.0 5.0 25 OUTLET
S_3235639721 0.013 0.1 2.0 5.0 25 OUTLET
S_12197618361 0.013 0.1 2.0 5.0 25 OUTLET
S_12067305543 0.013 0.1 2.0 5.0 25 OUTLET
S_3298864776 0.013 0.1 2.0 5.0 25 OUTLET
S_11865527609 0.013 0.1 2.0 5.0 25 OUTLET
S_5780852347 0.013 0.1 2.0 5.0 25 OUTLET
S_3421682934 0.013 0.1 2.0 5.0 25 OUTLET
S_12695960102 0.013 0.1 2.0 5.0 25 OUTLET
S_3538106692 0.013 0.1 2.0 5.0 25 OUTLET
S_7086183230 0.013 0.1 2.0 5.0 25 OUTLET
S_7086183228 0.013 0.1 2.0 5.0 25 OUTLET
S_7432283509 0.013 0.1 2.0 5.0 25 OUTLET
S_4146210945 0.013 0.1 2.0 5.0 25 OUTLET
S_3549123725 0.013 0.1 2.0 5.0 25 OUTLET
S_5267369426 0.013 0.1 2.0 5.0 25 OUTLET
S_5267369427 0.013 0.1 2.0 5.0 25 OUTLET
S_5267369429 0.013 0.1 2.0 5.0 25 OUTLET
S_3549124813 0.013 0.1 2.0 5.0 25 OUTLET
S_3549124818 0.013 0.1 2.0 5.0 25 OUTLET
S_3549124909 0.013 0.1 2.0 5.0 25 OUTLET
S_3549124822 0.013 0.1 2.0 5.0 25 OUTLET
S_2387385680 0.013 0.1 2.0 5.0 25 OUTLET
S_12186005569 0.013 0.1 2.0 5.0 25 OUTLET
S_3965280993 0.013 0.1 2.0 5.0 25 OUTLET
S_3965280999 0.013 0.1 2.0 5.0 25 OUTLET
S_3965280995 0.013 0.1 2.0 5.0 25 OUTLET
S_4146210931 0.013 0.1 2.0 5.0 25 OUTLET
S_6457067893 0.013 0.1 2.0 5.0 25 OUTLET
S_4146210932 0.013 0.1 2.0 5.0 25 OUTLET
S_6458176794 0.013 0.1 2.0 5.0 25 OUTLET
S_6458176792 0.013 0.1 2.0 5.0 25 OUTLET
S_4146210944 0.013 0.1 2.0 5.0 25 OUTLET
S_6457067894 0.013 0.1 2.0 5.0 25 OUTLET
S_4146210951 0.013 0.1 2.0 5.0 25 OUTLET
S_4146210953 0.013 0.1 2.0 5.0 25 OUTLET
S_11007254971 0.013 0.1 2.0 5.0 25 OUTLET
S_4146211263 0.013 0.1 2.0 5.0 25 OUTLET
S_4146211265 0.013 0.1 2.0 5.0 25 OUTLET
S_4146211266 0.013 0.1 2.0 5.0 25 OUTLET
S_6196261541 0.013 0.1 2.0 5.0 25 OUTLET
S_4146211267 0.013 0.1 2.0 5.0 25 OUTLET
S_4146211269 0.013 0.1 2.0 5.0 25 OUTLET
S_4146211270 0.013 0.1 2.0 5.0 25 OUTLET
S_7429952406 0.013 0.1 2.0 5.0 25 OUTLET
S_6504556325 0.013 0.1 2.0 5.0 25 OUTLET
S_4146211279 0.013 0.1 2.0 5.0 25 OUTLET
S_4146211273 0.013 0.1 2.0 5.0 25 OUTLET
S_4146211275 0.013 0.1 2.0 5.0 25 OUTLET
S_7432244868 0.013 0.1 2.0 5.0 25 OUTLET
S_4146211283 0.013 0.1 2.0 5.0 25 OUTLET
S_7432244867 0.013 0.1 2.0 5.0 25 OUTLET
S_4146211281 0.013 0.1 2.0 5.0 25 OUTLET
S_4146211286 0.013 0.1 2.0 5.0 25 OUTLET
S_4918188101 0.013 0.1 2.0 5.0 25 OUTLET
S_4918203528 0.013 0.1 2.0 5.0 25 OUTLET
S_5267402562 0.013 0.1 2.0 5.0 25 OUTLET
S_10049434084 0.013 0.1 2.0 5.0 25 OUTLET
S_5267402567 0.013 0.1 2.0 5.0 25 OUTLET
S_5267822919 0.013 0.1 2.0 5.0 25 OUTLET
S_5267823525 0.013 0.1 2.0 5.0 25 OUTLET
S_5267822920 0.013 0.1 2.0 5.0 25 OUTLET
S_5267823523 0.013 0.1 2.0 5.0 25 OUTLET
S_5267823522 0.013 0.1 2.0 5.0 25 OUTLET
S_5267823524 0.013 0.1 2.0 5.0 25 OUTLET
S_5267823526 0.013 0.1 2.0 5.0 25 OUTLET
S_5267823530 0.013 0.1 2.0 5.0 25 OUTLET
S_5292923939 0.013 0.1 2.0 5.0 25 OUTLET
S_5388479540 0.013 0.1 2.0 5.0 25 OUTLET
S_5388494831 0.013 0.1 2.0 5.0 25 OUTLET
S_6884276481 0.013 0.1 2.0 5.0 25 OUTLET
S_12181798460 0.013 0.1 2.0 5.0 25 OUTLET
S_6017833806 0.013 0.1 2.0 5.0 25 OUTLET
S_6017833807 0.013 0.1 2.0 5.0 25 OUTLET
S_6130226929 0.013 0.1 2.0 5.0 25 OUTLET
S_6130226928 0.013 0.1 2.0 5.0 25 OUTLET
S_11063510865 0.013 0.1 2.0 5.0 25 OUTLET
S_9189234398 0.013 0.1 2.0 5.0 25 OUTLET
S_6196261538 0.013 0.1 2.0 5.0 25 OUTLET
S_12067305554 0.013 0.1 2.0 5.0 25 OUTLET
S_6132603450 0.013 0.1 2.0 5.0 25 OUTLET
S_11476594021 0.013 0.1 2.0 5.0 25 OUTLET
S_6141722654 0.013 0.1 2.0 5.0 25 OUTLET
S_9189927159 0.013 0.1 2.0 5.0 25 OUTLET
S_10094580906 0.013 0.1 2.0 5.0 25 OUTLET
S_7432244855 0.013 0.1 2.0 5.0 25 OUTLET
S_6567395238 0.013 0.1 2.0 5.0 25 OUTLET
S_6567395227 0.013 0.1 2.0 5.0 25 OUTLET
S_6144301681 0.013 0.1 2.0 5.0 25 OUTLET
S_6178041419 0.013 0.1 2.0 5.0 25 OUTLET
S_6178041422 0.013 0.1 2.0 5.0 25 OUTLET
S_10094529581 0.013 0.1 2.0 5.0 25 OUTLET
S_6196261537 0.013 0.1 2.0 5.0 25 OUTLET
S_6196261540 0.013 0.1 2.0 5.0 25 OUTLET
S_6196261539 0.013 0.1 2.0 5.0 25 OUTLET
S_6196261542 0.013 0.1 2.0 5.0 25 OUTLET
S_11007259534 0.013 0.1 2.0 5.0 25 OUTLET
S_6462301370 0.013 0.1 2.0 5.0 25 OUTLET
S_6518859304 0.013 0.1 2.0 5.0 25 OUTLET
S_10839341172 0.013 0.1 2.0 5.0 25 OUTLET
S_6528148940 0.013 0.1 2.0 5.0 25 OUTLET
S_6528148951 0.013 0.1 2.0 5.0 25 OUTLET
S_6528148953 0.013 0.1 2.0 5.0 25 OUTLET
S_6528148955 0.013 0.1 2.0 5.0 25 OUTLET
S_6528148956 0.013 0.1 2.0 5.0 25 OUTLET
S_10081706681 0.013 0.1 2.0 5.0 25 OUTLET
S_6528148963 0.013 0.1 2.0 5.0 25 OUTLET
S_6528148965 0.013 0.1 2.0 5.0 25 OUTLET
S_6528148970 0.013 0.1 2.0 5.0 25 OUTLET
S_6528148975 0.013 0.1 2.0 5.0 25 OUTLET
S_6529626685 0.013 0.1 2.0 5.0 25 OUTLET
S_6531845894 0.013 0.1 2.0 5.0 25 OUTLET
S_13410465225 0.013 0.1 2.0 5.0 25 OUTLET
S_10081671279 0.013 0.1 2.0 5.0 25 OUTLET
S_7432359269 0.013 0.1 2.0 5.0 25 OUTLET
S_6567395228 0.013 0.1 2.0 5.0 25 OUTLET
S_6567395229 0.013 0.1 2.0 5.0 25 OUTLET
S_12174205245 0.013 0.1 2.0 5.0 25 OUTLET
S_6567395235 0.013 0.1 2.0 5.0 25 OUTLET
S_6567395237 0.013 0.1 2.0 5.0 25 OUTLET
S_6633301856 0.013 0.1 2.0 5.0 25 OUTLET
S_6884276477 0.013 0.1 2.0 5.0 25 OUTLET
S_6884276686 0.013 0.1 2.0 5.0 25 OUTLET
S_11374930012 0.013 0.1 2.0 5.0 25 OUTLET
S_11178931802 0.013 0.1 2.0 5.0 25 OUTLET
S_6887565743 0.013 0.1 2.0 5.0 25 OUTLET
S_11178931798 0.013 0.1 2.0 5.0 25 OUTLET
S_7086183229 0.013 0.1 2.0 5.0 25 OUTLET
S_7429952389 0.013 0.1 2.0 5.0 25 OUTLET
S_7429952390 0.013 0.1 2.0 5.0 25 OUTLET
S_7429952391 0.013 0.1 2.0 5.0 25 OUTLET
S_10153862361 0.013 0.1 2.0 5.0 25 OUTLET
S_7429952393 0.013 0.1 2.0 5.0 25 OUTLET
S_7429952399 0.013 0.1 2.0 5.0 25 OUTLET
S_7429952405 0.013 0.1 2.0 5.0 25 OUTLET
S_7432244829 0.013 0.1 2.0 5.0 25 OUTLET
S_7432244831 0.013 0.1 2.0 5.0 25 OUTLET
S_7432244835 0.013 0.1 2.0 5.0 25 OUTLET
S_7432244837 0.013 0.1 2.0 5.0 25 OUTLET
S_7432244838 0.013 0.1 2.0 5.0 25 OUTLET
S_7432244842 0.013 0.1 2.0 5.0 25 OUTLET
S_7432244862 0.013 0.1 2.0 5.0 25 OUTLET
S_7432244864 0.013 0.1 2.0 5.0 25 OUTLET
S_7432244865 0.013 0.1 2.0 5.0 25 OUTLET
S_7432244866 0.013 0.1 2.0 5.0 25 OUTLET
S_7432244871 0.013 0.1 2.0 5.0 25 OUTLET
S_7432244873 0.013 0.1 2.0 5.0 25 OUTLET
S_7432359284 0.013 0.1 2.0 5.0 25 OUTLET
S_7432359283 0.013 0.1 2.0 5.0 25 OUTLET
S_12695960101 0.013 0.1 2.0 5.0 25 OUTLET
S_7432382398 0.013 0.1 2.0 5.0 25 OUTLET
S_7478115637 0.013 0.1 2.0 5.0 25 OUTLET
S_7478257545 0.013 0.1 2.0 5.0 25 OUTLET
S_8979004921 0.013 0.1 2.0 5.0 25 OUTLET
S_8984867007 0.013 0.1 2.0 5.0 25 OUTLET
S_9189234403 0.013 0.1 2.0 5.0 25 OUTLET
S_9813619345 0.013 0.1 2.0 5.0 25 OUTLET
S_9918817333 0.013 0.1 2.0 5.0 25 OUTLET
S_10081671261 0.013 0.1 2.0 5.0 25 OUTLET
S_10081671263 0.013 0.1 2.0 5.0 25 OUTLET
S_10081671268 0.013 0.1 2.0 5.0 25 OUTLET
S_10081671273 0.013 0.1 2.0 5.0 25 OUTLET
S_10081671388 0.013 0.1 2.0 5.0 25 OUTLET
S_10081671389 0.013 0.1 2.0 5.0 25 OUTLET
S_10081671390 0.013 0.1 2.0 5.0 25 OUTLET
S_10081671391 0.013 0.1 2.0 5.0 25 OUTLET
S_10081671393 0.013 0.1 2.0 5.0 25 OUTLET
S_10081706679 0.013 0.1 2.0 5.0 25 OUTLET
S_10081706684 0.013 0.1 2.0 5.0 25 OUTLET
S_10081706683 0.013 0.1 2.0 5.0 25 OUTLET
S_10081706686 0.013 0.1 2.0 5.0 25 OUTLET
S_10081725589 0.013 0.1 2.0 5.0 25 OUTLET
S_10081725590 0.013 0.1 2.0 5.0 25 OUTLET
S_10081725592 0.013 0.1 2.0 5.0 25 OUTLET
S_10848086334 0.013 0.1 2.0 5.0 25 OUTLET
S_12196366168 0.013 0.1 2.0 5.0 25 OUTLET
S_10094504106 0.013 0.1 2.0 5.0 25 OUTLET
S_10094529582 0.013 0.1 2.0 5.0 25 OUTLET
S_10094580865 0.013 0.1 2.0 5.0 25 OUTLET
S_10094580888 0.013 0.1 2.0 5.0 25 OUTLET
S_10094580890 0.013 0.1 2.0 5.0 25 OUTLET
S_10094586220 0.013 0.1 2.0 5.0 25 OUTLET
S_10153862359 0.013 0.1 2.0 5.0 25 OUTLET
S_13410902898 0.013 0.1 2.0 5.0 25 OUTLET
S_10153868765 0.013 0.1 2.0 5.0 25 OUTLET
S_10989273452 0.013 0.1 2.0 5.0 25 OUTLET
S_10989273454 0.013 0.1 2.0 5.0 25 OUTLET
S_10994556963 0.013 0.1 2.0 5.0 25 OUTLET
S_11006990856 0.013 0.1 2.0 5.0 25 OUTLET
S_11007263821 0.013 0.1 2.0 5.0 25 OUTLET
S_11007435039 0.013 0.1 2.0 5.0 25 OUTLET
S_11012063565 0.013 0.1 2.0 5.0 25 OUTLET
S_11063510864 0.013 0.1 2.0 5.0 25 OUTLET
S_11178931803 0.013 0.1 2.0 5.0 25 OUTLET
S_11259448961 0.013 0.1 2.0 5.0 25 OUTLET
S_11259448963 0.013 0.1 2.0 5.0 25 OUTLET
S_11259448962 0.013 0.1 2.0 5.0 25 OUTLET
S_11892824101 0.013 0.1 2.0 5.0 25 OUTLET
S_11374930007 0.013 0.1 2.0 5.0 25 OUTLET
S_11374930008 0.013 0.1 2.0 5.0 25 OUTLET
S_11374930010 0.013 0.1 2.0 5.0 25 OUTLET
S_11374930011 0.013 0.1 2.0 5.0 25 OUTLET
S_11663109187 0.013 0.1 2.0 5.0 25 OUTLET
S_11892824102 0.013 0.1 2.0 5.0 25 OUTLET
S_12203527486 0.013 0.1 2.0 5.0 25 OUTLET
S_12186005568 0.013 0.1 2.0 5.0 25 OUTLET
S_12197618360 0.013 0.1 2.0 5.0 25 OUTLET
S_12197618362 0.013 0.1 2.0 5.0 25 OUTLET
S_12695946000 0.013 0.1 2.0 5.0 25 OUTLET
S_12695960103 0.013 0.1 2.0 5.0 25 OUTLET
S_13152778981 0.013 0.1 2.0 5.0 25 OUTLET
S_13410465226 0.013 0.1 2.0 5.0 25 OUTLET
S_13410465941 0.013 0.1 2.0 5.0 25 OUTLET
S_13415111431 0.013 0.1 2.0 5.0 25 OUTLET
S_13475843622 0.013 0.1 2.0 5.0 25 OUTLET

[INFILTRATION]
;;Subcatchment MaxRate MinRate Decay DryTime MaxInfil
S_263386428 75.0 3.0 4.0 7.0 0
S_306622120 75.0 3.0 4.0 7.0 0
S_306621809 75.0 3.0 4.0 7.0 0
S_11533595484 75.0 3.0 4.0 7.0 0
S_263386438 75.0 3.0 4.0 7.0 0
S_7432382412 75.0 3.0 4.0 7.0 0
S_306615032 75.0 3.0 4.0 7.0 0
S_7432382410 75.0 3.0 4.0 7.0 0
S_263386445 75.0 3.0 4.0 7.0 0
S_7432382420 75.0 3.0 4.0 7.0 0
S_306623098 75.0 3.0 4.0 7.0 0
S_263386457 75.0 3.0 4.0 7.0 0
S_306623631 75.0 3.0 4.0 7.0 0
S_836238509 75.0 3.0 4.0 7.0 0
S_306623149 75.0 3.0 4.0 7.0 0
S_263394718 75.0 3.0 4.0 7.0 0
S_266268086 75.0 3.0 4.0 7.0 0
S_263400205 75.0 3.0 4.0 7.0 0
S_11178931799 75.0 3.0 4.0 7.0 0
S_263400148 75.0 3.0 4.0 7.0 0
S_266271044 75.0 3.0 4.0 7.0 0
S_266271204 75.0 3.0 4.0 7.0 0
S_650089427 75.0 3.0 4.0 7.0 0
S_263400179 75.0 3.0 4.0 7.0 0
S_10094586219 75.0 3.0 4.0 7.0 0
S_4467082413 75.0 3.0 4.0 7.0 0
S_306620123 75.0 3.0 4.0 7.0 0
S_263400192 75.0 3.0 4.0 7.0 0
S_5267402564 75.0 3.0 4.0 7.0 0
S_306620053 75.0 3.0 4.0 7.0 0
S_266275087 75.0 3.0 4.0 7.0 0
S_263415776 75.0 3.0 4.0 7.0 0
S_263415826 75.0 3.0 4.0 7.0 0
S_306620181 75.0 3.0 4.0 7.0 0
S_306620007 75.0 3.0 4.0 7.0 0
S_266271046 75.0 3.0 4.0 7.0 0
S_263415839 75.0 3.0 4.0 7.0 0
S_306615019 75.0 3.0 4.0 7.0 0
S_306615476 75.0 3.0 4.0 7.0 0
S_306615164 75.0 3.0 4.0 7.0 0
S_263415852 75.0 3.0 4.0 7.0 0
S_266318626 75.0 3.0 4.0 7.0 0
S_306615014 75.0 3.0 4.0 7.0 0
S_306620859 75.0 3.0 4.0 7.0 0
S_263431510 75.0 3.0 4.0 7.0 0
S_4146211264 75.0 3.0 4.0 7.0 0
S_266310426 75.0 3.0 4.0 7.0 0
S_2406084997 75.0 3.0 4.0 7.0 0
S_266163778 75.0 3.0 4.0 7.0 0
S_306617302 75.0 3.0 4.0 7.0 0
S_7432382401 75.0 3.0 4.0 7.0 0
S_7432382395 75.0 3.0 4.0 7.0 0
S_266164910 75.0 3.0 4.0 7.0 0
S_622363164 75.0 3.0 4.0 7.0 0
S_306623347 75.0 3.0 4.0 7.0 0
S_306623648 75.0 3.0 4.0 7.0 0
S_306626271 75.0 3.0 4.0 7.0 0
S_266164941 75.0 3.0 4.0 7.0 0
S_266318559 75.0 3.0 4.0 7.0 0
S_11007435038 75.0 3.0 4.0 7.0 0
S_266304400 75.0 3.0 4.0 7.0 0
S_266164942 75.0 3.0 4.0 7.0 0
S_266314035 75.0 3.0 4.0 7.0 0
S_266318994 75.0 3.0 4.0 7.0 0
S_266164948 75.0 3.0 4.0 7.0 0
S_2406084995 75.0 3.0 4.0 7.0 0
S_4146211262 75.0 3.0 4.0 7.0 0
S_4146211261 75.0 3.0 4.0 7.0 0
S_266174853 75.0 3.0 4.0 7.0 0
S_266265561 75.0 3.0 4.0 7.0 0
S_306625695 75.0 3.0 4.0 7.0 0
S_306625759 75.0 3.0 4.0 7.0 0
S_306626127 75.0 3.0 4.0 7.0 0
S_266174854 75.0 3.0 4.0 7.0 0
S_266298095 75.0 3.0 4.0 7.0 0
S_1417443647 75.0 3.0 4.0 7.0 0
S_1417443641 75.0 3.0 4.0 7.0 0
S_266174856 75.0 3.0 4.0 7.0 0
S_1473871931 75.0 3.0 4.0 7.0 0
S_1473871940 75.0 3.0 4.0 7.0 0
S_266272487 75.0 3.0 4.0 7.0 0
S_266174857 75.0 3.0 4.0 7.0 0
S_313460308 75.0 3.0 4.0 7.0 0
S_1473885221 75.0 3.0 4.0 7.0 0
S_266272874 75.0 3.0 4.0 7.0 0
S_266177660 75.0 3.0 4.0 7.0 0
S_2526081636 75.0 3.0 4.0 7.0 0
S_6560240052 75.0 3.0 4.0 7.0 0
S_306616744 75.0 3.0 4.0 7.0 0
S_266268082 75.0 3.0 4.0 7.0 0
S_266267494 75.0 3.0 4.0 7.0 0
S_266267499 75.0 3.0 4.0 7.0 0
S_306624820 75.0 3.0 4.0 7.0 0
S_266267666 75.0 3.0 4.0 7.0 0
S_1469644202 75.0 3.0 4.0 7.0 0
S_306625528 75.0 3.0 4.0 7.0 0
S_12174142491 75.0 3.0 4.0 7.0 0
S_306617429 75.0 3.0 4.0 7.0 0
S_266268084 75.0 3.0 4.0 7.0 0
S_306617477 75.0 3.0 4.0 7.0 0
S_266268085 75.0 3.0 4.0 7.0 0
S_306616740 75.0 3.0 4.0 7.0 0
S_2407671508 75.0 3.0 4.0 7.0 0
S_266268374 75.0 3.0 4.0 7.0 0
S_306623673 75.0 3.0 4.0 7.0 0
S_10094529579 75.0 3.0 4.0 7.0 0
S_266268375 75.0 3.0 4.0 7.0 0
S_306623367 75.0 3.0 4.0 7.0 0
S_306624975 75.0 3.0 4.0 7.0 0
S_266268377 75.0 3.0 4.0 7.0 0
S_306624796 75.0 3.0 4.0 7.0 0
S_5780852321 75.0 3.0 4.0 7.0 0
S_266268380 75.0 3.0 4.0 7.0 0
S_6884276690 75.0 3.0 4.0 7.0 0
S_306624839 75.0 3.0 4.0 7.0 0
S_306620124 75.0 3.0 4.0 7.0 0
S_306620177 75.0 3.0 4.0 7.0 0
S_10094586221 75.0 3.0 4.0 7.0 0
S_1488556180 75.0 3.0 4.0 7.0 0
S_266298088 75.0 3.0 4.0 7.0 0
S_266272838 75.0 3.0 4.0 7.0 0
S_266272839 75.0 3.0 4.0 7.0 0
S_7432382393 75.0 3.0 4.0 7.0 0
S_306609464 75.0 3.0 4.0 7.0 0
S_266272840 75.0 3.0 4.0 7.0 0
S_306609693 75.0 3.0 4.0 7.0 0
S_306609695 75.0 3.0 4.0 7.0 0
S_266272841 75.0 3.0 4.0 7.0 0
S_266272842 75.0 3.0 4.0 7.0 0
S_306610651 75.0 3.0 4.0 7.0 0
S_306614126 75.0 3.0 4.0 7.0 0
S_266272843 75.0 3.0 4.0 7.0 0
S_306619706 75.0 3.0 4.0 7.0 0
S_11259448972 75.0 3.0 4.0 7.0 0
S_306614127 75.0 3.0 4.0 7.0 0
S_306618090 75.0 3.0 4.0 7.0 0
S_3161269200 75.0 3.0 4.0 7.0 0
S_266273088 75.0 3.0 4.0 7.0 0
S_1473871924 75.0 3.0 4.0 7.0 0
S_1473871945 75.0 3.0 4.0 7.0 0
S_1488526913 75.0 3.0 4.0 7.0 0
S_266273090 75.0 3.0 4.0 7.0 0
S_3096683821 75.0 3.0 4.0 7.0 0
S_4377707444 75.0 3.0 4.0 7.0 0
S_4377707454 75.0 3.0 4.0 7.0 0
S_266273458 75.0 3.0 4.0 7.0 0
S_6141732621 75.0 3.0 4.0 7.0 0
S_266298086 75.0 3.0 4.0 7.0 0
S_266273460 75.0 3.0 4.0 7.0 0
S_7432244853 75.0 3.0 4.0 7.0 0
S_266298084 75.0 3.0 4.0 7.0 0
S_266274986 75.0 3.0 4.0 7.0 0
S_266275089 75.0 3.0 4.0 7.0 0
S_10094586223 75.0 3.0 4.0 7.0 0
S_266275021 75.0 3.0 4.0 7.0 0
S_306615461 75.0 3.0 4.0 7.0 0
S_266275022 75.0 3.0 4.0 7.0 0
S_306615202 75.0 3.0 4.0 7.0 0
S_266275023 75.0 3.0 4.0 7.0 0
S_7432382418 75.0 3.0 4.0 7.0 0
S_306623067 75.0 3.0 4.0 7.0 0
S_306623066 75.0 3.0 4.0 7.0 0
S_266275088 75.0 3.0 4.0 7.0 0
S_306619953 75.0 3.0 4.0 7.0 0
S_266275456 75.0 3.0 4.0 7.0 0
S_6462301371 75.0 3.0 4.0 7.0 0
S_2388266844 75.0 3.0 4.0 7.0 0
S_11007254966 75.0 3.0 4.0 7.0 0
S_266275460 75.0 3.0 4.0 7.0 0
S_266275461 75.0 3.0 4.0 7.0 0
S_6196907479 75.0 3.0 4.0 7.0 0
S_11431805314 75.0 3.0 4.0 7.0 0
S_10211111398 75.0 3.0 4.0 7.0 0
S_4146211288 75.0 3.0 4.0 7.0 0
S_266275462 75.0 3.0 4.0 7.0 0
S_5267402570 75.0 3.0 4.0 7.0 0
S_4146211268 75.0 3.0 4.0 7.0 0
S_4146211272 75.0 3.0 4.0 7.0 0
S_266276707 75.0 3.0 4.0 7.0 0
S_266276753 75.0 3.0 4.0 7.0 0
S_6567395240 75.0 3.0 4.0 7.0 0
S_6143210301 75.0 3.0 4.0 7.0 0
S_266276754 75.0 3.0 4.0 7.0 0
S_306616974 75.0 3.0 4.0 7.0 0
S_266276755 75.0 3.0 4.0 7.0 0
S_306617098 75.0 3.0 4.0 7.0 0
S_266276756 75.0 3.0 4.0 7.0 0
S_306617018 75.0 3.0 4.0 7.0 0
S_266298089 75.0 3.0 4.0 7.0 0
S_266300662 75.0 3.0 4.0 7.0 0
S_266298087 75.0 3.0 4.0 7.0 0
S_266298092 75.0 3.0 4.0 7.0 0
S_266300742 75.0 3.0 4.0 7.0 0
S_266298091 75.0 3.0 4.0 7.0 0
S_266298093 75.0 3.0 4.0 7.0 0
S_266300657 75.0 3.0 4.0 7.0 0
S_6141732622 75.0 3.0 4.0 7.0 0
S_3304204552 75.0 3.0 4.0 7.0 0
S_266300661 75.0 3.0 4.0 7.0 0
S_266300741 75.0 3.0 4.0 7.0 0
S_11663109183 75.0 3.0 4.0 7.0 0
S_266302974 75.0 3.0 4.0 7.0 0
S_2414639341 75.0 3.0 4.0 7.0 0
S_266302978 75.0 3.0 4.0 7.0 0
S_5961754417 75.0 3.0 4.0 7.0 0
S_306614881 75.0 3.0 4.0 7.0 0
S_306614901 75.0 3.0 4.0 7.0 0
S_7432283512 75.0 3.0 4.0 7.0 0
S_266303004 75.0 3.0 4.0 7.0 0
S_266303953 75.0 3.0 4.0 7.0 0
S_266303064 75.0 3.0 4.0 7.0 0
S_2414639342 75.0 3.0 4.0 7.0 0
S_266304629 75.0 3.0 4.0 7.0 0
S_2385138309 75.0 3.0 4.0 7.0 0
S_2414635984 75.0 3.0 4.0 7.0 0
S_266303623 75.0 3.0 4.0 7.0 0
S_306614842 75.0 3.0 4.0 7.0 0
S_266303624 75.0 3.0 4.0 7.0 0
S_266303625 75.0 3.0 4.0 7.0 0
S_306614967 75.0 3.0 4.0 7.0 0
S_306614850 75.0 3.0 4.0 7.0 0
S_266303626 75.0 3.0 4.0 7.0 0
S_306614734 75.0 3.0 4.0 7.0 0
S_306617634 75.0 3.0 4.0 7.0 0
S_266303627 75.0 3.0 4.0 7.0 0
S_306617742 75.0 3.0 4.0 7.0 0
S_306617687 75.0 3.0 4.0 7.0 0
S_266303628 75.0 3.0 4.0 7.0 0
S_11007453622 75.0 3.0 4.0 7.0 0
S_266303629 75.0 3.0 4.0 7.0 0
S_306617758 75.0 3.0 4.0 7.0 0
S_306617751 75.0 3.0 4.0 7.0 0
S_9189927178 75.0 3.0 4.0 7.0 0
S_6178041423 75.0 3.0 4.0 7.0 0
S_306617686 75.0 3.0 4.0 7.0 0
S_266303954 75.0 3.0 4.0 7.0 0
S_266303955 75.0 3.0 4.0 7.0 0
S_266304630 75.0 3.0 4.0 7.0 0
S_266303956 75.0 3.0 4.0 7.0 0
S_266304631 75.0 3.0 4.0 7.0 0
S_266304632 75.0 3.0 4.0 7.0 0
S_6132249479 75.0 3.0 4.0 7.0 0
S_266304402 75.0 3.0 4.0 7.0 0
S_266313958 75.0 3.0 4.0 7.0 0
S_306620508 75.0 3.0 4.0 7.0 0
S_266318288 75.0 3.0 4.0 7.0 0
S_308452451 75.0 3.0 4.0 7.0 0
S_308452454 75.0 3.0 4.0 7.0 0
S_5292923940 75.0 3.0 4.0 7.0 0
S_2407759902 75.0 3.0 4.0 7.0 0
S_2400167301 75.0 3.0 4.0 7.0 0
S_3298857091 75.0 3.0 4.0 7.0 0
S_306621180 75.0 3.0 4.0 7.0 0
S_266310433 75.0 3.0 4.0 7.0 0
S_7432244872 75.0 3.0 4.0 7.0 0
S_266310437 75.0 3.0 4.0 7.0 0
S_266310471 75.0 3.0 4.0 7.0 0
S_266310441 75.0 3.0 4.0 7.0 0
S_306620828 75.0 3.0 4.0 7.0 0
S_306620318 75.0 3.0 4.0 7.0 0
S_306620866 75.0 3.0 4.0 7.0 0
S_266310445 75.0 3.0 4.0 7.0 0
S_266318286 75.0 3.0 4.0 7.0 0
S_266318343 75.0 3.0 4.0 7.0 0
S_306620825 75.0 3.0 4.0 7.0 0
S_266313980 75.0 3.0 4.0 7.0 0
S_266313984 75.0 3.0 4.0 7.0 0
S_5292300571 75.0 3.0 4.0 7.0 0
S_266313967 75.0 3.0 4.0 7.0 0
S_306616045 75.0 3.0 4.0 7.0 0
S_11245714088 75.0 3.0 4.0 7.0 0
S_266313975 75.0 3.0 4.0 7.0 0
S_306622080 75.0 3.0 4.0 7.0 0
S_306616029 75.0 3.0 4.0 7.0 0
S_10094504111 75.0 3.0 4.0 7.0 0
S_266318628 75.0 3.0 4.0 7.0 0
S_266313990 75.0 3.0 4.0 7.0 0
S_266314020 75.0 3.0 4.0 7.0 0
S_266314026 75.0 3.0 4.0 7.0 0
S_266314031 75.0 3.0 4.0 7.0 0
S_266318996 75.0 3.0 4.0 7.0 0
S_266316218 75.0 3.0 4.0 7.0 0
S_306622275 75.0 3.0 4.0 7.0 0
S_306622887 75.0 3.0 4.0 7.0 0
S_306622206 75.0 3.0 4.0 7.0 0
S_2406084993 75.0 3.0 4.0 7.0 0
S_266318287 75.0 3.0 4.0 7.0 0
S_306620373 75.0 3.0 4.0 7.0 0
S_9696939532 75.0 3.0 4.0 7.0 0
S_266318344 75.0 3.0 4.0 7.0 0
S_306620803 75.0 3.0 4.0 7.0 0
S_266318345 75.0 3.0 4.0 7.0 0
S_306620799 75.0 3.0 4.0 7.0 0
S_306620763 75.0 3.0 4.0 7.0 0
S_3298857093 75.0 3.0 4.0 7.0 0
S_266318627 75.0 3.0 4.0 7.0 0
S_306616044 75.0 3.0 4.0 7.0 0
S_306616092 75.0 3.0 4.0 7.0 0
S_10094504107 75.0 3.0 4.0 7.0 0
S_10094504110 75.0 3.0 4.0 7.0 0
S_306608060 75.0 3.0 4.0 7.0 0
S_6131903446 75.0 3.0 4.0 7.0 0
S_1417443517 75.0 3.0 4.0 7.0 0
S_306608698 75.0 3.0 4.0 7.0 0
S_2407745349 75.0 3.0 4.0 7.0 0
S_306608898 75.0 3.0 4.0 7.0 0
S_306608699 75.0 3.0 4.0 7.0 0
S_306613002 75.0 3.0 4.0 7.0 0
S_3287849054 75.0 3.0 4.0 7.0 0
S_306608700 75.0 3.0 4.0 7.0 0
S_306609212 75.0 3.0 4.0 7.0 0
S_306612973 75.0 3.0 4.0 7.0 0
S_595766458 75.0 3.0 4.0 7.0 0
S_306609696 75.0 3.0 4.0 7.0 0
S_306610173 75.0 3.0 4.0 7.0 0
S_306609958 75.0 3.0 4.0 7.0 0
S_306609759 75.0 3.0 4.0 7.0 0
S_306612919 75.0 3.0 4.0 7.0 0
S_306609760 75.0 3.0 4.0 7.0 0
S_306610572 75.0 3.0 4.0 7.0 0
S_306612931 75.0 3.0 4.0 7.0 0
S_306619696 75.0 3.0 4.0 7.0 0
S_306612958 75.0 3.0 4.0 7.0 0
S_306610154 75.0 3.0 4.0 7.0 0
S_306612930 75.0 3.0 4.0 7.0 0
S_306610155 75.0 3.0 4.0 7.0 0
S_306611495 75.0 3.0 4.0 7.0 0
S_306610573 75.0 3.0 4.0 7.0 0
S_306610698 75.0 3.0 4.0 7.0 0
S_11259448960 75.0 3.0 4.0 7.0 0
S_306611194 75.0 3.0 4.0 7.0 0
S_306611189 75.0 3.0 4.0 7.0 0
S_306611195 75.0 3.0 4.0 7.0 0
S_2619300330 75.0 3.0 4.0 7.0 0
S_306611382 75.0 3.0 4.0 7.0 0
S_306611892 75.0 3.0 4.0 7.0 0
S_306619117 75.0 3.0 4.0 7.0 0
S_306611415 75.0 3.0 4.0 7.0 0
S_1417443741 75.0 3.0 4.0 7.0 0
S_306611644 75.0 3.0 4.0 7.0 0
S_12249984864 75.0 3.0 4.0 7.0 0
S_595766589 75.0 3.0 4.0 7.0 0
S_306611516 75.0 3.0 4.0 7.0 0
S_306611889 75.0 3.0 4.0 7.0 0
S_10081671362 75.0 3.0 4.0 7.0 0
S_306611517 75.0 3.0 4.0 7.0 0
S_306611552 75.0 3.0 4.0 7.0 0
S_306611796 75.0 3.0 4.0 7.0 0
S_306612056 75.0 3.0 4.0 7.0 0
S_306611825 75.0 3.0 4.0 7.0 0
S_306612124 75.0 3.0 4.0 7.0 0
S_306611919 75.0 3.0 4.0 7.0 0
S_306611891 75.0 3.0 4.0 7.0 0
S_6182617723 75.0 3.0 4.0 7.0 0
S_306612586 75.0 3.0 4.0 7.0 0
S_306619140 75.0 3.0 4.0 7.0 0
S_306612221 75.0 3.0 4.0 7.0 0
S_306612001 75.0 3.0 4.0 7.0 0
S_306611966 75.0 3.0 4.0 7.0 0
S_1417443754 75.0 3.0 4.0 7.0 0
S_7478115610 75.0 3.0 4.0 7.0 0
S_5267822911 75.0 3.0 4.0 7.0 0
S_306612467 75.0 3.0 4.0 7.0 0
S_306612483 75.0 3.0 4.0 7.0 0
S_306612013 75.0 3.0 4.0 7.0 0
S_5267822917 75.0 3.0 4.0 7.0 0
S_5267822918 75.0 3.0 4.0 7.0 0
S_306612052 75.0 3.0 4.0 7.0 0
S_306612561 75.0 3.0 4.0 7.0 0
S_306612055 75.0 3.0 4.0 7.0 0
S_306612295 75.0 3.0 4.0 7.0 0
S_306612267 75.0 3.0 4.0 7.0 0
S_306612223 75.0 3.0 4.0 7.0 0
S_306612391 75.0 3.0 4.0 7.0 0
S_306612552 75.0 3.0 4.0 7.0 0
S_3149523811 75.0 3.0 4.0 7.0 0
S_306612618 75.0 3.0 4.0 7.0 0
S_306613918 75.0 3.0 4.0 7.0 0
S_306612710 75.0 3.0 4.0 7.0 0
S_306613150 75.0 3.0 4.0 7.0 0
S_3221362717 75.0 3.0 4.0 7.0 0
S_12249984863 75.0 3.0 4.0 7.0 0
S_306612712 75.0 3.0 4.0 7.0 0
S_306613796 75.0 3.0 4.0 7.0 0
S_306613207 75.0 3.0 4.0 7.0 0
S_306612714 75.0 3.0 4.0 7.0 0
S_6529626686 75.0 3.0 4.0 7.0 0
S_306612914 75.0 3.0 4.0 7.0 0
S_306613125 75.0 3.0 4.0 7.0 0
S_3149523808 75.0 3.0 4.0 7.0 0
S_9792476719 75.0 3.0 4.0 7.0 0
S_2450399427 75.0 3.0 4.0 7.0 0
S_3221362720 75.0 3.0 4.0 7.0 0
S_306619236 75.0 3.0 4.0 7.0 0
S_306613322 75.0 3.0 4.0 7.0 0
S_306613711 75.0 3.0 4.0 7.0 0
S_306613706 75.0 3.0 4.0 7.0 0
S_11259448969 75.0 3.0 4.0 7.0 0
S_6142327787 75.0 3.0 4.0 7.0 0
S_306613917 75.0 3.0 4.0 7.0 0
S_306613955 75.0 3.0 4.0 7.0 0
S_306618000 75.0 3.0 4.0 7.0 0
S_306618152 75.0 3.0 4.0 7.0 0
S_306618047 75.0 3.0 4.0 7.0 0
S_306614002 75.0 3.0 4.0 7.0 0
S_306614043 75.0 3.0 4.0 7.0 0
S_306618040 75.0 3.0 4.0 7.0 0
S_306618049 75.0 3.0 4.0 7.0 0
S_306618037 75.0 3.0 4.0 7.0 0
S_306614003 75.0 3.0 4.0 7.0 0
S_306618051 75.0 3.0 4.0 7.0 0
S_747660349 75.0 3.0 4.0 7.0 0
S_306618038 75.0 3.0 4.0 7.0 0
S_306614045 75.0 3.0 4.0 7.0 0
S_1473885459 75.0 3.0 4.0 7.0 0
S_13285069336 75.0 3.0 4.0 7.0 0
S_306614125 75.0 3.0 4.0 7.0 0
S_306618319 75.0 3.0 4.0 7.0 0
S_1488556147 75.0 3.0 4.0 7.0 0
S_306618148 75.0 3.0 4.0 7.0 0
S_306618203 75.0 3.0 4.0 7.0 0
S_306617982 75.0 3.0 4.0 7.0 0
S_306618031 75.0 3.0 4.0 7.0 0
S_306614479 75.0 3.0 4.0 7.0 0
S_306614480 75.0 3.0 4.0 7.0 0
S_306614924 75.0 3.0 4.0 7.0 0
S_306614481 75.0 3.0 4.0 7.0 0
S_306617731 75.0 3.0 4.0 7.0 0
S_306614738 75.0 3.0 4.0 7.0 0
S_306614832 75.0 3.0 4.0 7.0 0
S_11982570362 75.0 3.0 4.0 7.0 0
S_306614739 75.0 3.0 4.0 7.0 0
S_6178041421 75.0 3.0 4.0 7.0 0
S_306617738 75.0 3.0 4.0 7.0 0
S_11982570360 75.0 3.0 4.0 7.0 0
S_11476594000 75.0 3.0 4.0 7.0 0
S_306620879 75.0 3.0 4.0 7.0 0
S_306619786 75.0 3.0 4.0 7.0 0
S_306615155 75.0 3.0 4.0 7.0 0
S_306615653 75.0 3.0 4.0 7.0 0
S_306615904 75.0 3.0 4.0 7.0 0
S_306615597 75.0 3.0 4.0 7.0 0
S_306615239 75.0 3.0 4.0 7.0 0
S_306615426 75.0 3.0 4.0 7.0 0
S_306615208 75.0 3.0 4.0 7.0 0
S_306615608 75.0 3.0 4.0 7.0 0
S_306615250 75.0 3.0 4.0 7.0 0
S_306615227 75.0 3.0 4.0 7.0 0
S_3298878325 75.0 3.0 4.0 7.0 0
S_7432382415 75.0 3.0 4.0 7.0 0
S_306615877 75.0 3.0 4.0 7.0 0
S_306615629 75.0 3.0 4.0 7.0 0
S_10094586224 75.0 3.0 4.0 7.0 0
S_306615730 75.0 3.0 4.0 7.0 0
S_306615643 75.0 3.0 4.0 7.0 0
S_306615937 75.0 3.0 4.0 7.0 0
S_306615876 75.0 3.0 4.0 7.0 0
S_306616007 75.0 3.0 4.0 7.0 0
S_306623070 75.0 3.0 4.0 7.0 0
S_306616031 75.0 3.0 4.0 7.0 0
S_5961715635 75.0 3.0 4.0 7.0 0
S_306622158 75.0 3.0 4.0 7.0 0
S_1054699489 75.0 3.0 4.0 7.0 0
S_3298878307 75.0 3.0 4.0 7.0 0
S_306617262 75.0 3.0 4.0 7.0 0
S_11663109186 75.0 3.0 4.0 7.0 0
S_12680448313 75.0 3.0 4.0 7.0 0
S_306617283 75.0 3.0 4.0 7.0 0
S_306617463 75.0 3.0 4.0 7.0 0
S_306617457 75.0 3.0 4.0 7.0 0
S_12680448312 75.0 3.0 4.0 7.0 0
S_306617440 75.0 3.0 4.0 7.0 0
S_306617409 75.0 3.0 4.0 7.0 0
S_306617486 75.0 3.0 4.0 7.0 0
S_306617444 75.0 3.0 4.0 7.0 0
S_306617465 75.0 3.0 4.0 7.0 0
S_9189927179 75.0 3.0 4.0 7.0 0
S_306617735 75.0 3.0 4.0 7.0 0
S_306617745 75.0 3.0 4.0 7.0 0
S_306618011 75.0 3.0 4.0 7.0 0
S_306618039 75.0 3.0 4.0 7.0 0
S_306618035 75.0 3.0 4.0 7.0 0
S_306618045 75.0 3.0 4.0 7.0 0
S_306618684 75.0 3.0 4.0 7.0 0
S_306619061 75.0 3.0 4.0 7.0 0
S_306619043 75.0 3.0 4.0 7.0 0
S_306618864 75.0 3.0 4.0 7.0 0
S_306618121 75.0 3.0 4.0 7.0 0
S_306618913 75.0 3.0 4.0 7.0 0
S_2447849296 75.0 3.0 4.0 7.0 0
S_306618053 75.0 3.0 4.0 7.0 0
S_306619089 75.0 3.0 4.0 7.0 0
S_306618845 75.0 3.0 4.0 7.0 0
S_306618089 75.0 3.0 4.0 7.0 0
S_12174120925 75.0 3.0 4.0 7.0 0
S_306619109 75.0 3.0 4.0 7.0 0
S_306618120 75.0 3.0 4.0 7.0 0
S_306618091 75.0 3.0 4.0 7.0 0
S_6141578243 75.0 3.0 4.0 7.0 0
S_306618241 75.0 3.0 4.0 7.0 0
S_306618149 75.0 3.0 4.0 7.0 0
S_306618227 75.0 3.0 4.0 7.0 0
S_306618131 75.0 3.0 4.0 7.0 0
S_306618139 75.0 3.0 4.0 7.0 0
S_306619107 75.0 3.0 4.0 7.0 0
S_306618624 75.0 3.0 4.0 7.0 0
S_306618151 75.0 3.0 4.0 7.0 0
S_306618660 75.0 3.0 4.0 7.0 0
S_306618226 75.0 3.0 4.0 7.0 0
S_306618421 75.0 3.0 4.0 7.0 0
S_306618244 75.0 3.0 4.0 7.0 0
S_306618228 75.0 3.0 4.0 7.0 0
S_7478115641 75.0 3.0 4.0 7.0 0
S_306618229 75.0 3.0 4.0 7.0 0
S_306618243 75.0 3.0 4.0 7.0 0
S_306618242 75.0 3.0 4.0 7.0 0
S_10081725595 75.0 3.0 4.0 7.0 0
S_306618602 75.0 3.0 4.0 7.0 0
S_306618400 75.0 3.0 4.0 7.0 0
S_306618516 75.0 3.0 4.0 7.0 0
S_306618755 75.0 3.0 4.0 7.0 0
S_306618704 75.0 3.0 4.0 7.0 0
S_7478115630 75.0 3.0 4.0 7.0 0
S_313460477 75.0 3.0 4.0 7.0 0
S_306618719 75.0 3.0 4.0 7.0 0
S_1417443578 75.0 3.0 4.0 7.0 0
S_306618743 75.0 3.0 4.0 7.0 0
S_306618811 75.0 3.0 4.0 7.0 0
S_7478115636 75.0 3.0 4.0 7.0 0
S_306618983 75.0 3.0 4.0 7.0 0
S_306618876 75.0 3.0 4.0 7.0 0
S_306618974 75.0 3.0 4.0 7.0 0
S_306618958 75.0 3.0 4.0 7.0 0
S_306619063 75.0 3.0 4.0 7.0 0
S_7478115632 75.0 3.0 4.0 7.0 0
S_306619067 75.0 3.0 4.0 7.0 0
S_306619097 75.0 3.0 4.0 7.0 0
S_306619095 75.0 3.0 4.0 7.0 0
S_8984867006 75.0 3.0 4.0 7.0 0
S_6180287627 75.0 3.0 4.0 7.0 0
S_7478118969 75.0 3.0 4.0 7.0 0
S_306619108 75.0 3.0 4.0 7.0 0
S_306619114 75.0 3.0 4.0 7.0 0
S_3161269203 75.0 3.0 4.0 7.0 0
S_306619112 75.0 3.0 4.0 7.0 0
S_306619111 75.0 3.0 4.0 7.0 0
S_12174120924 75.0 3.0 4.0 7.0 0
S_306619149 75.0 3.0 4.0 7.0 0
S_6885082500 75.0 3.0 4.0 7.0 0
S_306619138 75.0 3.0 4.0 7.0 0
S_306619304 75.0 3.0 4.0 7.0 0
S_306619251 75.0 3.0 4.0 7.0 0
S_10081671366 75.0 3.0 4.0 7.0 0
S_306619537 75.0 3.0 4.0 7.0 0
S_306619290 75.0 3.0 4.0 7.0 0
S_306619548 75.0 3.0 4.0 7.0 0
S_306619358 75.0 3.0 4.0 7.0 0
S_306619613 75.0 3.0 4.0 7.0 0
S_306619459 75.0 3.0 4.0 7.0 0
S_6885082496 75.0 3.0 4.0 7.0 0
S_306619430 75.0 3.0 4.0 7.0 0
S_306619660 75.0 3.0 4.0 7.0 0
S_5928014162 75.0 3.0 4.0 7.0 0
S_306619844 75.0 3.0 4.0 7.0 0
S_306619995 75.0 3.0 4.0 7.0 0
S_306619845 75.0 3.0 4.0 7.0 0
S_306619847 75.0 3.0 4.0 7.0 0
S_306620209 75.0 3.0 4.0 7.0 0
S_306620777 75.0 3.0 4.0 7.0 0
S_306620753 75.0 3.0 4.0 7.0 0
S_306620173 75.0 3.0 4.0 7.0 0
S_306620148 75.0 3.0 4.0 7.0 0
S_306620088 75.0 3.0 4.0 7.0 0
S_6887795923 75.0 3.0 4.0 7.0 0
S_595767079 75.0 3.0 4.0 7.0 0
S_306620210 75.0 3.0 4.0 7.0 0
S_306620788 75.0 3.0 4.0 7.0 0
S_306620795 75.0 3.0 4.0 7.0 0
S_2414639343 75.0 3.0 4.0 7.0 0
S_306620833 75.0 3.0 4.0 7.0 0
S_306620800 75.0 3.0 4.0 7.0 0
S_306620804 75.0 3.0 4.0 7.0 0
S_306620826 75.0 3.0 4.0 7.0 0
S_306620870 75.0 3.0 4.0 7.0 0
S_306621104 75.0 3.0 4.0 7.0 0
S_2387017508 75.0 3.0 4.0 7.0 0
S_2447310407 75.0 3.0 4.0 7.0 0
S_7432244856 75.0 3.0 4.0 7.0 0
S_306621179 75.0 3.0 4.0 7.0 0
S_2388266816 75.0 3.0 4.0 7.0 0
S_13475843621 75.0 3.0 4.0 7.0 0
S_6196261543 75.0 3.0 4.0 7.0 0
S_7432244870 75.0 3.0 4.0 7.0 0
S_306621229 75.0 3.0 4.0 7.0 0
S_306621778 75.0 3.0 4.0 7.0 0
S_7432244863 75.0 3.0 4.0 7.0 0
S_306621270 75.0 3.0 4.0 7.0 0
S_2387127863 75.0 3.0 4.0 7.0 0
S_306621271 75.0 3.0 4.0 7.0 0
S_5267402569 75.0 3.0 4.0 7.0 0
S_306621762 75.0 3.0 4.0 7.0 0
S_4146211280 75.0 3.0 4.0 7.0 0
S_306621654 75.0 3.0 4.0 7.0 0
S_306621921 75.0 3.0 4.0 7.0 0
S_306621760 75.0 3.0 4.0 7.0 0
S_4146211271 75.0 3.0 4.0 7.0 0
S_306622059 75.0 3.0 4.0 7.0 0
S_306622853 75.0 3.0 4.0 7.0 0
S_306622844 75.0 3.0 4.0 7.0 0
S_306622157 75.0 3.0 4.0 7.0 0
S_6505392518 75.0 3.0 4.0 7.0 0
S_306622943 75.0 3.0 4.0 7.0 0
S_306622953 75.0 3.0 4.0 7.0 0
S_306622244 75.0 3.0 4.0 7.0 0
S_306622782 75.0 3.0 4.0 7.0 0
S_5267402571 75.0 3.0 4.0 7.0 0
S_306622845 75.0 3.0 4.0 7.0 0
S_306622934 75.0 3.0 4.0 7.0 0
S_306622967 75.0 3.0 4.0 7.0 0
S_306622884 75.0 3.0 4.0 7.0 0
S_306622935 75.0 3.0 4.0 7.0 0
S_1054699509 75.0 3.0 4.0 7.0 0
S_306623034 75.0 3.0 4.0 7.0 0
S_306622987 75.0 3.0 4.0 7.0 0
S_306623026 75.0 3.0 4.0 7.0 0
S_306622963 75.0 3.0 4.0 7.0 0
S_306622944 75.0 3.0 4.0 7.0 0
S_306622973 75.0 3.0 4.0 7.0 0
S_1054699551 75.0 3.0 4.0 7.0 0
S_1054699537 75.0 3.0 4.0 7.0 0
S_306622975 75.0 3.0 4.0 7.0 0
S_306623023 75.0 3.0 4.0 7.0 0
S_306623000 75.0 3.0 4.0 7.0 0
S_836238547 75.0 3.0 4.0 7.0 0
S_3549124825 75.0 3.0 4.0 7.0 0
S_306623144 75.0 3.0 4.0 7.0 0
S_3549124908 75.0 3.0 4.0 7.0 0
S_306623127 75.0 3.0 4.0 7.0 0
S_5267402561 75.0 3.0 4.0 7.0 0
S_7432244880 75.0 3.0 4.0 7.0 0
S_306623172 75.0 3.0 4.0 7.0 0
S_306623288 75.0 3.0 4.0 7.0 0
S_306623366 75.0 3.0 4.0 7.0 0
S_306623545 75.0 3.0 4.0 7.0 0
S_7432244881 75.0 3.0 4.0 7.0 0
S_306623250 75.0 3.0 4.0 7.0 0
S_306623289 75.0 3.0 4.0 7.0 0
S_6143210298 75.0 3.0 4.0 7.0 0
S_6567395226 75.0 3.0 4.0 7.0 0
S_306623252 75.0 3.0 4.0 7.0 0
S_306626269 75.0 3.0 4.0 7.0 0
S_6567395231 75.0 3.0 4.0 7.0 0
S_306623346 75.0 3.0 4.0 7.0 0
S_306623579 75.0 3.0 4.0 7.0 0
S_306623646 75.0 3.0 4.0 7.0 0
S_306623614 75.0 3.0 4.0 7.0 0
S_306623368 75.0 3.0 4.0 7.0 0
S_306624836 75.0 3.0 4.0 7.0 0
S_306623514 75.0 3.0 4.0 7.0 0
S_306623471 75.0 3.0 4.0 7.0 0
S_306623640 75.0 3.0 4.0 7.0 0
S_10094529583 75.0 3.0 4.0 7.0 0
S_306623540 75.0 3.0 4.0 7.0 0
S_836238514 75.0 3.0 4.0 7.0 0
S_306623632 75.0 3.0 4.0 7.0 0
S_306623633 75.0 3.0 4.0 7.0 0
S_836238561 75.0 3.0 4.0 7.0 0
S_10094529584 75.0 3.0 4.0 7.0 0
S_306623642 75.0 3.0 4.0 7.0 0
S_6193921852 75.0 3.0 4.0 7.0 0
S_6193921851 75.0 3.0 4.0 7.0 0
S_1468908333 75.0 3.0 4.0 7.0 0
S_306623783 75.0 3.0 4.0 7.0 0
S_4377707469 75.0 3.0 4.0 7.0 0
S_2387012139 75.0 3.0 4.0 7.0 0
S_1488526923 75.0 3.0 4.0 7.0 0
S_306625001 75.0 3.0 4.0 7.0 0
S_306624987 75.0 3.0 4.0 7.0 0
S_306625124 75.0 3.0 4.0 7.0 0
S_306624943 75.0 3.0 4.0 7.0 0
S_306624837 75.0 3.0 4.0 7.0 0
S_306624842 75.0 3.0 4.0 7.0 0
S_306624983 75.0 3.0 4.0 7.0 0
S_306624999 75.0 3.0 4.0 7.0 0
S_306624988 75.0 3.0 4.0 7.0 0
S_7467099419 75.0 3.0 4.0 7.0 0
S_7467099418 75.0 3.0 4.0 7.0 0
S_306625194 75.0 3.0 4.0 7.0 0
S_306625286 75.0 3.0 4.0 7.0 0
S_306625203 75.0 3.0 4.0 7.0 0
S_306625106 75.0 3.0 4.0 7.0 0
S_306626042 75.0 3.0 4.0 7.0 0
S_306626118 75.0 3.0 4.0 7.0 0
S_306625656 75.0 3.0 4.0 7.0 0
S_622363166 75.0 3.0 4.0 7.0 0
S_306626245 75.0 3.0 4.0 7.0 0
S_306626120 75.0 3.0 4.0 7.0 0
S_306625687 75.0 3.0 4.0 7.0 0
S_306626041 75.0 3.0 4.0 7.0 0
S_306626116 75.0 3.0 4.0 7.0 0
S_2414635985 75.0 3.0 4.0 7.0 0
S_306625812 75.0 3.0 4.0 7.0 0
S_306625696 75.0 3.0 4.0 7.0 0
S_2414635986 75.0 3.0 4.0 7.0 0
S_306625946 75.0 3.0 4.0 7.0 0
S_306625751 75.0 3.0 4.0 7.0 0
S_10094529594 75.0 3.0 4.0 7.0 0
S_306625994 75.0 3.0 4.0 7.0 0
S_306625818 75.0 3.0 4.0 7.0 0
S_306625861 75.0 3.0 4.0 7.0 0
S_6195583528 75.0 3.0 4.0 7.0 0
S_306625912 75.0 3.0 4.0 7.0 0
S_6195583527 75.0 3.0 4.0 7.0 0
S_306625916 75.0 3.0 4.0 7.0 0
S_2414635979 75.0 3.0 4.0 7.0 0
S_6130692320 75.0 3.0 4.0 7.0 0
S_306625919 75.0 3.0 4.0 7.0 0
S_2414635981 75.0 3.0 4.0 7.0 0
S_306625927 75.0 3.0 4.0 7.0 0
S_306625980 75.0 3.0 4.0 7.0 0
S_2273437034 75.0 3.0 4.0 7.0 0
S_10994556964 75.0 3.0 4.0 7.0 0
S_306626040 75.0 3.0 4.0 7.0 0
S_306626044 75.0 3.0 4.0 7.0 0
S_306626117 75.0 3.0 4.0 7.0 0
S_622363165 75.0 3.0 4.0 7.0 0
S_6567395234 75.0 3.0 4.0 7.0 0
S_313460313 75.0 3.0 4.0 7.0 0
S_1488556150 75.0 3.0 4.0 7.0 0
S_1473871929 75.0 3.0 4.0 7.0 0
S_10081725591 75.0 3.0 4.0 7.0 0
S_1488556131 75.0 3.0 4.0 7.0 0
S_313460396 75.0 3.0 4.0 7.0 0
S_3161269199 75.0 3.0 4.0 7.0 0
S_3161268847 75.0 3.0 4.0 7.0 0
S_313460398 75.0 3.0 4.0 7.0 0
S_3096683823 75.0 3.0 4.0 7.0 0
S_1473871961 75.0 3.0 4.0 7.0 0
S_5267835373 75.0 3.0 4.0 7.0 0
S_313460484 75.0 3.0 4.0 7.0 0
S_313460485 75.0 3.0 4.0 7.0 0
S_1417443652 75.0 3.0 4.0 7.0 0
S_313460550 75.0 3.0 4.0 7.0 0
S_1417443629 75.0 3.0 4.0 7.0 0
S_10081706680 75.0 3.0 4.0 7.0 0
S_6528148964 75.0 3.0 4.0 7.0 0
S_10081706678 75.0 3.0 4.0 7.0 0
S_313460551 75.0 3.0 4.0 7.0 0
S_2450399408 75.0 3.0 4.0 7.0 0
S_2450399406 75.0 3.0 4.0 7.0 0
S_348036183 75.0 3.0 4.0 7.0 0
S_3149541717 75.0 3.0 4.0 7.0 0
S_3149541720 75.0 3.0 4.0 7.0 0
S_7327251302 75.0 3.0 4.0 7.0 0
S_417298245 75.0 3.0 4.0 7.0 0
S_4918203529 75.0 3.0 4.0 7.0 0
S_1471714437 75.0 3.0 4.0 7.0 0
S_1481366487 75.0 3.0 4.0 7.0 0
S_650140575 75.0 3.0 4.0 7.0 0
S_650141428 75.0 3.0 4.0 7.0 0
S_2400167287 75.0 3.0 4.0 7.0 0
S_650141087 75.0 3.0 4.0 7.0 0
S_650141020 75.0 3.0 4.0 7.0 0
S_2385141385 75.0 3.0 4.0 7.0 0
S_2387017507 75.0 3.0 4.0 7.0 0
S_1653906408 75.0 3.0 4.0 7.0 0
S_747660340 75.0 3.0 4.0 7.0 0
S_3235639712 75.0 3.0 4.0 7.0 0
S_2389119100 75.0 3.0 4.0 7.0 0
S_747660344 75.0 3.0 4.0 7.0 0
S_3149523801 75.0 3.0 4.0 7.0 0
S_13152778980 75.0 3.0 4.0 7.0 0
S_1417443691 75.0 3.0 4.0 7.0 0
S_2450399422 75.0 3.0 4.0 7.0 0
S_11259448973 75.0 3.0 4.0 7.0 0
S_3549123747 75.0 3.0 4.0 7.0 0
S_836238551 75.0 3.0 4.0 7.0 0
S_10001905133 75.0 3.0 4.0 7.0 0
S_3549124910 75.0 3.0 4.0 7.0 0
S_10001905132 75.0 3.0 4.0 7.0 0
S_836238553 75.0 3.0 4.0 7.0 0
S_3549124811 75.0 3.0 4.0 7.0 0
S_3549123780 75.0 3.0 4.0 7.0 0
S_5267369428 75.0 3.0 4.0 7.0 0
S_3549123729 75.0 3.0 4.0 7.0 0
S_5267369424 75.0 3.0 4.0 7.0 0
S_1278162234 75.0 3.0 4.0 7.0 0
S_1278162335 75.0 3.0 4.0 7.0 0
S_10153868763 75.0 3.0 4.0 7.0 0
S_3158788597 75.0 3.0 4.0 7.0 0
S_1278162239 75.0 3.0 4.0 7.0 0
S_10839366478 75.0 3.0 4.0 7.0 0
S_11385670152 75.0 3.0 4.0 7.0 0
S_1278162252 75.0 3.0 4.0 7.0 0
S_3158788604 75.0 3.0 4.0 7.0 0
S_1278162290 75.0 3.0 4.0 7.0 0
S_6454862032 75.0 3.0 4.0 7.0 0
S_1278162256 75.0 3.0 4.0 7.0 0
S_7432244834 75.0 3.0 4.0 7.0 0
S_1377861068 75.0 3.0 4.0 7.0 0
S_1278162270 75.0 3.0 4.0 7.0 0
S_3149542145 75.0 3.0 4.0 7.0 0
S_7432244840 75.0 3.0 4.0 7.0 0
S_3158788133 75.0 3.0 4.0 7.0 0
S_1278162293 75.0 3.0 4.0 7.0 0
S_1278162286 75.0 3.0 4.0 7.0 0
S_3158788120 75.0 3.0 4.0 7.0 0
S_3149542147 75.0 3.0 4.0 7.0 0
S_11385626668 75.0 3.0 4.0 7.0 0
S_6454862031 75.0 3.0 4.0 7.0 0
S_3158788134 75.0 3.0 4.0 7.0 0
S_1377861139 75.0 3.0 4.0 7.0 0
S_1278162311 75.0 3.0 4.0 7.0 0
S_1278162357 75.0 3.0 4.0 7.0 0
S_3158788574 75.0 3.0 4.0 7.0 0
S_3158788139 75.0 3.0 4.0 7.0 0
S_13279121428 75.0 3.0 4.0 7.0 0
S_13415110849 75.0 3.0 4.0 7.0 0
S_1377861052 75.0 3.0 4.0 7.0 0
S_1377861085 75.0 3.0 4.0 7.0 0
S_6531845899 75.0 3.0 4.0 7.0 0
S_6142604397 75.0 3.0 4.0 7.0 0
S_1377861055 75.0 3.0 4.0 7.0 0
S_10081671262 75.0 3.0 4.0 7.0 0
S_3149541686 75.0 3.0 4.0 7.0 0
S_3158788600 75.0 3.0 4.0 7.0 0
S_3158788633 75.0 3.0 4.0 7.0 0
S_11012063564 75.0 3.0 4.0 7.0 0
S_1377861070 75.0 3.0 4.0 7.0 0
S_3761074302 75.0 3.0 4.0 7.0 0
S_1377861078 75.0 3.0 4.0 7.0 0
S_1377861121 75.0 3.0 4.0 7.0 0
S_3149541700 75.0 3.0 4.0 7.0 0
S_1377861114 75.0 3.0 4.0 7.0 0
S_2407764624 75.0 3.0 4.0 7.0 0
S_1377861103 75.0 3.0 4.0 7.0 0
S_13410465942 75.0 3.0 4.0 7.0 0
S_2407764625 75.0 3.0 4.0 7.0 0
S_4582754028 75.0 3.0 4.0 7.0 0
S_1377861104 75.0 3.0 4.0 7.0 0
S_6518859305 75.0 3.0 4.0 7.0 0
S_6518859320 75.0 3.0 4.0 7.0 0
S_4918188102 75.0 3.0 4.0 7.0 0
S_1377861123 75.0 3.0 4.0 7.0 0
S_11387496338 75.0 3.0 4.0 7.0 0
S_4415687414 75.0 3.0 4.0 7.0 0
S_2110371291 75.0 3.0 4.0 7.0 0
S_1377861129 75.0 3.0 4.0 7.0 0
S_3149541689 75.0 3.0 4.0 7.0 0
S_7478257546 75.0 3.0 4.0 7.0 0
S_3158788115 75.0 3.0 4.0 7.0 0
S_3158788135 75.0 3.0 4.0 7.0 0
S_2406072874 75.0 3.0 4.0 7.0 0
S_3158788624 75.0 3.0 4.0 7.0 0
S_1417443438 75.0 3.0 4.0 7.0 0
S_2057491159 75.0 3.0 4.0 7.0 0
S_1488526915 75.0 3.0 4.0 7.0 0
S_4377707475 75.0 3.0 4.0 7.0 0
S_1417443496 75.0 3.0 4.0 7.0 0
S_5493854958 75.0 3.0 4.0 7.0 0
S_1488526892 75.0 3.0 4.0 7.0 0
S_1417443503 75.0 3.0 4.0 7.0 0
S_7432244850 75.0 3.0 4.0 7.0 0
S_1488526889 75.0 3.0 4.0 7.0 0
S_1488526909 75.0 3.0 4.0 7.0 0
S_1417443508 75.0 3.0 4.0 7.0 0
S_3161269164 75.0 3.0 4.0 7.0 0
S_3504342593 75.0 3.0 4.0 7.0 0
S_1417443542 75.0 3.0 4.0 7.0 0
S_1417443612 75.0 3.0 4.0 7.0 0
S_6528148952 75.0 3.0 4.0 7.0 0
S_10989273453 75.0 3.0 4.0 7.0 0
S_1417443557 75.0 3.0 4.0 7.0 0
S_6528148954 75.0 3.0 4.0 7.0 0
S_6528148957 75.0 3.0 4.0 7.0 0
S_1417443563 75.0 3.0 4.0 7.0 0
S_1417443584 75.0 3.0 4.0 7.0 0
S_10081725588 75.0 3.0 4.0 7.0 0
S_10081671394 75.0 3.0 4.0 7.0 0
S_6528148966 75.0 3.0 4.0 7.0 0
S_6528148967 75.0 3.0 4.0 7.0 0
S_1417443628 75.0 3.0 4.0 7.0 0
S_6528148968 75.0 3.0 4.0 7.0 0
S_1417443633 75.0 3.0 4.0 7.0 0
S_6528148969 75.0 3.0 4.0 7.0 0
S_5493844924 75.0 3.0 4.0 7.0 0
S_1488526924 75.0 3.0 4.0 7.0 0
S_6528148971 75.0 3.0 4.0 7.0 0
S_1417443659 75.0 3.0 4.0 7.0 0
S_6528148973 75.0 3.0 4.0 7.0 0
S_9743339252 75.0 3.0 4.0 7.0 0
S_1417443666 75.0 3.0 4.0 7.0 0
S_2450399430 75.0 3.0 4.0 7.0 0
S_3235639719 75.0 3.0 4.0 7.0 0
S_3235639720 75.0 3.0 4.0 7.0 0
S_1417443716 75.0 3.0 4.0 7.0 0
S_6142327790 75.0 3.0 4.0 7.0 0
S_10081671376 75.0 3.0 4.0 7.0 0
S_1417443726 75.0 3.0 4.0 7.0 0
S_6180272976 75.0 3.0 4.0 7.0 0
S_1417443734 75.0 3.0 4.0 7.0 0
S_10081671363 75.0 3.0 4.0 7.0 0
S_1417443736 75.0 3.0 4.0 7.0 0
S_12196455086 75.0 3.0 4.0 7.0 0
S_1417443740 75.0 3.0 4.0 7.0 0
S_10081671364 75.0 3.0 4.0 7.0 0
S_6193921850 75.0 3.0 4.0 7.0 0
S_1471714099 75.0 3.0 4.0 7.0 0
S_1481354885 75.0 3.0 4.0 7.0 0
S_4918188103 75.0 3.0 4.0 7.0 0
S_1473826426 75.0 3.0 4.0 7.0 0
S_1473826428 75.0 3.0 4.0 7.0 0
S_1481366489 75.0 3.0 4.0 7.0 0
S_5388494824 75.0 3.0 4.0 7.0 0
S_1473826436 75.0 3.0 4.0 7.0 0
S_1473871923 75.0 3.0 4.0 7.0 0
S_7432244843 75.0 3.0 4.0 7.0 0
S_1473871926 75.0 3.0 4.0 7.0 0
S_1473871955 75.0 3.0 4.0 7.0 0
S_1488526920 75.0 3.0 4.0 7.0 0
S_1473871954 75.0 3.0 4.0 7.0 0
S_7432244844 75.0 3.0 4.0 7.0 0
S_1473871927 75.0 3.0 4.0 7.0 0
S_1473871937 75.0 3.0 4.0 7.0 0
S_10094580864 75.0 3.0 4.0 7.0 0
S_5267823521 75.0 3.0 4.0 7.0 0
S_1473871942 75.0 3.0 4.0 7.0 0
S_3096683824 75.0 3.0 4.0 7.0 0
S_1473871936 75.0 3.0 4.0 7.0 0
S_1473871947 75.0 3.0 4.0 7.0 0
S_1473871956 75.0 3.0 4.0 7.0 0
S_1473871957 75.0 3.0 4.0 7.0 0
S_1473871959 75.0 3.0 4.0 7.0 0
S_1473871938 75.0 3.0 4.0 7.0 0
S_7432244848 75.0 3.0 4.0 7.0 0
S_1473871941 75.0 3.0 4.0 7.0 0
S_1473871958 75.0 3.0 4.0 7.0 0
S_7432244847 75.0 3.0 4.0 7.0 0
S_7432244845 75.0 3.0 4.0 7.0 0
S_7432244846 75.0 3.0 4.0 7.0 0
S_1473885237 75.0 3.0 4.0 7.0 0
S_1473885223 75.0 3.0 4.0 7.0 0
S_7432244854 75.0 3.0 4.0 7.0 0
S_1473885226 75.0 3.0 4.0 7.0 0
S_1473885458 75.0 3.0 4.0 7.0 0
S_1473885439 75.0 3.0 4.0 7.0 0
S_11663050338 75.0 3.0 4.0 7.0 0
S_1473890785 75.0 3.0 4.0 7.0 0
S_12695945997 75.0 3.0 4.0 7.0 0
S_6178041424 75.0 3.0 4.0 7.0 0
S_6463519072 75.0 3.0 4.0 7.0 0
S_1473890791 75.0 3.0 4.0 7.0 0
S_6178041420 75.0 3.0 4.0 7.0 0
S_12151399348 75.0 3.0 4.0 7.0 0
S_1477138900 75.0 3.0 4.0 7.0 0
S_1481354884 75.0 3.0 4.0 7.0 0
S_4918188104 75.0 3.0 4.0 7.0 0
S_6130764691 75.0 3.0 4.0 7.0 0
S_11387517314 75.0 3.0 4.0 7.0 0
S_1488526851 75.0 3.0 4.0 7.0 0
S_1488526884 75.0 3.0 4.0 7.0 0
S_1488526859 75.0 3.0 4.0 7.0 0
S_1488526883 75.0 3.0 4.0 7.0 0
S_1488526869 75.0 3.0 4.0 7.0 0
S_1488526866 75.0 3.0 4.0 7.0 0
S_11665987959 75.0 3.0 4.0 7.0 0
S_1488526894 75.0 3.0 4.0 7.0 0
S_1488526919 75.0 3.0 4.0 7.0 0
S_6152326682 75.0 3.0 4.0 7.0 0
S_1488526911 75.0 3.0 4.0 7.0 0
S_5267823528 75.0 3.0 4.0 7.0 0
S_5493854959 75.0 3.0 4.0 7.0 0
S_6567100315 75.0 3.0 4.0 7.0 0
S_4377707474 75.0 3.0 4.0 7.0 0
S_1488526896 75.0 3.0 4.0 7.0 0
S_3168039449 75.0 3.0 4.0 7.0 0
S_3538106723 75.0 3.0 4.0 7.0 0
S_5267823527 75.0 3.0 4.0 7.0 0
S_7432244851 75.0 3.0 4.0 7.0 0
S_4377707480 75.0 3.0 4.0 7.0 0
S_3168039448 75.0 3.0 4.0 7.0 0
S_10094580887 75.0 3.0 4.0 7.0 0
S_10094580889 75.0 3.0 4.0 7.0 0
S_1608973468 75.0 3.0 4.0 7.0 0
S_12067305544 75.0 3.0 4.0 7.0 0
S_1645178560 75.0 3.0 4.0 7.0 0
S_6463569335 75.0 3.0 4.0 7.0 0
S_650141496 75.0 3.0 4.0 7.0 0
S_1653906433 75.0 3.0 4.0 7.0 0
S_2389125034 75.0 3.0 4.0 7.0 0
S_2407745357 75.0 3.0 4.0 7.0 0
S_1653906436 75.0 3.0 4.0 7.0 0
S_11977577698 75.0 3.0 4.0 7.0 0
S_11260122965 75.0 3.0 4.0 7.0 0
S_2019288831 75.0 3.0 4.0 7.0 0
S_6141722653 75.0 3.0 4.0 7.0 0
S_6141722656 75.0 3.0 4.0 7.0 0
S_2019288832 75.0 3.0 4.0 7.0 0
S_6141722658 75.0 3.0 4.0 7.0 0
S_2110371293 75.0 3.0 4.0 7.0 0
S_11260122968 75.0 3.0 4.0 7.0 0
S_3761074303 75.0 3.0 4.0 7.0 0
S_2127279448 75.0 3.0 4.0 7.0 0
S_6884276685 75.0 3.0 4.0 7.0 0
S_2414635978 75.0 3.0 4.0 7.0 0
S_2385141390 75.0 3.0 4.0 7.0 0
S_3826045400 75.0 3.0 4.0 7.0 0
S_2387017402 75.0 3.0 4.0 7.0 0
S_6130226927 75.0 3.0 4.0 7.0 0
S_6131800547 75.0 3.0 4.0 7.0 0
S_2387173529 75.0 3.0 4.0 7.0 0
S_2387173530 75.0 3.0 4.0 7.0 0
S_2407763129 75.0 3.0 4.0 7.0 0
S_2388266803 75.0 3.0 4.0 7.0 0
S_2388266830 75.0 3.0 4.0 7.0 0
S_2509419434 75.0 3.0 4.0 7.0 0
S_4146210958 75.0 3.0 4.0 7.0 0
S_2388266812 75.0 3.0 4.0 7.0 0
S_7432244869 75.0 3.0 4.0 7.0 0
S_11007263820 75.0 3.0 4.0 7.0 0
S_4146211277 75.0 3.0 4.0 7.0 0
S_3543166934 75.0 3.0 4.0 7.0 0
S_7429952410 75.0 3.0 4.0 7.0 0
S_2388266833 75.0 3.0 4.0 7.0 0
S_2509419436 75.0 3.0 4.0 7.0 0
S_2388266836 75.0 3.0 4.0 7.0 0
S_5267402566 75.0 3.0 4.0 7.0 0
S_11903564939 75.0 3.0 4.0 7.0 0
S_2389119097 75.0 3.0 4.0 7.0 0
S_3235639716 75.0 3.0 4.0 7.0 0
S_3149523797 75.0 3.0 4.0 7.0 0
S_11977577699 75.0 3.0 4.0 7.0 0
S_2399992907 75.0 3.0 4.0 7.0 0
S_10094504108 75.0 3.0 4.0 7.0 0
S_10094504105 75.0 3.0 4.0 7.0 0
S_3298857094 75.0 3.0 4.0 7.0 0
S_3287849051 75.0 3.0 4.0 7.0 0
S_11374930009 75.0 3.0 4.0 7.0 0
S_10081671286 75.0 3.0 4.0 7.0 0
S_2407764622 75.0 3.0 4.0 7.0 0
S_6531845897 75.0 3.0 4.0 7.0 0
S_6531845895 75.0 3.0 4.0 7.0 0
S_2414626606 75.0 3.0 4.0 7.0 0
S_6887565739 75.0 3.0 4.0 7.0 0
S_2447310402 75.0 3.0 4.0 7.0 0
S_2447310404 75.0 3.0 4.0 7.0 0
S_2447310403 75.0 3.0 4.0 7.0 0
S_6130226930 75.0 3.0 4.0 7.0 0
S_2447310406 75.0 3.0 4.0 7.0 0
S_6130226931 75.0 3.0 4.0 7.0 0
S_6131800546 75.0 3.0 4.0 7.0 0
S_2450399417 75.0 3.0 4.0 7.0 0
S_2450399435 75.0 3.0 4.0 7.0 0
S_2450399416 75.0 3.0 4.0 7.0 0
S_2450399415 75.0 3.0 4.0 7.0 0
S_2450399433 75.0 3.0 4.0 7.0 0
S_2450399429 75.0 3.0 4.0 7.0 0
S_11259448953 75.0 3.0 4.0 7.0 0
S_6528148976 75.0 3.0 4.0 7.0 0
S_3149523809 75.0 3.0 4.0 7.0 0
S_3149523807 75.0 3.0 4.0 7.0 0
S_10172729085 75.0 3.0 4.0 7.0 0
S_2509419432 75.0 3.0 4.0 7.0 0
S_12073866974 75.0 3.0 4.0 7.0 0
S_7432244857 75.0 3.0 4.0 7.0 0
S_2509419435 75.0 3.0 4.0 7.0 0
S_3161269196 75.0 3.0 4.0 7.0 0
S_6901563123 75.0 3.0 4.0 7.0 0
S_7086183227 75.0 3.0 4.0 7.0 0
S_3149523798 75.0 3.0 4.0 7.0 0
S_3149523799 75.0 3.0 4.0 7.0 0
S_3149523802 75.0 3.0 4.0 7.0 0
S_3149523800 75.0 3.0 4.0 7.0 0
S_3149523803 75.0 3.0 4.0 7.0 0
S_3149523804 75.0 3.0 4.0 7.0 0
S_3149523806 75.0 3.0 4.0 7.0 0
S_5389382766 75.0 3.0 4.0 7.0 0
S_3149541696 75.0 3.0 4.0 7.0 0
S_3149541706 75.0 3.0 4.0 7.0 0
S_3149541705 75.0 3.0 4.0 7.0 0
S_10081671278 75.0 3.0 4.0 7.0 0
S_3149541704 75.0 3.0 4.0 7.0 0
S_3149541707 75.0 3.0 4.0 7.0 0
S_10081671274 75.0 3.0 4.0 7.0 0
S_3149541708 75.0 3.0 4.0 7.0 0
S_10081671276 75.0 3.0 4.0 7.0 0
S_10081671275 75.0 3.0 4.0 7.0 0
S_3149541710 75.0 3.0 4.0 7.0 0
S_10081671277 75.0 3.0 4.0 7.0 0
S_3149542132 75.0 3.0 4.0 7.0 0
S_3158788637 75.0 3.0 4.0 7.0 0
S_3158788638 75.0 3.0 4.0 7.0 0
S_6137799426 75.0 3.0 4.0 7.0 0
S_3149542136 75.0 3.0 4.0 7.0 0
S_3158788639 75.0 3.0 4.0 7.0 0
S_3158788641 75.0 3.0 4.0 7.0 0
S_9840710126 75.0 3.0 4.0 7.0 0
S_3158788131 75.0 3.0 4.0 7.0 0
S_3149542146 75.0 3.0 4.0 7.0 0
S_3158788114 75.0 3.0 4.0 7.0 0
S_3158788105 75.0 3.0 4.0 7.0 0
S_3158788145 75.0 3.0 4.0 7.0 0
S_3158788662 75.0 3.0 4.0 7.0 0
S_13415111434 75.0 3.0 4.0 7.0 0
S_3158788107 75.0 3.0 4.0 7.0 0
S_3158788108 75.0 3.0 4.0 7.0 0
S_7432244830 75.0 3.0 4.0 7.0 0
S_5388494832 75.0 3.0 4.0 7.0 0
S_3158788608 75.0 3.0 4.0 7.0 0
S_3158788144 75.0 3.0 4.0 7.0 0
S_13410902781 75.0 3.0 4.0 7.0 0
S_3158788110 75.0 3.0 4.0 7.0 0
S_7432244839 75.0 3.0 4.0 7.0 0
S_3158788140 75.0 3.0 4.0 7.0 0
S_3158788112 75.0 3.0 4.0 7.0 0
S_3158788116 75.0 3.0 4.0 7.0 0
S_3158788113 75.0 3.0 4.0 7.0 0
S_3158788118 75.0 3.0 4.0 7.0 0
S_11385670151 75.0 3.0 4.0 7.0 0
S_3158788117 75.0 3.0 4.0 7.0 0
S_3158788119 75.0 3.0 4.0 7.0 0
S_3158788124 75.0 3.0 4.0 7.0 0
S_4579649727 75.0 3.0 4.0 7.0 0
S_3158788129 75.0 3.0 4.0 7.0 0
S_3158788132 75.0 3.0 4.0 7.0 0
S_10153868766 75.0 3.0 4.0 7.0 0
S_10153868767 75.0 3.0 4.0 7.0 0
S_3158788612 75.0 3.0 4.0 7.0 0
S_3158788141 75.0 3.0 4.0 7.0 0
S_3158788142 75.0 3.0 4.0 7.0 0
S_3158788571 75.0 3.0 4.0 7.0 0
S_3158788565 75.0 3.0 4.0 7.0 0
S_7429952388 75.0 3.0 4.0 7.0 0
S_10153862358 75.0 3.0 4.0 7.0 0
S_3158788611 75.0 3.0 4.0 7.0 0
S_3158788629 75.0 3.0 4.0 7.0 0
S_3158788615 75.0 3.0 4.0 7.0 0
S_3158788616 75.0 3.0 4.0 7.0 0
S_3158788620 75.0 3.0 4.0 7.0 0
S_7432244836 75.0 3.0 4.0 7.0 0
S_3158788621 75.0 3.0 4.0 7.0 0
S_3158788632 75.0 3.0 4.0 7.0 0
S_3158788635 75.0 3.0 4.0 7.0 0
S_3158788636 75.0 3.0 4.0 7.0 0
S_3158788640 75.0 3.0 4.0 7.0 0
S_3158788642 75.0 3.0 4.0 7.0 0
S_3161118525 75.0 3.0 4.0 7.0 0
S_6131076159 75.0 3.0 4.0 7.0 0
S_10081725549 75.0 3.0 4.0 7.0 0
S_3161269161 75.0 3.0 4.0 7.0 0
S_3161269162 75.0 3.0 4.0 7.0 0
S_3221362713 75.0 3.0 4.0 7.0 0
S_3504751071 75.0 3.0 4.0 7.0 0
S_11353404310 75.0 3.0 4.0 7.0 0
S_3161269197 75.0 3.0 4.0 7.0 0
S_8979004920 75.0 3.0 4.0 7.0 0
S_8979004919 75.0 3.0 4.0 7.0 0
S_3168039450 75.0 3.0 4.0 7.0 0
S_5493868902 75.0 3.0 4.0 7.0 0
S_5493868901 75.0 3.0 4.0 7.0 0
S_3965281000 75.0 3.0 4.0 7.0 0
S_10081671392 75.0 3.0 4.0 7.0 0
S_12197618359 75.0 3.0 4.0 7.0 0
S_3235639717 75.0 3.0 4.0 7.0 0
S_3235639718 75.0 3.0 4.0 7.0 0
S_3235639721 75.0 3.0 4.0 7.0 0
S_12197618361 75.0 3.0 4.0 7.0 0
S_12067305543 75.0 3.0 4.0 7.0 0
S_3298864776 75.0 3.0 4.0 7.0 0
S_11865527609 75.0 3.0 4.0 7.0 0
S_5780852347 75.0 3.0 4.0 7.0 0
S_3421682934 75.0 3.0 4.0 7.0 0
S_12695960102 75.0 3.0 4.0 7.0 0
S_3538106692 75.0 3.0 4.0 7.0 0
S_7086183230 75.0 3.0 4.0 7.0 0
S_7086183228 75.0 3.0 4.0 7.0 0
S_7432283509 75.0 3.0 4.0 7.0 0
S_4146210945 75.0 3.0 4.0 7.0 0
S_3549123725 75.0 3.0 4.0 7.0 0
S_5267369426 75.0 3.0 4.0 7.0 0
S_5267369427 75.0 3.0 4.0 7.0 0
S_5267369429 75.0 3.0 4.0 7.0 0
S_3549124813 75.0 3.0 4.0 7.0 0
S_3549124818 75.0 3.0 4.0 7.0 0
S_3549124909 75.0 3.0 4.0 7.0 0
S_3549124822 75.0 3.0 4.0 7.0 0
S_2387385680 75.0 3.0 4.0 7.0 0
S_12186005569 75.0 3.0 4.0 7.0 0
S_3965280993 75.0 3.0 4.0 7.0 0
S_3965280999 75.0 3.0 4.0 7.0 0
S_3965280995 75.0 3.0 4.0 7.0 0
S_4146210931 75.0 3.0 4.0 7.0 0
S_6457067893 75.0 3.0 4.0 7.0 0
S_4146210932 75.0 3.0 4.0 7.0 0
S_6458176794 75.0 3.0 4.0 7.0 0
S_6458176792 75.0 3.0 4.0 7.0 0
S_4146210944 75.0 3.0 4.0 7.0 0
S_6457067894 75.0 3.0 4.0 7.0 0
S_4146210951 75.0 3.0 4.0 7.0 0
S_4146210953 75.0 3.0 4.0 7.0 0
S_11007254971 75.0 3.0 4.0 7.0 0
S_4146211263 75.0 3.0 4.0 7.0 0
S_4146211265 75.0 3.0 4.0 7.0 0
S_4146211266 75.0 3.0 4.0 7.0 0
S_6196261541 75.0 3.0 4.0 7.0 0
S_4146211267 75.0 3.0 4.0 7.0 0
S_4146211269 75.0 3.0 4.0 7.0 0
S_4146211270 75.0 3.0 4.0 7.0 0
S_7429952406 75.0 3.0 4.0 7.0 0
S_6504556325 75.0 3.0 4.0 7.0 0
S_4146211279 75.0 3.0 4.0 7.0 0
S_4146211273 75.0 3.0 4.0 7.0 0
S_4146211275 75.0 3.0 4.0 7.0 0
S_7432244868 75.0 3.0 4.0 7.0 0
S_4146211283 75.0 3.0 4.0 7.0 0
S_7432244867 75.0 3.0 4.0 7.0 0
S_4146211281 75.0 3.0 4.0 7.0 0
S_4146211286 75.0 3.0 4.0 7.0 0
S_4918188101 75.0 3.0 4.0 7.0 0
S_4918203528 75.0 3.0 4.0 7.0 0
S_5267402562 75.0 3.0 4.0 7.0 0
S_10049434084 75.0 3.0 4.0 7.0 0
S_5267402567 75.0 3.0 4.0 7.0 0
S_5267822919 75.0 3.0 4.0 7.0 0
S_5267823525 75.0 3.0 4.0 7.0 0
S_5267822920 75.0 3.0 4.0 7.0 0
S_5267823523 75.0 3.0 4.0 7.0 0
S_5267823522 75.0 3.0 4.0 7.0 0
S_5267823524 75.0 3.0 4.0 7.0 0
S_5267823526 75.0 3.0 4.0 7.0 0
S_5267823530 75.0 3.0 4.0 7.0 0
S_5292923939 75.0 3.0 4.0 7.0 0
S_5388479540 75.0 3.0 4.0 7.0 0
S_5388494831 75.0 3.0 4.0 7.0 0
S_6884276481 75.0 3.0 4.0 7.0 0
S_12181798460 75.0 3.0 4.0 7.0 0
S_6017833806 75.0 3.0 4.0 7.0 0
S_6017833807 75.0 3.0 4.0 7.0 0
S_6130226929 75.0 3.0 4.0 7.0 0
S_6130226928 75.0 3.0 4.0 7.0 0
S_11063510865 75.0 3.0 4.0 7.0 0
S_9189234398 75.0 3.0 4.0 7.0 0
S_6196261538 75.0 3.0 4.0 7.0 0
S_12067305554 75.0 3.0 4.0 7.0 0
S_6132603450 75.0 3.0 4.0 7.0 0
S_11476594021 75.0 3.0 4.0 7.0 0
S_6141722654 75.0 3.0 4.0 7.0 0
S_9189927159 75.0 3.0 4.0 7.0 0
S_10094580906 75.0 3.0 4.0 7.0 0
S_7432244855 75.0 3.0 4.0 7.0 0
S_6567395238 75.0 3.0 4.0 7.0 0
S_6567395227 75.0 3.0 4.0 7.0 0
S_6144301681 75.0 3.0 4.0 7.0 0
S_6178041419 75.0 3.0 4.0 7.0 0
S_6178041422 75.0 3.0 4.0 7.0 0
S_10094529581 75.0 3.0 4.0 7.0 0
S_6196261537 75.0 3.0 4.0 7.0 0
S_6196261540 75.0 3.0 4.0 7.0 0
S_6196261539 75.0 3.0 4.0 7.0 0
S_6196261542 75.0 3.0 4.0 7.0 0
S_11007259534 75.0 3.0 4.0 7.0 0
S_6462301370 75.0 3.0 4.0 7.0 0
S_6518859304 75.0 3.0 4.0 7.0 0
S_10839341172 75.0 3.0 4.0 7.0 0
S_6528148940 75.0 3.0 4.0 7.0 0
S_6528148951 75.0 3.0 4.0 7.0 0
S_6528148953 75.0 3.0 4.0 7.0 0
S_6528148955 75.0 3.0 4.0 7.0 0
S_6528148956 75.0 3.0 4.0 7.0 0
S_10081706681 75.0 3.0 4.0 7.0 0
S_6528148963 75.0 3.0 4.0 7.0 0
S_6528148965 75.0 3.0 4.0 7.0 0
S_6528148970 75.0 3.0 4.0 7.0 0
S_6528148975 75.0 3.0 4.0 7.0 0
S_6529626685 75.0 3.0 4.0 7.0 0
S_6531845894 75.0 3.0 4.0 7.0 0
S_13410465225 75.0 3.0 4.0 7.0 0
S_10081671279 75.0 3.0 4.0 7.0 0
S_7432359269 75.0 3.0 4.0 7.0 0
S_6567395228 75.0 3.0 4.0 7.0 0
S_6567395229 75.0 3.0 4.0 7.0 0
S_12174205245 75.0 3.0 4.0 7.0 0
S_6567395235 75.0 3.0 4.0 7.0 0
S_6567395237 75.0 3.0 4.0 7.0 0
S_6633301856 75.0 3.0 4.0 7.0 0
S_6884276477 75.0 3.0 4.0 7.0 0
S_6884276686 75.0 3.0 4.0 7.0 0
S_11374930012 75.0 3.0 4.0 7.0 0
S_11178931802 75.0 3.0 4.0 7.0 0
S_6887565743 75.0 3.0 4.0 7.0 0
S_11178931798 75.0 3.0 4.0 7.0 0
S_7086183229 75.0 3.0 4.0 7.0 0
S_7429952389 75.0 3.0 4.0 7.0 0
S_7429952390 75.0 3.0 4.0 7.0 0
S_7429952391 75.0 3.0 4.0 7.0 0
S_10153862361 75.0 3.0 4.0 7.0 0
S_7429952393 75.0 3.0 4.0 7.0 0
S_7429952399 75.0 3.0 4.0 7.0 0
S_7429952405 75.0 3.0 4.0 7.0 0
S_7432244829 75.0 3.0 4.0 7.0 0
S_7432244831 75.0 3.0 4.0 7.0 0
S_7432244835 75.0 3.0 4.0 7.0 0
S_7432244837 75.0 3.0 4.0 7.0 0
S_7432244838 75.0 3.0 4.0 7.0 0
S_7432244842 75.0 3.0 4.0 7.0 0
S_7432244862 75.0 3.0 4.0 7.0 0
S_7432244864 75.0 3.0 4.0 7.0 0
S_7432244865 75.0 3.0 4.0 7.0 0
S_7432244866 75.0 3.0 4.0 7.0 0
S_7432244871 75.0 3.0 4.0 7.0 0
S_7432244873 75.0 3.0 4.0 7.0 0
S_7432359284 75.0 3.0 4.0 7.0 0
S_7432359283 75.0 3.0 4.0 7.0 0
S_12695960101 75.0 3.0 4.0 7.0 0
S_7432382398 75.0 3.0 4.0 7.0 0
S_7478115637 75.0 3.0 4.0 7.0 0
S_7478257545 75.0 3.0 4.0 7.0 0
S_8979004921 75.0 3.0 4.0 7.0 0
S_8984867007 75.0 3.0 4.0 7.0 0
S_9189234403 75.0 3.0 4.0 7.0 0
S_9813619345 75.0 3.0 4.0 7.0 0
S_9918817333 75.0 3.0 4.0 7.0 0
S_10081671261 75.0 3.0 4.0 7.0 0
S_10081671263 75.0 3.0 4.0 7.0 0
S_10081671268 75.0 3.0 4.0 7.0 0
S_10081671273 75.0 3.0 4.0 7.0 0
S_10081671388 75.0 3.0 4.0 7.0 0
S_10081671389 75.0 3.0 4.0 7.0 0
S_10081671390 75.0 3.0 4.0 7.0 0
S_10081671391 75.0 3.0 4.0 7.0 0
S_10081671393 75.0 3.0 4.0 7.0 0
S_10081706679 75.0 3.0 4.0 7.0 0
S_10081706684 75.0 3.0 4.0 7.0 0
S_10081706683 75.0 3.0 4.0 7.0 0
S_10081706686 75.0 3.0 4.0 7.0 0
S_10081725589 75.0 3.0 4.0 7.0 0
S_10081725590 75.0 3.0 4.0 7.0 0
S_10081725592 75.0 3.0 4.0 7.0 0
S_10848086334 75.0 3.0 4.0 7.0 0
S_12196366168 75.0 3.0 4.0 7.0 0
S_10094504106 75.0 3.0 4.0 7.0 0
S_10094529582 75.0 3.0 4.0 7.0 0
S_10094580865 75.0 3.0 4.0 7.0 0
S_10094580888 75.0 3.0 4.0 7.0 0
S_10094580890 75.0 3.0 4.0 7.0 0
S_10094586220 75.0 3.0 4.0 7.0 0
S_10153862359 75.0 3.0 4.0 7.0 0
S_13410902898 75.0 3.0 4.0 7.0 0
S_10153868765 75.0 3.0 4.0 7.0 0
S_10989273452 75.0 3.0 4.0 7.0 0
S_10989273454 75.0 3.0 4.0 7.0 0
S_10994556963 75.0 3.0 4.0 7.0 0
S_11006990856 75.0 3.0 4.0 7.0 0
S_11007263821 75.0 3.0 4.0 7.0 0
S_11007435039 75.0 3.0 4.0 7.0 0
S_11012063565 75.0 3.0 4.0 7.0 0
S_11063510864 75.0 3.0 4.0 7.0 0
S_11178931803 75.0 3.0 4.0 7.0 0
S_11259448961 75.0 3.0 4.0 7.0 0
S_11259448963 75.0 3.0 4.0 7.0 0
S_11259448962 75.0 3.0 4.0 7.0 0
S_11892824101 75.0 3.0 4.0 7.0 0
S_11374930007 75.0 3.0 4.0 7.0 0
S_11374930008 75.0 3.0 4.0 7.0 0
S_11374930010 75.0 3.0 4.0 7.0 0
S_11374930011 75.0 3.0 4.0 7.0 0
S_11663109187 75.0 3.0 4.0 7.0 0
S_11892824102 75.0 3.0 4.0 7.0 0
S_12203527486 75.0 3.0 4.0 7.0 0
S_12186005568 75.0 3.0 4.0 7.0 0
S_12197618360 75.0 3.0 4.0 7.0 0
S_12197618362 75.0 3.0 4.0 7.0 0
S_12695946000 75.0 3.0 4.0 7.0 0
S_12695960103 75.0 3.0 4.0 7.0 0
S_13152778981 75.0 3.0 4.0 7.0 0
S_13410465226 75.0 3.0 4.0 7.0 0
S_13410465941 75.0 3.0 4.0 7.0 0
S_13415111431 75.0 3.0 4.0 7.0 0
S_13475843622 75.0 3.0 4.0 7.0 0

[JUNCTIONS]
;;Name Elevation MaxDepth InitDepth SurDepth Aponded
J_263386428 880.10 3.0 0 0 100
J_306622120 881.17 3.0 0 0 100
J_306621809 880.83 3.0 0 0 100
J_11533595484 882.93 3.0 0 0 100
J_263386438 899.23 3.0 0 0 100
J_7432382412 899.23 3.0 0 0 100
J_306615032 901.39 3.0 0 0 100
J_7432382410 898.79 3.0 0 0 100
J_263386445 894.25 3.0 0 0 100
J_7432382420 894.25 3.0 0 0 100
J_306623098 893.56 3.0 0 0 100
J_263386457 904.21 3.0 0 0 100
J_306623631 903.54 3.0 0 0 100
J_836238509 905.87 3.0 0 0 100
J_306623149 902.03 3.0 0 0 100
J_263394718 893.45 3.0 0 0 100
J_266268086 893.63 3.0 0 0 100
J_263400205 894.34 3.0 0 0 100
J_11178931799 893.48 3.0 0 0 100
J_263400148 886.18 3.0 0 0 100
J_266271044 886.90 3.0 0 0 100
J_266271204 882.16 3.0 0 0 100
J_650089427 883.24 3.0 0 0 100
J_263400179 889.19 3.0 0 0 100
J_10094586219 891.98 3.0 0 0 100
J_4467082413 889.19 3.0 0 0 100
J_306620123 893.21 3.0 0 0 100
J_263400192 892.61 3.0 0 0 100
J_5267402564 892.61 3.0 0 0 100
J_306620053 893.99 3.0 0 0 100
J_266275087 894.76 3.0 0 0 100
J_263415776 887.00 3.0 0 0 100
J_263415826 886.85 3.0 0 0 100
J_306620181 887.81 3.0 0 0 100
J_306620007 887.20 3.0 0 0 100
J_266271046 888.04 3.0 0 0 100
J_263415839 887.93 3.0 0 0 100
J_306615019 886.36 3.0 0 0 100
J_306615476 889.04 3.0 0 0 100
J_306615164 887.23 3.0 0 0 100
J_263415852 888.87 3.0 0 0 100
J_266318626 892.23 3.0 0 0 100
J_306615014 889.17 3.0 0 0 100
J_306620859 891.04 3.0 0 0 100
J_263431510 888.51 3.0 0 0 100
J_4146211264 887.42 3.0 0 0 100
J_266310426 892.81 3.0 0 0 100
J_2406084997 884.73 3.0 0 0 100
J_266163778 896.28 3.0 0 0 100
J_306617302 897.88 3.0 0 0 100
J_7432382401 896.28 3.0 0 0 100
J_7432382395 894.62 3.0 0 0 100
J_266164910 902.50 3.0 0 0 100
J_622363164 902.14 3.0 0 0 100
J_306623347 900.64 3.0 0 0 100
J_306623648 903.72 3.0 0 0 100
J_306626271 902.08 3.0 0 0 100
J_266164941 889.38 3.0 0 0 100
J_266318559 892.86 3.0 0 0 100
J_11007435038 889.38 3.0 0 0 100
J_266304400 891.81 3.0 0 0 100
J_266164942 893.64 3.0 0 0 100
J_266314035 894.07 3.0 0 0 100
J_266318994 896.61 3.0 0 0 100
J_266164948 890.44 3.0 0 0 100
J_2406084995 893.35 3.0 0 0 100
J_4146211262 891.08 3.0 0 0 100
J_4146211261 887.38 3.0 0 0 100
J_266174853 901.42 3.0 0 0 100
J_266265561 902.34 3.0 0 0 100
J_306625695 902.30 3.0 0 0 100
J_306625759 901.44 3.0 0 0 100
J_306626127 904.11 3.0 0 0 100
J_266174854 893.92 3.0 0 0 100
J_266298095 897.37 3.0 0 0 100
J_1417443647 891.09 3.0 0 0 100
J_1417443641 894.85 3.0 0 0 100
J_266174856 884.85 3.0 0 0 100
J_1473871931 885.53 3.0 0 0 100
J_1473871940 884.28 3.0 0 0 100
J_266272487 887.58 3.0 0 0 100
J_266174857 886.75 3.0 0 0 100
J_313460308 887.44 3.0 0 0 100
J_1473885221 883.87 3.0 0 0 100
J_266272874 886.21 3.0 0 0 100
J_266177660 888.95 3.0 0 0 100
J_2526081636 887.01 3.0 0 0 100
J_6560240052 883.54 3.0 0 0 100
J_306616744 902.24 3.0 0 0 100
J_266268082 901.04 3.0 0 0 100
J_266267494 902.02 3.0 0 0 100
J_266267499 903.83 3.0 0 0 100
J_306624820 900.42 3.0 0 0 100
J_266267666 899.49 3.0 0 0 100
J_1469644202 900.74 3.0 0 0 100
J_306625528 903.00 3.0 0 0 100
J_12174142491 901.21 3.0 0 0 100
J_306617429 900.73 3.0 0 0 100
J_266268084 902.15 3.0 0 0 100
J_306617477 898.74 3.0 0 0 100
J_266268085 897.16 3.0 0 0 100
J_306616740 898.47 3.0 0 0 100
J_2407671508 894.55 3.0 0 0 100
J_266268374 904.39 3.0 0 0 100
J_306623673 904.95 3.0 0 0 100
J_10094529579 902.86 3.0 0 0 100
J_266268375 904.09 3.0 0 0 100
J_306623367 903.82 3.0 0 0 100
J_306624975 904.43 3.0 0 0 100
J_266268377 902.37 3.0 0 0 100
J_306624796 902.23 3.0 0 0 100
J_5780852321 901.05 3.0 0 0 100
J_266268380 899.98 3.0 0 0 100
J_6884276690 899.23 3.0 0 0 100
J_306624839 898.32 3.0 0 0 100
J_306620124 895.84 3.0 0 0 100
J_306620177 882.65 3.0 0 0 100
J_10094586221 883.21 3.0 0 0 100
J_1488556180 888.60 3.0 0 0 100
J_266298088 890.62 3.0 0 0 100
J_266272838 879.77 3.0 0 0 100
J_266272839 879.95 3.0 0 0 100
J_7432382393 880.00 3.0 0 0 100
J_306609464 878.73 3.0 0 0 100
J_266272840 882.89 3.0 0 0 100
J_306609693 881.07 3.0 0 0 100
J_306609695 883.82 3.0 0 0 100
J_266272841 880.21 3.0 0 0 100
J_266272842 879.91 3.0 0 0 100
J_306610651 880.99 3.0 0 0 100
J_306614126 879.11 3.0 0 0 100
J_266272843 879.12 3.0 0 0 100
J_306619706 880.52 3.0 0 0 100
J_11259448972 880.51 3.0 0 0 100
J_306614127 882.82 3.0 0 0 100
J_306618090 886.48 3.0 0 0 100
J_3161269200 893.17 3.0 0 0 100
J_266273088 886.45 3.0 0 0 100
J_1473871924 888.25 3.0 0 0 100
J_1473871945 886.11 3.0 0 0 100
J_1488526913 886.53 3.0 0 0 100
J_266273090 894.63 3.0 0 0 100
J_3096683821 891.17 3.0 0 0 100
J_4377707444 892.72 3.0 0 0 100
J_4377707454 896.98 3.0 0 0 100
J_266273458 887.74 3.0 0 0 100
J_6141732621 887.74 3.0 0 0 100
J_266298086 891.81 3.0 0 0 100
J_266273460 886.33 3.0 0 0 100
J_7432244853 885.77 3.0 0 0 100
J_266298084 889.28 3.0 0 0 100
J_266274986 892.44 3.0 0 0 100
J_266275089 891.32 3.0 0 0 100
J_10094586223 892.92 3.0 0 0 100
J_266275021 894.74 3.0 0 0 100
J_306615461 895.57 3.0 0 0 100
J_266275022 894.42 3.0 0 0 100
J_306615202 896.46 3.0 0 0 100
J_266275023 893.81 3.0 0 0 100
J_7432382418 893.81 3.0 0 0 100
J_306623067 894.91 3.0 0 0 100
J_306623066 900.68 3.0 0 0 100
J_266275088 892.58 3.0 0 0 100
J_306619953 886.29 3.0 0 0 100
J_266275456 879.26 3.0 0 0 100
J_6462301371 879.63 3.0 0 0 100
J_2388266844 879.53 3.0 0 0 100
J_11007254966 883.11 3.0 0 0 100
J_266275460 884.07 3.0 0 0 100
J_266275461 886.83 3.0 0 0 100
J_6196907479 884.07 3.0 0 0 100
J_11431805314 883.56 3.0 0 0 100
J_10211111398 886.74 3.0 0 0 100
J_4146211288 887.56 3.0 0 0 100
J_266275462 888.67 3.0 0 0 100
J_5267402570 886.01 3.0 0 0 100
J_4146211268 892.38 3.0 0 0 100
J_4146211272 888.67 3.0 0 0 100
J_266276707 902.28 3.0 0 0 100
J_266276753 903.86 3.0 0 0 100
J_6567395240 899.03 3.0 0 0 100
J_6143210301 901.51 3.0 0 0 100
J_266276754 902.72 3.0 0 0 100
J_306616974 904.02 3.0 0 0 100
J_266276755 903.02 3.0 0 0 100
J_306617098 901.94 3.0 0 0 100
J_266276756 901.38 3.0 0 0 100
J_306617018 904.92 3.0 0 0 100
J_266298089 892.07 3.0 0 0 100
J_266300662 895.57 3.0 0 0 100
J_266298087 891.75 3.0 0 0 100
J_266298092 892.47 3.0 0 0 100
J_266300742 898.99 3.0 0 0 100
J_266298091 898.54 3.0 0 0 100
J_266298093 898.11 3.0 0 0 100
J_266300657 882.91 3.0 0 0 100
J_6141732622 884.85 3.0 0 0 100
J_3304204552 883.10 3.0 0 0 100
J_266300661 896.08 3.0 0 0 100
J_266300741 895.92 3.0 0 0 100
J_11663109183 895.92 3.0 0 0 100
J_266302974 887.55 3.0 0 0 100
J_2414639341 880.89 3.0 0 0 100
J_266302978 886.59 3.0 0 0 100
J_5961754417 888.74 3.0 0 0 100
J_306614881 888.77 3.0 0 0 100
J_306614901 889.57 3.0 0 0 100
J_7432283512 884.12 3.0 0 0 100
J_266303004 884.30 3.0 0 0 100
J_266303953 880.91 3.0 0 0 100
J_266303064 886.16 3.0 0 0 100
J_2414639342 880.98 3.0 0 0 100
J_266304629 885.96 3.0 0 0 100
J_2385138309 885.28 3.0 0 0 100
J_2414635984 884.48 3.0 0 0 100
J_266303623 885.46 3.0 0 0 100
J_306614842 885.81 3.0 0 0 100
J_266303624 884.69 3.0 0 0 100
J_266303625 883.68 3.0 0 0 100
J_306614967 883.28 3.0 0 0 100
J_306614850 883.47 3.0 0 0 100
J_266303626 881.62 3.0 0 0 100
J_306614734 885.45 3.0 0 0 100
J_306617634 878.85 3.0 0 0 100
J_266303627 879.64 3.0 0 0 100
J_306617742 884.50 3.0 0 0 100
J_306617687 882.02 3.0 0 0 100
J_266303628 882.38 3.0 0 0 100
J_11007453622 882.88 3.0 0 0 100
J_266303629 881.82 3.0 0 0 100
J_306617758 883.89 3.0 0 0 100
J_306617751 882.83 3.0 0 0 100
J_9189927178 882.78 3.0 0 0 100
J_6178041423 882.28 3.0 0 0 100
J_306617686 881.78 3.0 0 0 100
J_266303954 882.16 3.0 0 0 100
J_266303955 880.14 3.0 0 0 100
J_266304630 882.91 3.0 0 0 100
J_266303956 879.26 3.0 0 0 100
J_266304631 880.29 3.0 0 0 100
J_266304632 879.44 3.0 0 0 100
J_6132249479 879.26 3.0 0 0 100
J_266304402 892.87 3.0 0 0 100
J_266313958 895.69 3.0 0 0 100
J_306620508 893.23 3.0 0 0 100
J_266318288 892.54 3.0 0 0 100
J_308452451 887.08 3.0 0 0 100
J_308452454 884.74 3.0 0 0 100
J_5292923940 882.03 3.0 0 0 100
J_2407759902 881.69 3.0 0 0 100
J_2400167301 878.29 3.0 0 0 100
J_3298857091 896.43 3.0 0 0 100
J_306621180 889.63 3.0 0 0 100
J_266310433 896.43 3.0 0 0 100
J_7432244872 895.39 3.0 0 0 100
J_266310437 890.63 3.0 0 0 100
J_266310471 893.30 3.0 0 0 100
J_266310441 891.59 3.0 0 0 100
J_306620828 892.75 3.0 0 0 100
J_306620318 891.91 3.0 0 0 100
J_306620866 889.57 3.0 0 0 100
J_266310445 894.60 3.0 0 0 100
J_266318286 895.08 3.0 0 0 100
J_266318343 894.35 3.0 0 0 100
J_306620825 891.99 3.0 0 0 100
J_266313980 893.08 3.0 0 0 100
J_266313984 896.74 3.0 0 0 100
J_5292300571 894.98 3.0 0 0 100
J_266313967 899.08 3.0 0 0 100
J_306616045 900.17 3.0 0 0 100
J_11245714088 899.08 3.0 0 0 100
J_266313975 897.59 3.0 0 0 100
J_306622080 895.68 3.0 0 0 100
J_306616029 900.08 3.0 0 0 100
J_10094504111 894.30 3.0 0 0 100
J_266318628 895.84 3.0 0 0 100
J_266313990 896.60 3.0 0 0 100
J_266314020 894.93 3.0 0 0 100
J_266314026 893.94 3.0 0 0 100
J_266314031 893.61 3.0 0 0 100
J_266318996 888.24 3.0 0 0 100
J_266316218 887.70 3.0 0 0 100
J_306622275 888.63 3.0 0 0 100
J_306622887 891.33 3.0 0 0 100
J_306622206 889.41 3.0 0 0 100
J_2406084993 885.96 3.0 0 0 100
J_266318287 892.84 3.0 0 0 100
J_306620373 891.71 3.0 0 0 100
J_9696939532 889.38 3.0 0 0 100
J_266318344 891.60 3.0 0 0 100
J_306620803 890.04 3.0 0 0 100
J_266318345 890.06 3.0 0 0 100
J_306620799 890.75 3.0 0 0 100
J_306620763 889.94 3.0 0 0 100
J_3298857093 888.35 3.0 0 0 100
J_266318627 896.74 3.0 0 0 100
J_306616044 898.70 3.0 0 0 100
J_306616092 899.46 3.0 0 0 100
J_10094504107 895.67 3.0 0 0 100
J_10094504110 887.18 3.0 0 0 100
J_306608060 881.39 3.0 0 0 100
J_6131903446 881.39 3.0 0 0 100
J_1417443517 886.00 3.0 0 0 100
J_306608698 878.29 3.0 0 0 100
J_2407745349 878.74 3.0 0 0 100
J_306608898 880.44 3.0 0 0 100
J_306608699 878.77 3.0 0 0 100
J_306613002 880.66 3.0 0 0 100
J_3287849054 878.89 3.0 0 0 100
J_306608700 881.80 3.0 0 0 100
J_306609212 880.96 3.0 0 0 100
J_306612973 881.97 3.0 0 0 100
J_595766458 881.67 3.0 0 0 100
J_306609696 879.89 3.0 0 0 100
J_306610173 884.06 3.0 0 0 100
J_306609958 881.15 3.0 0 0 100
J_306609759 879.17 3.0 0 0 100
J_306612919 879.15 3.0 0 0 100
J_306609760 882.06 3.0 0 0 100
J_306610572 880.96 3.0 0 0 100
J_306612931 880.25 3.0 0 0 100
J_306619696 878.63 3.0 0 0 100
J_306612958 883.88 3.0 0 0 100
J_306610154 880.30 3.0 0 0 100
J_306612930 879.91 3.0 0 0 100
J_306610155 885.31 3.0 0 0 100
J_306611495 882.35 3.0 0 0 100
J_306610573 882.71 3.0 0 0 100
J_306610698 878.42 3.0 0 0 100
J_11259448960 879.59 3.0 0 0 100
J_306611194 881.53 3.0 0 0 100
J_306611189 881.92 3.0 0 0 100
J_306611195 881.09 3.0 0 0 100
J_2619300330 881.09 3.0 0 0 100
J_306611382 883.20 3.0 0 0 100
J_306611892 883.97 3.0 0 0 100
J_306619117 880.00 3.0 0 0 100
J_306611415 882.69 3.0 0 0 100
J_1417443741 882.86 3.0 0 0 100
J_306611644 882.01 3.0 0 0 100
J_12249984864 882.35 3.0 0 0 100
J_595766589 879.52 3.0 0 0 100
J_306611516 883.36 3.0 0 0 100
J_306611889 883.24 3.0 0 0 100
J_10081671362 883.07 3.0 0 0 100
J_306611517 885.95 3.0 0 0 100
J_306611552 882.38 3.0 0 0 100
J_306611796 881.47 3.0 0 0 100
J_306612056 884.46 3.0 0 0 100
J_306611825 883.01 3.0 0 0 100
J_306612124 883.03 3.0 0 0 100
J_306611919 885.63 3.0 0 0 100
J_306611891 885.69 3.0 0 0 100
J_6182617723 882.38 3.0 0 0 100
J_306612586 882.22 3.0 0 0 100
J_306619140 884.20 3.0 0 0 100
J_306612221 887.29 3.0 0 0 100
J_306612001 889.02 3.0 0 0 100
J_306611966 879.45 3.0 0 0 100
J_1417443754 882.62 3.0 0 0 100
J_7478115610 879.45 3.0 0 0 100
J_5267822911 883.31 3.0 0 0 100
J_306612467 888.64 3.0 0 0 100
J_306612483 884.37 3.0 0 0 100
J_306612013 882.63 3.0 0 0 100
J_5267822917 888.22 3.0 0 0 100
J_5267822918 883.84 3.0 0 0 100
J_306612052 886.67 3.0 0 0 100
J_306612561 887.29 3.0 0 0 100
J_306612055 885.65 3.0 0 0 100
J_306612295 886.37 3.0 0 0 100
J_306612267 884.08 3.0 0 0 100
J_306612223 885.76 3.0 0 0 100
J_306612391 887.59 3.0 0 0 100
J_306612552 882.61 3.0 0 0 100
J_3149523811 882.59 3.0 0 0 100
J_306612618 885.08 3.0 0 0 100
J_306613918 885.08 3.0 0 0 100
J_306612710 881.07 3.0 0 0 100
J_306613150 881.41 3.0 0 0 100
J_3221362717 880.66 3.0 0 0 100
J_12249984863 879.34 3.0 0 0 100
J_306612712 882.04 3.0 0 0 100
J_306613796 881.22 3.0 0 0 100
J_306613207 880.71 3.0 0 0 100
J_306612714 880.66 3.0 0 0 100
J_6529626686 880.30 3.0 0 0 100
J_306612914 879.23 3.0 0 0 100
J_306613125 880.09 3.0 0 0 100
J_3149523808 880.09 3.0 0 0 100
J_9792476719 884.29 3.0 0 0 100
J_2450399427 886.17 3.0 0 0 100
J_3221362720 881.87 3.0 0 0 100
J_306619236 880.01 3.0 0 0 100
J_306613322 882.08 3.0 0 0 100
J_306613711 882.63 3.0 0 0 100
J_306613706 883.11 3.0 0 0 100
J_11259448969 879.59 3.0 0 0 100
J_6142327787 881.47 3.0 0 0 100
J_306613917 881.51 3.0 0 0 100
J_306613955 881.80 3.0 0 0 100
J_306618000 883.63 3.0 0 0 100
J_306618152 881.66 3.0 0 0 100
J_306618047 882.75 3.0 0 0 100
J_306614002 883.95 3.0 0 0 100
J_306614043 882.25 3.0 0 0 100
J_306618040 884.35 3.0 0 0 100
J_306618049 882.22 3.0 0 0 100
J_306618037 881.83 3.0 0 0 100
J_306614003 884.65 3.0 0 0 100
J_306618051 880.40 3.0 0 0 100
J_747660349 882.82 3.0 0 0 100
J_306618038 881.40 3.0 0 0 100
J_306614045 882.02 3.0 0 0 100
J_1473885459 882.98 3.0 0 0 100
J_13285069336 882.02 3.0 0 0 100
J_306614125 884.00 3.0 0 0 100
J_306618319 882.09 3.0 0 0 100
J_1488556147 883.11 3.0 0 0 100
J_306618148 885.64 3.0 0 0 100
J_306618203 880.45 3.0 0 0 100
J_306617982 881.63 3.0 0 0 100
J_306618031 880.32 3.0 0 0 100
J_306614479 880.43 3.0 0 0 100
J_306614480 880.14 3.0 0 0 100
J_306614924 880.31 3.0 0 0 100
J_306614481 879.26 3.0 0 0 100
J_306617731 883.82 3.0 0 0 100
J_306614738 886.31 3.0 0 0 100
J_306614832 887.89 3.0 0 0 100
J_11982570362 884.68 3.0 0 0 100
J_306614739 882.38 3.0 0 0 100
J_6178041421 884.41 3.0 0 0 100
J_306617738 884.90 3.0 0 0 100
J_11982570360 881.64 3.0 0 0 100
J_11476594000 884.27 3.0 0 0 100
J_306620879 888.64 3.0 0 0 100
J_306619786 887.69 3.0 0 0 100
J_306615155 899.86 3.0 0 0 100
J_306615653 896.99 3.0 0 0 100
J_306615904 896.25 3.0 0 0 100
J_306615597 891.88 3.0 0 0 100
J_306615239 897.36 3.0 0 0 100
J_306615426 895.90 3.0 0 0 100
J_306615208 890.49 3.0 0 0 100
J_306615608 887.93 3.0 0 0 100
J_306615250 890.81 3.0 0 0 100
J_306615227 897.28 3.0 0 0 100
J_3298878325 894.82 3.0 0 0 100
J_7432382415 899.49 3.0 0 0 100
J_306615877 891.01 3.0 0 0 100
J_306615629 891.83 3.0 0 0 100
J_10094586224 891.97 3.0 0 0 100
J_306615730 890.89 3.0 0 0 100
J_306615643 893.94 3.0 0 0 100
J_306615937 896.10 3.0 0 0 100
J_306615876 892.60 3.0 0 0 100
J_306616007 896.55 3.0 0 0 100
J_306623070 902.17 3.0 0 0 100
J_306616031 893.95 3.0 0 0 100
J_5961715635 898.59 3.0 0 0 100
J_306622158 898.39 3.0 0 0 100
J_1054699489 893.71 3.0 0 0 100
J_3298878307 900.92 3.0 0 0 100
J_306617262 894.50 3.0 0 0 100
J_11663109186 895.92 3.0 0 0 100
J_12680448313 897.03 3.0 0 0 100
J_306617283 896.83 3.0 0 0 100
J_306617463 897.89 3.0 0 0 100
J_306617457 897.14 3.0 0 0 100
J_12680448312 893.69 3.0 0 0 100
J_306617440 901.44 3.0 0 0 100
J_306617409 900.41 3.0 0 0 100
J_306617486 900.17 3.0 0 0 100
J_306617444 902.70 3.0 0 0 100
J_306617465 899.00 3.0 0 0 100
J_9189927179 882.65 3.0 0 0 100
J_306617735 883.93 3.0 0 0 100
J_306617745 883.26 3.0 0 0 100
J_306618011 879.79 3.0 0 0 100
J_306618039 880.32 3.0 0 0 100
J_306618035 882.39 3.0 0 0 100
J_306618045 884.70 3.0 0 0 100
J_306618684 884.63 3.0 0 0 100
J_306619061 882.76 3.0 0 0 100
J_306619043 886.55 3.0 0 0 100
J_306618864 882.68 3.0 0 0 100
J_306618121 882.43 3.0 0 0 100
J_306618913 882.82 3.0 0 0 100
J_2447849296 880.40 3.0 0 0 100
J_306618053 882.73 3.0 0 0 100
J_306619089 882.87 3.0 0 0 100
J_306618845 885.69 3.0 0 0 100
J_306618089 891.66 3.0 0 0 100
J_12174120925 888.41 3.0 0 0 100
J_306619109 886.12 3.0 0 0 100
J_306618120 886.35 3.0 0 0 100
J_306618091 886.05 3.0 0 0 100
J_6141578243 885.97 3.0 0 0 100
J_306618241 884.86 3.0 0 0 100
J_306618149 886.05 3.0 0 0 100
J_306618227 884.91 3.0 0 0 100
J_306618131 882.74 3.0 0 0 100
J_306618139 885.55 3.0 0 0 100
J_306619107 884.42 3.0 0 0 100
J_306618624 885.70 3.0 0 0 100
J_306618151 883.39 3.0 0 0 100
J_306618660 884.75 3.0 0 0 100
J_306618226 882.19 3.0 0 0 100
J_306618421 883.66 3.0 0 0 100
J_306618244 883.79 3.0 0 0 100
J_306618228 882.52 3.0 0 0 100
J_7478115641 883.10 3.0 0 0 100
J_306618229 885.50 3.0 0 0 100
J_306618243 886.03 3.0 0 0 100
J_306618242 884.99 3.0 0 0 100
J_10081725595 886.97 3.0 0 0 100
J_306618602 883.42 3.0 0 0 100
J_306618400 884.07 3.0 0 0 100
J_306618516 885.11 3.0 0 0 100
J_306618755 883.31 3.0 0 0 100
J_306618704 881.45 3.0 0 0 100
J_7478115630 884.49 3.0 0 0 100
J_313460477 880.91 3.0 0 0 100
J_306618719 883.48 3.0 0 0 100
J_1417443578 883.38 3.0 0 0 100
J_306618743 884.06 3.0 0 0 100
J_306618811 884.06 3.0 0 0 100
J_7478115636 883.91 3.0 0 0 100
J_306618983 886.38 3.0 0 0 100
J_306618876 885.92 3.0 0 0 100
J_306618974 884.81 3.0 0 0 100
J_306618958 885.87 3.0 0 0 100
J_306619063 885.08 3.0 0 0 100
J_7478115632 886.38 3.0 0 0 100
J_306619067 886.03 3.0 0 0 100
J_306619097 883.82 3.0 0 0 100
J_306619095 884.09 3.0 0 0 100
J_8984867006 886.02 3.0 0 0 100
J_6180287627 887.93 3.0 0 0 100
J_7478118969 884.09 3.0 0 0 100
J_306619108 886.06 3.0 0 0 100
J_306619114 885.89 3.0 0 0 100
J_3161269203 886.58 3.0 0 0 100
J_306619112 887.98 3.0 0 0 100
J_306619111 888.88 3.0 0 0 100
J_12174120924 887.28 3.0 0 0 100
J_306619149 880.14 3.0 0 0 100
J_6885082500 879.23 3.0 0 0 100
J_306619138 880.30 3.0 0 0 100
J_306619304 882.50 3.0 0 0 100
J_306619251 880.90 3.0 0 0 100
J_10081671366 880.30 3.0 0 0 100
J_306619537 880.14 3.0 0 0 100
J_306619290 879.94 3.0 0 0 100
J_306619548 882.44 3.0 0 0 100
J_306619358 879.51 3.0 0 0 100
J_306619613 880.13 3.0 0 0 100
J_306619459 884.00 3.0 0 0 100
J_6885082496 881.14 3.0 0 0 100
J_306619430 880.91 3.0 0 0 100
J_306619660 882.18 3.0 0 0 100
J_5928014162 881.79 3.0 0 0 100
J_306619844 890.19 3.0 0 0 100
J_306619995 886.73 3.0 0 0 100
J_306619845 883.60 3.0 0 0 100
J_306619847 880.68 3.0 0 0 100
J_306620209 884.23 3.0 0 0 100
J_306620777 888.68 3.0 0 0 100
J_306620753 882.62 3.0 0 0 100
J_306620173 888.13 3.0 0 0 100
J_306620148 889.88 3.0 0 0 100
J_306620088 893.01 3.0 0 0 100
J_6887795923 890.43 3.0 0 0 100
J_595767079 886.54 3.0 0 0 100
J_306620210 888.24 3.0 0 0 100
J_306620788 888.96 3.0 0 0 100
J_306620795 886.10 3.0 0 0 100
J_2414639343 882.12 3.0 0 0 100
J_306620833 889.76 3.0 0 0 100
J_306620800 887.39 3.0 0 0 100
J_306620804 886.64 3.0 0 0 100
J_306620826 888.66 3.0 0 0 100
J_306620870 891.70 3.0 0 0 100
J_306621104 881.58 3.0 0 0 100
J_2387017508 884.76 3.0 0 0 100
J_2447310407 879.73 3.0 0 0 100
J_7432244856 880.28 3.0 0 0 100
J_306621179 891.03 3.0 0 0 100
J_2388266816 890.57 3.0 0 0 100
J_13475843621 889.29 3.0 0 0 100
J_6196261543 889.76 3.0 0 0 100
J_7432244870 891.83 3.0 0 0 100
J_306621229 881.28 3.0 0 0 100
J_306621778 880.63 3.0 0 0 100
J_7432244863 886.97 3.0 0 0 100
J_306621270 881.28 3.0 0 0 100
J_2387127863 878.99 3.0 0 0 100
J_306621271 885.66 3.0 0 0 100
J_5267402569 886.68 3.0 0 0 100
J_306621762 885.28 3.0 0 0 100
J_4146211280 887.48 3.0 0 0 100
J_306621654 881.17 3.0 0 0 100
J_306621921 881.13 3.0 0 0 100
J_306621760 883.75 3.0 0 0 100
J_4146211271 883.41 3.0 0 0 100
J_306622059 889.35 3.0 0 0 100
J_306622853 889.57 3.0 0 0 100
J_306622844 889.40 3.0 0 0 100
J_306622157 897.94 3.0 0 0 100
J_6505392518 886.91 3.0 0 0 100
J_306622943 895.64 3.0 0 0 100
J_306622953 897.25 3.0 0 0 100
J_306622244 889.96 3.0 0 0 100
J_306622782 890.88 3.0 0 0 100
J_5267402571 890.88 3.0 0 0 100
J_306622845 891.74 3.0 0 0 100
J_306622934 893.75 3.0 0 0 100
J_306622967 894.48 3.0 0 0 100
J_306622884 890.46 3.0 0 0 100
J_306622935 891.07 3.0 0 0 100
J_1054699509 893.77 3.0 0 0 100
J_306623034 893.34 3.0 0 0 100
J_306622987 893.82 3.0 0 0 100
J_306623026 893.86 3.0 0 0 100
J_306622963 897.12 3.0 0 0 100
J_306622944 895.82 3.0 0 0 100
J_306622973 897.39 3.0 0 0 100
J_1054699551 895.71 3.0 0 0 100
J_1054699537 893.20 3.0 0 0 100
J_306622975 893.52 3.0 0 0 100
J_306623023 892.44 3.0 0 0 100
J_306623000 891.06 3.0 0 0 100
J_836238547 897.88 3.0 0 0 100
J_3549124825 896.78 3.0 0 0 100
J_306623144 892.09 3.0 0 0 100
J_3549124908 894.85 3.0 0 0 100
J_306623127 893.76 3.0 0 0 100
J_5267402561 893.89 3.0 0 0 100
J_7432244880 895.73 3.0 0 0 100
J_306623172 892.00 3.0 0 0 100
J_306623288 893.71 3.0 0 0 100
J_306623366 900.75 3.0 0 0 100
J_306623545 896.99 3.0 0 0 100
J_7432244881 892.70 3.0 0 0 100
J_306623250 894.26 3.0 0 0 100
J_306623289 892.48 3.0 0 0 100
J_6143210298 896.21 3.0 0 0 100
J_6567395226 896.68 3.0 0 0 100
J_306623252 902.74 3.0 0 0 100
J_306626269 900.86 3.0 0 0 100
J_6567395231 900.72 3.0 0 0 100
J_306623346 891.96 3.0 0 0 100
J_306623579 897.63 3.0 0 0 100
J_306623646 903.69 3.0 0 0 100
J_306623614 902.44 3.0 0 0 100
J_306623368 904.03 3.0 0 0 100
J_306624836 900.74 3.0 0 0 100
J_306623514 906.84 3.0 0 0 100
J_306623471 904.03 3.0 0 0 100
J_306623640 906.60 3.0 0 0 100
J_10094529583 903.36 3.0 0 0 100
J_306623540 897.23 3.0 0 0 100
J_836238514 900.27 3.0 0 0 100
J_306623632 904.15 3.0 0 0 100
J_306623633 902.86 3.0 0 0 100
J_836238561 906.38 3.0 0 0 100
J_10094529584 906.73 3.0 0 0 100
J_306623642 903.87 3.0 0 0 100
J_6193921852 903.56 3.0 0 0 100
J_6193921851 904.03 3.0 0 0 100
J_1468908333 904.56 3.0 0 0 100
J_306623783 890.78 3.0 0 0 100
J_4377707469 892.62 3.0 0 0 100
J_2387012139 889.91 3.0 0 0 100
J_1488526923 888.93 3.0 0 0 100
J_306625001 898.48 3.0 0 0 100
J_306624987 904.49 3.0 0 0 100
J_306625124 904.40 3.0 0 0 100
J_306624943 901.35 3.0 0 0 100
J_306624837 899.17 3.0 0 0 100
J_306624842 898.86 3.0 0 0 100
J_306624983 898.32 3.0 0 0 100
J_306624999 902.38 3.0 0 0 100
J_306624988 905.26 3.0 0 0 100
J_7467099419 903.37 3.0 0 0 100
J_7467099418 898.77 3.0 0 0 100
J_306625194 904.49 3.0 0 0 100
J_306625286 900.58 3.0 0 0 100
J_306625203 903.79 3.0 0 0 100
J_306625106 899.58 3.0 0 0 100
J_306626042 902.35 3.0 0 0 100
J_306626118 904.38 3.0 0 0 100
J_306625656 904.84 3.0 0 0 100
J_622363166 904.65 3.0 0 0 100
J_306626245 905.25 3.0 0 0 100
J_306626120 903.18 3.0 0 0 100
J_306625687 903.67 3.0 0 0 100
J_306626041 905.03 3.0 0 0 100
J_306626116 904.24 3.0 0 0 100
J_2414635985 901.32 3.0 0 0 100
J_306625812 902.92 3.0 0 0 100
J_306625696 900.95 3.0 0 0 100
J_2414635986 901.66 3.0 0 0 100
J_306625946 902.49 3.0 0 0 100
J_306625751 900.55 3.0 0 0 100
J_10094529594 900.50 3.0 0 0 100
J_306625994 899.65 3.0 0 0 100
J_306625818 905.08 3.0 0 0 100
J_306625861 904.78 3.0 0 0 100
J_6195583528 900.36 3.0 0 0 100
J_306625912 898.78 3.0 0 0 100
J_6195583527 899.05 3.0 0 0 100
J_306625916 899.54 3.0 0 0 100
J_2414635979 896.44 3.0 0 0 100
J_6130692320 894.62 3.0 0 0 100
J_306625919 900.59 3.0 0 0 100
J_2414635981 897.41 3.0 0 0 100
J_306625927 894.32 3.0 0 0 100
J_306625980 898.50 3.0 0 0 100
J_2273437034 892.58 3.0 0 0 100
J_10994556964 900.37 3.0 0 0 100
J_306626040 900.37 3.0 0 0 100
J_306626044 902.06 3.0 0 0 100
J_306626117 901.49 3.0 0 0 100
J_622363165 904.45 3.0 0 0 100
J_6567395234 901.99 3.0 0 0 100
J_313460313 885.21 3.0 0 0 100
J_1488556150 886.58 3.0 0 0 100
J_1473871929 889.06 3.0 0 0 100
J_10081725591 887.90 3.0 0 0 100
J_1488556131 887.44 3.0 0 0 100
J_313460396 894.78 3.0 0 0 100
J_3161269199 894.98 3.0 0 0 100
J_3161268847 894.78 3.0 0 0 100
J_313460398 894.98 3.0 0 0 100
J_3096683823 894.18 3.0 0 0 100
J_1473871961 892.29 3.0 0 0 100
J_5267835373 884.31 3.0 0 0 100
J_313460484 884.01 3.0 0 0 100
J_313460485 882.05 3.0 0 0 100
J_1417443652 883.86 3.0 0 0 100
J_313460550 884.27 3.0 0 0 100
J_1417443629 882.05 3.0 0 0 100
J_10081706680 885.75 3.0 0 0 100
J_6528148964 884.86 3.0 0 0 100
J_10081706678 889.05 3.0 0 0 100
J_313460551 880.98 3.0 0 0 100
J_2450399408 884.06 3.0 0 0 100
J_2450399406 884.09 3.0 0 0 100
J_348036183 889.84 3.0 0 0 100
J_3149541717 888.99 3.0 0 0 100
J_3149541720 885.46 3.0 0 0 100
J_7327251302 889.00 3.0 0 0 100
J_417298245 879.43 3.0 0 0 100
J_4918203529 885.26 3.0 0 0 100
J_1471714437 882.49 3.0 0 0 100
J_1481366487 879.75 3.0 0 0 100
J_650140575 881.11 3.0 0 0 100
J_650141428 879.44 3.0 0 0 100
J_2400167287 881.11 3.0 0 0 100
J_650141087 878.56 3.0 0 0 100
J_650141020 879.22 3.0 0 0 100
J_2385141385 879.22 3.0 0 0 100
J_2387017507 879.22 3.0 0 0 100
J_1653906408 877.86 3.0 0 0 100
J_747660340 888.45 3.0 0 0 100
J_3235639712 892.00 3.0 0 0 100
J_2389119100 888.45 3.0 0 0 100
J_747660344 884.08 3.0 0 0 100
J_3149523801 886.84 3.0 0 0 100
J_13152778980 883.04 3.0 0 0 100
J_1417443691 886.74 3.0 0 0 100
J_2450399422 882.96 3.0 0 0 100
J_11259448973 882.82 3.0 0 0 100
J_3549123747 903.11 3.0 0 0 100
J_836238551 898.97 3.0 0 0 100
J_10001905133 899.28 3.0 0 0 100
J_3549124910 896.31 3.0 0 0 100
J_10001905132 898.66 3.0 0 0 100
J_836238553 900.95 3.0 0 0 100
J_3549124811 898.95 3.0 0 0 100
J_3549123780 899.50 3.0 0 0 100
J_5267369428 902.05 3.0 0 0 100
J_3549123729 906.05 3.0 0 0 100
J_5267369424 906.38 3.0 0 0 100
J_1278162234 891.32 3.0 0 0 100
J_1278162335 890.63 3.0 0 0 100
J_10153868763 889.98 3.0 0 0 100
J_3158788597 889.54 3.0 0 0 100
J_1278162239 892.29 3.0 0 0 100
J_10839366478 892.29 3.0 0 0 100
J_11385670152 891.72 3.0 0 0 100
J_1278162252 888.03 3.0 0 0 100
J_3158788604 887.53 3.0 0 0 100
J_1278162290 880.53 3.0 0 0 100
J_6454862032 888.03 3.0 0 0 100
J_1278162256 882.01 3.0 0 0 100
J_7432244834 880.86 3.0 0 0 100
J_1377861068 886.75 3.0 0 0 100
J_1278162270 881.38 3.0 0 0 100
J_3149542145 878.90 3.0 0 0 100
J_7432244840 885.34 3.0 0 0 100
J_3158788133 881.38 3.0 0 0 100
J_1278162293 880.50 3.0 0 0 100
J_1278162286 886.95 3.0 0 0 100
J_3158788120 888.44 3.0 0 0 100
J_3149542147 892.35 3.0 0 0 100
J_11385626668 887.53 3.0 0 0 100
J_6454862031 880.49 3.0 0 0 100
J_3158788134 879.31 3.0 0 0 100
J_1377861139 878.84 3.0 0 0 100
J_1278162311 890.82 3.0 0 0 100
J_1278162357 889.49 3.0 0 0 100
J_3158788574 889.35 3.0 0 0 100
J_3158788139 888.38 3.0 0 0 100
J_13279121428 890.63 3.0 0 0 100
J_13415110849 889.49 3.0 0 0 100
J_1377861052 885.05 3.0 0 0 100
J_1377861085 881.42 3.0 0 0 100
J_6531845899 882.67 3.0 0 0 100
J_6142604397 885.15 3.0 0 0 100
J_1377861055 892.08 3.0 0 0 100
J_10081671262 891.55 3.0 0 0 100
J_3149541686 892.11 3.0 0 0 100
J_3158788600 888.63 3.0 0 0 100
J_3158788633 883.11 3.0 0 0 100
J_11012063564 885.69 3.0 0 0 100
J_1377861070 880.67 3.0 0 0 100
J_3761074302 881.56 3.0 0 0 100
J_1377861078 881.33 3.0 0 0 100
J_1377861121 881.83 3.0 0 0 100
J_3149541700 881.59 3.0 0 0 100
J_1377861114 879.53 3.0 0 0 100
J_2407764624 881.75 3.0 0 0 100
J_1377861103 882.84 3.0 0 0 100
J_13410465942 881.59 3.0 0 0 100
J_2407764625 883.47 3.0 0 0 100
J_4582754028 884.03 3.0 0 0 100
J_1377861104 887.07 3.0 0 0 100
J_6518859305 885.88 3.0 0 0 100
J_6518859320 882.49 3.0 0 0 100
J_4918188102 889.02 3.0 0 0 100
J_1377861123 880.19 3.0 0 0 100
J_11387496338 883.17 3.0 0 0 100
J_4415687414 880.41 3.0 0 0 100
J_2110371291 880.46 3.0 0 0 100
J_1377861129 890.12 3.0 0 0 100
J_3149541689 890.35 3.0 0 0 100
J_7478257546 891.24 3.0 0 0 100
J_3158788115 890.12 3.0 0 0 100
J_3158788135 881.26 3.0 0 0 100
J_2406072874 878.84 3.0 0 0 100
J_3158788624 881.86 3.0 0 0 100
J_1417443438 892.82 3.0 0 0 100
J_2057491159 892.73 3.0 0 0 100
J_1488526915 890.93 3.0 0 0 100
J_4377707475 891.60 3.0 0 0 100
J_1417443496 890.95 3.0 0 0 100
J_5493854958 890.42 3.0 0 0 100
J_1488526892 892.09 3.0 0 0 100
J_1417443503 888.33 3.0 0 0 100
J_7432244850 890.12 3.0 0 0 100
J_1488526889 888.33 3.0 0 0 100
J_1488526909 887.86 3.0 0 0 100
J_1417443508 887.09 3.0 0 0 100
J_3161269164 888.74 3.0 0 0 100
J_3504342593 884.91 3.0 0 0 100
J_1417443542 885.74 3.0 0 0 100
J_1417443612 886.91 3.0 0 0 100
J_6528148952 889.86 3.0 0 0 100
J_10989273453 884.25 3.0 0 0 100
J_1417443557 887.38 3.0 0 0 100
J_6528148954 886.94 3.0 0 0 100
J_6528148957 889.67 3.0 0 0 100
J_1417443563 885.90 3.0 0 0 100
J_1417443584 882.77 3.0 0 0 100
J_10081725588 882.62 3.0 0 0 100
J_10081671394 883.31 3.0 0 0 100
J_6528148966 886.17 3.0 0 0 100
J_6528148967 886.40 3.0 0 0 100
J_1417443628 883.31 3.0 0 0 100
J_6528148968 881.90 3.0 0 0 100
J_1417443633 883.49 3.0 0 0 100
J_6528148969 883.49 3.0 0 0 100
J_5493844924 892.74 3.0 0 0 100
J_1488526924 890.11 3.0 0 0 100
J_6528148971 883.46 3.0 0 0 100
J_1417443659 882.75 3.0 0 0 100
J_6528148973 883.64 3.0 0 0 100
J_9743339252 885.87 3.0 0 0 100
J_1417443666 880.75 3.0 0 0 100
J_2450399430 881.36 3.0 0 0 100
J_3235639719 887.26 3.0 0 0 100
J_3235639720 885.97 3.0 0 0 100
J_1417443716 884.86 3.0 0 0 100
J_6142327790 884.15 3.0 0 0 100
J_10081671376 884.63 3.0 0 0 100
J_1417443726 885.45 3.0 0 0 100
J_6180272976 885.31 3.0 0 0 100
J_1417443734 882.28 3.0 0 0 100
J_10081671363 883.50 3.0 0 0 100
J_1417443736 884.71 3.0 0 0 100
J_12196455086 885.00 3.0 0 0 100
J_1417443740 883.79 3.0 0 0 100
J_10081671364 882.00 3.0 0 0 100
J_6193921850 904.23 3.0 0 0 100
J_1471714099 888.53 3.0 0 0 100
J_1481354885 887.20 3.0 0 0 100
J_4918188103 886.98 3.0 0 0 100
J_1473826426 887.63 3.0 0 0 100
J_1473826428 887.12 3.0 0 0 100
J_1481366489 886.05 3.0 0 0 100
J_5388494824 886.33 3.0 0 0 100
J_1473826436 888.97 3.0 0 0 100
J_1473871923 892.88 3.0 0 0 100
J_7432244843 892.88 3.0 0 0 100
J_1473871926 891.23 3.0 0 0 100
J_1473871955 893.18 3.0 0 0 100
J_1488526920 891.17 3.0 0 0 100
J_1473871954 893.97 3.0 0 0 100
J_7432244844 891.51 3.0 0 0 100
J_1473871927 887.05 3.0 0 0 100
J_1473871937 886.63 3.0 0 0 100
J_10094580864 891.08 3.0 0 0 100
J_5267823521 889.06 3.0 0 0 100
J_1473871942 886.98 3.0 0 0 100
J_3096683824 889.26 3.0 0 0 100
J_1473871936 890.74 3.0 0 0 100
J_1473871947 889.91 3.0 0 0 100
J_1473871956 886.73 3.0 0 0 100
J_1473871957 885.58 3.0 0 0 100
J_1473871959 885.98 3.0 0 0 100
J_1473871938 887.69 3.0 0 0 100
J_7432244848 888.69 3.0 0 0 100
J_1473871941 891.62 3.0 0 0 100
J_1473871958 891.32 3.0 0 0 100
J_7432244847 887.99 3.0 0 0 100
J_7432244845 888.84 3.0 0 0 100
J_7432244846 889.22 3.0 0 0 100
J_1473885237 883.33 3.0 0 0 100
J_1473885223 884.49 3.0 0 0 100
J_7432244854 884.96 3.0 0 0 100
J_1473885226 885.82 3.0 0 0 100
J_1473885458 883.33 3.0 0 0 100
J_1473885439 881.18 3.0 0 0 100
J_11663050338 881.13 3.0 0 0 100
J_1473890785 882.67 3.0 0 0 100
J_12695945997 882.32 3.0 0 0 100
J_6178041424 881.64 3.0 0 0 100
J_6463519072 881.51 3.0 0 0 100
J_1473890791 884.85 3.0 0 0 100
J_6178041420 882.12 3.0 0 0 100
J_12151399348 879.82 3.0 0 0 100
J_1477138900 882.37 3.0 0 0 100
J_1481354884 885.88 3.0 0 0 100
J_4918188104 887.26 3.0 0 0 100
J_6130764691 878.68 3.0 0 0 100
J_11387517314 888.03 3.0 0 0 100
J_1488526851 890.03 3.0 0 0 100
J_1488526884 890.26 3.0 0 0 100
J_1488526859 889.02 3.0 0 0 100
J_1488526883 887.96 3.0 0 0 100
J_1488526869 888.40 3.0 0 0 100
J_1488526866 891.46 3.0 0 0 100
J_11665987959 891.46 3.0 0 0 100
J_1488526894 890.96 3.0 0 0 100
J_1488526919 888.40 3.0 0 0 100
J_6152326682 890.22 3.0 0 0 100
J_1488526911 890.36 3.0 0 0 100
J_5267823528 889.00 3.0 0 0 100
J_5493854959 891.47 3.0 0 0 100
J_6567100315 893.06 3.0 0 0 100
J_4377707474 890.96 3.0 0 0 100
J_1488526896 888.63 3.0 0 0 100
J_3168039449 889.81 3.0 0 0 100
J_3538106723 889.70 3.0 0 0 100
J_5267823527 891.92 3.0 0 0 100
J_7432244851 886.59 3.0 0 0 100
J_4377707480 892.71 3.0 0 0 100
J_3168039448 891.57 3.0 0 0 100
J_10094580887 888.78 3.0 0 0 100
J_10094580889 886.72 3.0 0 0 100
J_1608973468 880.77 3.0 0 0 100
J_12067305544 880.77 3.0 0 0 100
J_1645178560 877.83 3.0 0 0 100
J_6463569335 882.23 3.0 0 0 100
J_650141496 878.36 3.0 0 0 100
J_1653906433 877.39 3.0 0 0 100
J_2389125034 877.39 3.0 0 0 100
J_2407745357 878.10 3.0 0 0 100
J_1653906436 878.68 3.0 0 0 100
J_11977577698 878.68 3.0 0 0 100
J_11260122965 879.90 3.0 0 0 100
J_2019288831 894.81 3.0 0 0 100
J_6141722653 894.63 3.0 0 0 100
J_6141722656 894.68 3.0 0 0 100
J_2019288832 892.98 3.0 0 0 100
J_6141722658 895.63 3.0 0 0 100
J_2110371293 878.06 3.0 0 0 100
J_11260122968 879.93 3.0 0 0 100
J_3761074303 878.62 3.0 0 0 100
J_2127279448 903.78 3.0 0 0 100
J_6884276685 899.98 3.0 0 0 100
J_2414635978 892.32 3.0 0 0 100
J_2385141390 878.36 3.0 0 0 100
J_3826045400 880.16 3.0 0 0 100
J_2387017402 882.69 3.0 0 0 100
J_6130226927 878.91 3.0 0 0 100
J_6131800547 880.70 3.0 0 0 100
J_2387173529 878.62 3.0 0 0 100
J_2387173530 878.99 3.0 0 0 100
J_2407763129 878.76 3.0 0 0 100
J_2388266803 882.43 3.0 0 0 100
J_2388266830 885.50 3.0 0 0 100
J_2509419434 881.89 3.0 0 0 100
J_4146210958 883.97 3.0 0 0 100
J_2388266812 888.87 3.0 0 0 100
J_7432244869 889.10 3.0 0 0 100
J_11007263820 886.09 3.0 0 0 100
J_4146211277 891.07 3.0 0 0 100
J_3543166934 884.03 3.0 0 0 100
J_7429952410 884.12 3.0 0 0 100
J_2388266833 884.03 3.0 0 0 100
J_2509419436 886.02 3.0 0 0 100
J_2388266836 883.31 3.0 0 0 100
J_5267402566 885.03 3.0 0 0 100
J_11903564939 879.53 3.0 0 0 100
J_2389119097 887.22 3.0 0 0 100
J_3235639716 885.35 3.0 0 0 100
J_3149523797 884.58 3.0 0 0 100
J_11977577699 876.97 3.0 0 0 100
J_2399992907 881.62 3.0 0 0 100
J_10094504108 885.78 3.0 0 0 100
J_10094504105 894.18 3.0 0 0 100
J_3298857094 885.59 3.0 0 0 100
J_3287849051 876.99 3.0 0 0 100
J_11374930009 879.43 3.0 0 0 100
J_10081671286 878.76 3.0 0 0 100
J_2407764622 888.55 3.0 0 0 100
J_6531845897 887.67 3.0 0 0 100
J_6531845895 883.17 3.0 0 0 100
J_2414626606 892.37 3.0 0 0 100
J_6887565739 891.95 3.0 0 0 100
J_2447310402 885.94 3.0 0 0 100
J_2447310404 884.92 3.0 0 0 100
J_2447310403 885.45 3.0 0 0 100
J_6130226930 887.21 3.0 0 0 100
J_2447310406 882.92 3.0 0 0 100
J_6130226931 889.36 3.0 0 0 100
J_6131800546 881.39 3.0 0 0 100
J_2450399417 881.28 3.0 0 0 100
J_2450399435 883.21 3.0 0 0 100
J_2450399416 880.94 3.0 0 0 100
J_2450399415 879.97 3.0 0 0 100
J_2450399433 880.55 3.0 0 0 100
J_2450399429 880.00 3.0 0 0 100
J_11259448953 879.59 3.0 0 0 100
J_6528148976 880.33 3.0 0 0 100
J_3149523809 886.44 3.0 0 0 100
J_3149523807 886.17 3.0 0 0 100
J_10172729085 881.93 3.0 0 0 100
J_2509419432 880.95 3.0 0 0 100
J_12073866974 880.95 3.0 0 0 100
J_7432244857 885.29 3.0 0 0 100
J_2509419435 885.66 3.0 0 0 100
J_3161269196 893.26 3.0 0 0 100
J_6901563123 895.08 3.0 0 0 100
J_7086183227 888.43 3.0 0 0 100
J_3149523798 885.50 3.0 0 0 100
J_3149523799 885.85 3.0 0 0 100
J_3149523802 885.50 3.0 0 0 100
J_3149523800 884.96 3.0 0 0 100
J_3149523803 881.84 3.0 0 0 100
J_3149523804 884.04 3.0 0 0 100
J_3149523806 884.77 3.0 0 0 100
J_5389382766 885.69 3.0 0 0 100
J_3149541696 889.93 3.0 0 0 100
J_3149541706 889.93 3.0 0 0 100
J_3149541705 892.04 3.0 0 0 100
J_10081671278 888.69 3.0 0 0 100
J_3149541704 891.61 3.0 0 0 100
J_3149541707 881.60 3.0 0 0 100
J_10081671274 889.93 3.0 0 0 100
J_3149541708 889.17 3.0 0 0 100
J_10081671276 888.69 3.0 0 0 100
J_10081671275 889.47 3.0 0 0 100
J_3149541710 888.15 3.0 0 0 100
J_10081671277 889.87 3.0 0 0 100
J_3149542132 892.15 3.0 0 0 100
J_3158788637 892.15 3.0 0 0 100
J_3158788638 891.64 3.0 0 0 100
J_6137799426 890.25 3.0 0 0 100
J_3149542136 892.31 3.0 0 0 100
J_3158788639 892.15 3.0 0 0 100
J_3158788641 892.31 3.0 0 0 100
J_9840710126 881.72 3.0 0 0 100
J_3158788131 884.02 3.0 0 0 100
J_3149542146 890.58 3.0 0 0 100
J_3158788114 890.60 3.0 0 0 100
J_3158788105 886.97 3.0 0 0 100
J_3158788145 886.97 3.0 0 0 100
J_3158788662 883.94 3.0 0 0 100
J_13415111434 883.22 3.0 0 0 100
J_3158788107 889.56 3.0 0 0 100
J_3158788108 883.42 3.0 0 0 100
J_7432244830 889.56 3.0 0 0 100
J_5388494832 884.93 3.0 0 0 100
J_3158788608 882.56 3.0 0 0 100
J_3158788144 887.79 3.0 0 0 100
J_13410902781 886.45 3.0 0 0 100
J_3158788110 885.69 3.0 0 0 100
J_7432244839 882.56 3.0 0 0 100
J_3158788140 888.38 3.0 0 0 100
J_3158788112 893.25 3.0 0 0 100
J_3158788116 892.04 3.0 0 0 100
J_3158788113 888.76 3.0 0 0 100
J_3158788118 889.09 3.0 0 0 100
J_11385670151 888.76 3.0 0 0 100
J_3158788117 889.86 3.0 0 0 100
J_3158788119 893.79 3.0 0 0 100
J_3158788124 886.92 3.0 0 0 100
J_4579649727 886.52 3.0 0 0 100
J_3158788129 886.20 3.0 0 0 100
J_3158788132 885.55 3.0 0 0 100
J_10153868766 883.80 3.0 0 0 100
J_10153868767 884.17 3.0 0 0 100
J_3158788612 883.17 3.0 0 0 100
J_3158788141 882.56 3.0 0 0 100
J_3158788142 888.38 3.0 0 0 100
J_3158788571 889.37 3.0 0 0 100
J_3158788565 883.22 3.0 0 0 100
J_7429952388 883.22 3.0 0 0 100
J_10153862358 887.10 3.0 0 0 100
J_3158788611 880.78 3.0 0 0 100
J_3158788629 883.11 3.0 0 0 100
J_3158788615 882.07 3.0 0 0 100
J_3158788616 885.21 3.0 0 0 100
J_3158788620 880.42 3.0 0 0 100
J_7432244836 879.92 3.0 0 0 100
J_3158788621 882.07 3.0 0 0 100
J_3158788632 885.21 3.0 0 0 100
J_3158788635 887.07 3.0 0 0 100
J_3158788636 893.46 3.0 0 0 100
J_3158788640 889.78 3.0 0 0 100
J_3158788642 888.80 3.0 0 0 100
J_3161118525 878.58 3.0 0 0 100
J_6131076159 879.43 3.0 0 0 100
J_10081725549 896.14 3.0 0 0 100
J_3161269161 893.41 3.0 0 0 100
J_3161269162 890.91 3.0 0 0 100
J_3221362713 892.55 3.0 0 0 100
J_3504751071 892.01 3.0 0 0 100
J_11353404310 893.26 3.0 0 0 100
J_3161269197 894.06 3.0 0 0 100
J_8979004920 893.39 3.0 0 0 100
J_8979004919 892.01 3.0 0 0 100
J_3168039450 891.57 3.0 0 0 100
J_5493868902 893.90 3.0 0 0 100
J_5493868901 893.69 3.0 0 0 100
J_3965281000 890.69 3.0 0 0 100
J_10081671392 885.33 3.0 0 0 100
J_12197618359 884.77 3.0 0 0 100
J_3235639717 884.64 3.0 0 0 100
J_3235639718 887.06 3.0 0 0 100
J_3235639721 884.02 3.0 0 0 100
J_12197618361 884.02 3.0 0 0 100
J_12067305543 879.90 3.0 0 0 100
J_3298864776 898.59 3.0 0 0 100
J_11865527609 900.92 3.0 0 0 100
J_5780852347 894.82 3.0 0 0 100
J_3421682934 881.65 3.0 0 0 100
J_12695960102 879.64 3.0 0 0 100
J_3538106692 887.39 3.0 0 0 100
J_7086183230 886.48 3.0 0 0 100
J_7086183228 888.27 3.0 0 0 100
J_7432283509 887.57 3.0 0 0 100
J_4146210945 885.24 3.0 0 0 100
J_3549123725 904.84 3.0 0 0 100
J_5267369426 903.17 3.0 0 0 100
J_5267369427 904.29 3.0 0 0 100
J_5267369429 903.81 3.0 0 0 100
J_3549124813 896.93 3.0 0 0 100
J_3549124818 897.03 3.0 0 0 100
J_3549124909 896.49 3.0 0 0 100
J_3549124822 897.40 3.0 0 0 100
J_2387385680 881.96 3.0 0 0 100
J_12186005569 880.23 3.0 0 0 100
J_3965280993 893.29 3.0 0 0 100
J_3965280999 891.66 3.0 0 0 100
J_3965280995 894.72 3.0 0 0 100
J_4146210931 889.10 3.0 0 0 100
J_6457067893 885.24 3.0 0 0 100
J_4146210932 889.16 3.0 0 0 100
J_6458176794 885.60 3.0 0 0 100
J_6458176792 889.77 3.0 0 0 100
J_4146210944 886.15 3.0 0 0 100
J_6457067894 885.39 3.0 0 0 100
J_4146210951 884.12 3.0 0 0 100
J_4146210953 884.54 3.0 0 0 100
J_11007254971 885.39 3.0 0 0 100
J_4146211263 893.06 3.0 0 0 100
J_4146211265 892.98 3.0 0 0 100
J_4146211266 890.11 3.0 0 0 100
J_6196261541 884.09 3.0 0 0 100
J_4146211267 891.84 3.0 0 0 100
J_4146211269 891.14 3.0 0 0 100
J_4146211270 891.84 3.0 0 0 100
J_7429952406 892.80 3.0 0 0 100
J_6504556325 892.66 3.0 0 0 100
J_4146211279 888.95 3.0 0 0 100
J_4146211273 892.80 3.0 0 0 100
J_4146211275 889.60 3.0 0 0 100
J_7432244868 890.40 3.0 0 0 100
J_4146211283 888.01 3.0 0 0 100
J_7432244867 886.43 3.0 0 0 100
J_4146211281 888.03 3.0 0 0 100
J_4146211286 887.23 3.0 0 0 100
J_4918188101 885.11 3.0 0 0 100
J_4918203528 884.14 3.0 0 0 100
J_5267402562 897.81 3.0 0 0 100
J_10049434084 890.56 3.0 0 0 100
J_5267402567 885.03 3.0 0 0 100
J_5267822919 891.46 3.0 0 0 100
J_5267823525 891.46 3.0 0 0 100
J_5267822920 889.56 3.0 0 0 100
J_5267823523 889.59 3.0 0 0 100
J_5267823522 887.56 3.0 0 0 100
J_5267823524 889.92 3.0 0 0 100
J_5267823526 892.49 3.0 0 0 100
J_5267823530 893.39 3.0 0 0 100
J_5292923939 880.63 3.0 0 0 100
J_5388479540 883.39 3.0 0 0 100
J_5388494831 885.15 3.0 0 0 100
J_6884276481 903.78 3.0 0 0 100
J_12181798460 888.74 3.0 0 0 100
J_6017833806 879.43 3.0 0 0 100
J_6017833807 879.43 3.0 0 0 100
J_6130226929 885.06 3.0 0 0 100
J_6130226928 884.24 3.0 0 0 100
J_11063510865 887.78 3.0 0 0 100
J_9189234398 887.79 3.0 0 0 100
J_6196261538 889.98 3.0 0 0 100
J_12067305554 879.43 3.0 0 0 100
J_6132603450 882.66 3.0 0 0 100
J_11476594021 879.26 3.0 0 0 100
J_6141722654 895.67 3.0 0 0 100
J_9189927159 895.20 3.0 0 0 100
J_10094580906 894.68 3.0 0 0 100
J_7432244855 888.13 3.0 0 0 100
J_6567395238 896.32 3.0 0 0 100
J_6567395227 898.17 3.0 0 0 100
J_6144301681 890.69 3.0 0 0 100
J_6178041419 882.81 3.0 0 0 100
J_6178041422 882.11 3.0 0 0 100
J_10094529581 905.22 3.0 0 0 100
J_6196261537 886.76 3.0 0 0 100
J_6196261540 888.59 3.0 0 0 100
J_6196261539 886.96 3.0 0 0 100
J_6196261542 888.87 3.0 0 0 100
J_11007259534 888.20 3.0 0 0 100
J_6462301370 878.84 3.0 0 0 100
J_6518859304 883.42 3.0 0 0 100
J_10839341172 885.35 3.0 0 0 100
J_6528148940 883.97 3.0 0 0 100
J_6528148951 884.18 3.0 0 0 100
J_6528148953 885.45 3.0 0 0 100
J_6528148955 884.40 3.0 0 0 100
J_6528148956 885.62 3.0 0 0 100
J_10081706681 891.05 3.0 0 0 100
J_6528148963 884.70 3.0 0 0 100
J_6528148965 885.08 3.0 0 0 100
J_6528148970 883.77 3.0 0 0 100
J_6528148975 883.36 3.0 0 0 100
J_6529626685 881.75 3.0 0 0 100
J_6531845894 894.34 3.0 0 0 100
J_13410465225 884.68 3.0 0 0 100
J_10081671279 886.17 3.0 0 0 100
J_7432359269 880.42 3.0 0 0 100
J_6567395228 898.14 3.0 0 0 100
J_6567395229 898.41 3.0 0 0 100
J_12174205245 901.09 3.0 0 0 100
J_6567395235 897.24 3.0 0 0 100
J_6567395237 899.03 3.0 0 0 100
J_6633301856 880.42 3.0 0 0 100
J_6884276477 899.23 3.0 0 0 100
J_6884276686 899.98 3.0 0 0 100
J_11374930012 877.41 3.0 0 0 100
J_11178931802 891.95 3.0 0 0 100
J_6887565743 891.60 3.0 0 0 100
J_11178931798 891.60 3.0 0 0 100
J_7086183229 887.03 3.0 0 0 100
J_7429952389 881.21 3.0 0 0 100
J_7429952390 884.93 3.0 0 0 100
J_7429952391 879.34 3.0 0 0 100
J_10153862361 879.34 3.0 0 0 100
J_7429952393 878.07 3.0 0 0 100
J_7429952399 883.66 3.0 0 0 100
J_7429952405 890.12 3.0 0 0 100
J_7432244829 887.79 3.0 0 0 100
J_7432244831 884.92 3.0 0 0 100
J_7432244835 885.31 3.0 0 0 100
J_7432244837 885.37 3.0 0 0 100
J_7432244838 885.31 3.0 0 0 100
J_7432244842 893.34 3.0 0 0 100
J_7432244862 884.12 3.0 0 0 100
J_7432244864 884.38 3.0 0 0 100
J_7432244865 886.97 3.0 0 0 100
J_7432244866 886.74 3.0 0 0 100
J_7432244871 891.96 3.0 0 0 100
J_7432244873 894.78 3.0 0 0 100
J_7432359284 880.42 3.0 0 0 100
J_7432359283 880.42 3.0 0 0 100
J_12695960101 879.64 3.0 0 0 100
J_7432382398 898.27 3.0 0 0 100
J_7478115637 885.95 3.0 0 0 100
J_7478257545 891.72 3.0 0 0 100
J_8979004921 891.96 3.0 0 0 100
J_8984867007 885.65 3.0 0 0 100
J_9189234403 895.57 3.0 0 0 100
J_9813619345 883.04 3.0 0 0 100
J_9918817333 881.83 3.0 0 0 100
J_10081671261 892.73 3.0 0 0 100
J_10081671263 889.66 3.0 0 0 100
J_10081671268 891.96 3.0 0 0 100
J_10081671273 888.16 3.0 0 0 100
J_10081671388 884.68 3.0 0 0 100
J_10081671389 884.68 3.0 0 0 100
J_10081671390 880.99 3.0 0 0 100
J_10081671391 890.02 3.0 0 0 100
J_10081671393 886.38 3.0 0 0 100
J_10081706679 882.88 3.0 0 0 100
J_10081706684 891.05 3.0 0 0 100
J_10081706683 887.12 3.0 0 0 100
J_10081706686 886.40 3.0 0 0 100
J_10081725589 883.70 3.0 0 0 100
J_10081725590 887.13 3.0 0 0 100
J_10081725592 886.82 3.0 0 0 100
J_10848086334 887.13 3.0 0 0 100
J_12196366168 887.54 3.0 0 0 100
J_10094504106 893.98 3.0 0 0 100
J_10094529582 902.74 3.0 0 0 100
J_10094580865 891.93 3.0 0 0 100
J_10094580888 887.90 3.0 0 0 100
J_10094580890 886.94 3.0 0 0 100
J_10094586220 891.65 3.0 0 0 100
J_10153862359 890.51 3.0 0 0 100
J_13410902898 888.13 3.0 0 0 100
J_10153868765 884.63 3.0 0 0 100
J_10989273452 886.17 3.0 0 0 100
J_10989273454 886.51 3.0 0 0 100
J_10994556963 900.37 3.0 0 0 100
J_11006990856 885.23 3.0 0 0 100
J_11007263821 887.24 3.0 0 0 100
J_11007435039 892.54 3.0 0 0 100
J_11012063565 885.31 3.0 0 0 100
J_11063510864 888.43 3.0 0 0 100
J_11178931803 892.37 3.0 0 0 100
J_11259448961 879.59 3.0 0 0 100
J_11259448963 879.59 3.0 0 0 100
J_11259448962 879.59 3.0 0 0 100
J_11892824101 881.41 3.0 0 0 100
J_11374930007 879.43 3.0 0 0 100
J_11374930008 877.41 3.0 0 0 100
J_11374930010 881.56 3.0 0 0 100
J_11374930011 881.63 3.0 0 0 100
J_11663109187 895.92 3.0 0 0 100
J_11892824102 878.56 3.0 0 0 100
J_12203527486 882.23 3.0 0 0 100
J_12186005568 880.23 3.0 0 0 100
J_12197618360 885.09 3.0 0 0 100
J_12197618362 884.06 3.0 0 0 100
J_12695946000 879.64 3.0 0 0 100
J_12695960103 879.64 3.0 0 0 100
J_13152778981 885.02 3.0 0 0 100
J_13410465226 889.91 3.0 0 0 100
J_13410465941 882.84 3.0 0 0 100
J_13415111431 885.53 3.0 0 0 100
J_13475843622 891.03 3.0 0 0 100

[OUTFALLS]
;;Name Elevation Type Stage Data Gated
Outfall_1 875.97 FREE

[CONDUITS]
;;Name FromNode ToNode Length Roughness InOffset OutOffset
C_263386428_306622120_0 J_263386428 J_306622120 164.09 0.013 0 0
C_263386428_306621809_0 J_263386428 J_306621809 33.87 0.013 0 0
C_263386428_11533595484_0 J_263386428 J_11533595484 159.74 0.013 0 0
C_306622120_263386428_0 J_306622120 J_263386428 164.09 0.013 0 0
C_306622120_306621654_0 J_306622120 J_306621654 19.50 0.013 0 0
C_306622120_6505392518_0 J_306622120 J_6505392518 158.20 0.013 0 0
C_306621809_306621778_0 J_306621809 J_306621778 37.95 0.013 0 0
C_306621809_263386428_0 J_306621809 J_263386428 33.87 0.013 0 0
C_306621809_306621760_0 J_306621809 J_306621760 173.75 0.013 0 0
C_11533595484_2387127863_0 J_11533595484 J_2387127863 160.39 0.013 0 0
C_11533595484_263386428_0 J_11533595484 J_263386428 159.74 0.013 0 0
C_263386438_7432382412_0 J_263386438 J_7432382412 9.01 0.013 0 0
C_263386438_306615032_0 J_263386438 J_306615032 49.42 0.013 0 0
C_263386438_7432382410_0 J_263386438 J_7432382410 40.74 0.013 0 0
C_7432382412_263386438_0 J_7432382412 J_263386438 9.01 0.013 0 0
C_7432382412_7432382415_0 J_7432382412 J_7432382415 49.48 0.013 0 0
C_7432382412_5961715635_0 J_7432382412 J_5961715635 86.07 0.013 0 0
C_306615032_266318626_0 J_306615032 J_266318626 178.31 0.013 0 0
C_306615032_306615155_0 J_306615032 J_306615155 49.61 0.013 0 0
C_306615032_263386438_0 J_306615032 J_263386438 49.42 0.013 0 0
C_7432382410_306616029_0 J_7432382410 J_306616029 15.45 0.013 0 0
C_7432382410_7432382412_0 J_7432382410 J_7432382412 41.00 0.013 0 0
C_263386445_7432382420_0 J_263386445 J_7432382420 7.23 0.013 0 0
C_263386445_306623098_0 J_263386445 J_306623098 70.20 0.013 0 0
C_7432382420_263386445_0 J_7432382420 J_263386445 7.23 0.013 0 0
C_7432382420_7432382418_0 J_7432382420 J_7432382418 58.29 0.013 0 0
C_7432382420_2407671508_0 J_7432382420 J_2407671508 301.99 0.013 0 0
C_306623098_3549124825_0 J_306623098 J_3549124825 179.64 0.013 0 0
C_306623098_306623144_0 J_306623098 J_306623144 55.39 0.013 0 0
C_306623098_3549124908_0 J_306623098 J_3549124908 59.77 0.013 0 0
C_306623098_7432382420_0 J_306623098 J_7432382420 69.73 0.013 0 0
C_263386457_306623631_0 J_263386457 J_306623631 52.44 0.013 0 0
C_263386457_836238509_0 J_263386457 J_836238509 44.64 0.013 0 0
C_263386457_306623149_0 J_263386457 J_306623149 51.11 0.013 0 0
C_306623631_306623633_0 J_306623631 J_306623633 32.10 0.013 0 0
C_306623631_306623614_0 J_306623631 J_306623614 81.83 0.013 0 0
C_306623631_263386457_0 J_306623631 J_263386457 52.44 0.013 0 0
C_836238509_836238514_0 J_836238509 J_836238514 37.18 0.013 0 0
C_836238509_3549123747_0 J_836238509 J_3549123747 55.90 0.013 0 0
C_836238509_263386457_0 J_836238509 J_263386457 44.64 0.013 0 0
C_306623149_306623366_0 J_306623149 J_306623366 37.50 0.013 0 0
C_306623149_263386457_0 J_306623149 J_263386457 51.11 0.013 0 0
C_306623149_306623545_0 J_306623149 J_306623545 95.91 0.013 0 0
C_263394718_266268086_0 J_263394718 J_266268086 103.24 0.013 0 0
C_263394718_263400205_0 J_263394718 J_263400205 62.88 0.013 0 0
C_263394718_11178931799_0 J_263394718 J_11178931799 74.80 0.013 0 0
C_266268086_263394718_0 J_266268086 J_263394718 103.24 0.013 0 0
C_266268086_266268085_0 J_266268086 J_266268085 106.46 0.013 0 0
C_266268086_2407671508_0 J_266268086 J_2407671508 217.31 0.013 0 0
C_263400205_5267402564_0 J_263400205 J_5267402564 10.87 0.013 0 0
C_263400205_263394718_0 J_263400205 J_263394718 62.88 0.013 0 0
C_263400205_266275087_0 J_263400205 J_266275087 182.24 0.013 0 0
C_11178931799_263394718_0 J_11178931799 J_263394718 74.80 0.013 0 0
C_11178931799_6887565739_0 J_11178931799 J_6887565739 81.72 0.013 0 0
C_263400148_266271044_0 J_263400148 J_266271044 48.02 0.013 0 0
C_263400148_266271204_0 J_263400148 J_266271204 42.89 0.013 0 0
C_263400148_650089427_0 J_263400148 J_650089427 30.42 0.013 0 0
C_266271044_263400148_0 J_266271044 J_263400148 48.02 0.013 0 0
C_266271044_4467082413_0 J_266271044 J_4467082413 87.35 0.013 0 0
C_266271044_266271046_0 J_266271044 J_266271046 57.87 0.013 0 0
C_266271204_263400148_0 J_266271204 J_263400148 42.89 0.013 0 0
C_266271204_306620177_0 J_266271204 J_306620177 42.11 0.013 0 0
C_266271204_10094586221_0 J_266271204 J_10094586221 29.75 0.013 0 0
C_650089427_263400148_0 J_650089427 J_263400148 30.42 0.013 0 0
C_650089427_263415776_0 J_650089427 J_263415776 107.43 0.013 0 0
C_650089427_10094586221_0 J_650089427 J_10094586221 44.87 0.013 0 0
C_263400179_10094586219_0 J_263400179 J_10094586219 26.92 0.013 0 0
C_263400179_4467082413_0 J_263400179 J_4467082413 7.53 0.013 0 0
C_263400179_306620123_0 J_263400179 J_306620123 57.57 0.013 0 0
C_10094586219_263400192_0 J_10094586219 J_263400192 9.56 0.013 0 0
C_10094586219_263400179_0 J_10094586219 J_263400179 26.92 0.013 0 0
C_10094586219_10094586220_0 J_10094586219 J_10094586220 56.23 0.013 0 0
C_4467082413_263400179_0 J_4467082413 J_263400179 7.53 0.013 0 0
C_4467082413_266271044_0 J_4467082413 J_266271044 87.35 0.013 0 0
C_4467082413_6887795923_0 J_4467082413 J_6887795923 44.90 0.013 0 0
C_306620123_263400179_0 J_306620123 J_263400179 57.57 0.013 0 0
C_306620123_306620088_0 J_306620123 J_306620088 121.84 0.013 0 0
C_306620123_306620124_0 J_306620123 J_306620124 48.51 0.013 0 0
C_263400192_5267402564_0 J_263400192 J_5267402564 23.16 0.013 0 0
C_263400192_10094586219_0 J_263400192 J_10094586219 9.56 0.013 0 0
C_263400192_306620053_0 J_263400192 J_306620053 180.27 0.013 0 0
C_5267402564_263400205_0 J_5267402564 J_263400205 10.87 0.013 0 0
C_5267402564_263400192_0 J_5267402564 J_263400192 23.16 0.013 0 0
C_5267402564_10049434084_0 J_5267402564 J_10049434084 171.02 0.013 0 0
C_306620053_266275087_0 J_306620053 J_266275087 50.48 0.013 0 0
C_306620053_306620088_0 J_306620053 J_306620088 34.97 0.013 0 0
C_306620053_263400192_0 J_306620053 J_263400192 180.27 0.013 0 0
C_266275087_266275088_0 J_266275087 J_266275088 36.27 0.013 0 0
C_266275087_306620053_0 J_266275087 J_306620053 50.48 0.013 0 0
C_266275087_263400205_0 J_266275087 J_263400205 182.24 0.013 0 0
C_263415776_650089427_0 J_263415776 J_650089427 107.43 0.013 0 0
C_263415776_263415826_0 J_263415776 J_263415826 44.28 0.013 0 0
C_263415776_306620181_0 J_263415776 J_306620181 53.64 0.013 0 0
C_263415826_306620007_0 J_263415826 J_306620007 41.18 0.013 0 0
C_263415826_266271046_0 J_263415826 J_266271046 80.09 0.013 0 0
C_263415826_263415776_0 J_263415826 J_263415776 44.28 0.013 0 0
C_306620181_595767079_0 J_306620181 J_595767079 28.64 0.013 0 0
C_306620181_306620173_0 J_306620181 J_306620173 45.15 0.013 0 0
C_306620181_263415776_0 J_306620181 J_263415776 53.64 0.013 0 0
C_306620007_306619953_0 J_306620007 J_306619953 35.40 0.013 0 0
C_306620007_263415826_0 J_306620007 J_263415826 41.18 0.013 0 0
C_306620007_306620148_0 J_306620007 J_306620148 46.33 0.013 0 0
C_306620007_306620173_0 J_306620007 J_306620173 100.80 0.013 0 0
C_266271046_263415826_0 J_266271046 J_263415826 80.09 0.013 0 0
C_266271046_306620124_0 J_266271046 J_306620124 46.29 0.013 0 0
C_266271046_266271044_0 J_266271046 J_266271044 57.87 0.013 0 0
C_263415839_306615019_0 J_263415839 J_306615019 50.11 0.013 0 0
C_263415839_306615476_0 J_263415839 J_306615476 88.05 0.013 0 0
C_263415839_306615164_0 J_263415839 J_306615164 145.80 0.013 0 0
C_306615019_263415839_0 J_306615019 J_263415839 50.11 0.013 0 0
C_306615019_306619953_0 J_306615019 J_306619953 38.57 0.013 0 0
C_306615019_266275089_0 J_306615019 J_266275089 176.15 0.013 0 0
C_306615019_306619786_0 J_306615019 J_306619786 137.99 0.013 0 0
C_306615476_263415839_0 J_306615476 J_263415839 88.05 0.013 0 0
C_306615476_266274986_0 J_306615476 J_266274986 83.48 0.013 0 0
C_306615476_306615608_0 J_306615476 J_306615608 53.34 0.013 0 0
C_306615164_306615597_0 J_306615164 J_306615597 51.88 0.013 0 0
C_306615164_263415852_0 J_306615164 J_263415852 47.89 0.013 0 0
C_306615164_263415839_0 J_306615164 J_263415839 145.80 0.013 0 0
C_263415852_266318626_0 J_263415852 J_266318626 66.01 0.013 0 0
C_263415852_306615014_0 J_263415852 J_306615014 49.77 0.013 0 0
C_263415852_306615164_0 J_263415852 J_306615164 47.89 0.013 0 0
C_263415852_306620859_0 J_263415852 J_306620859 113.85 0.013 0 0
C_266318626_306615032_0 J_266318626 J_306615032 178.31 0.013 0 0
C_266318626_263415852_0 J_266318626 J_263415852 66.01 0.013 0 0
C_266318626_266318627_0 J_266318626 J_266318627 56.24 0.013 0 0
C_306615014_263415852_0 J_306615014 J_263415852 49.77 0.013 0 0
C_306615014_306620879_0 J_306615014 J_306620879 101.97 0.013 0 0
C_306615014_306619786_0 J_306615014 J_306619786 53.17 0.013 0 0
C_306620859_306620870_0 J_306620859 J_306620870 171.01 0.013 0 0
C_306620859_263415852_0 J_306620859 J_263415852 113.85 0.013 0 0
C_306620859_266304400_0 J_306620859 J_266304400 56.25 0.013 0 0
C_263431510_4146211264_0 J_263431510 J_4146211264 53.42 0.013 0 0
C_263431510_266310426_0 J_263431510 J_266310426 185.21 0.013 0 0
C_263431510_2406084997_0 J_263431510 J_2406084997 52.47 0.013 0 0
C_4146211264_6196261541_0 J_4146211264 J_6196261541 29.84 0.013 0 0
C_4146211264_263431510_0 J_4146211264 J_263431510 53.42 0.013 0 0
C_4146211264_6196261543_0 J_4146211264 J_6196261543 150.38 0.013 0 0
C_266310426_3298857091_0 J_266310426 J_3298857091 61.20 0.013 0 0
C_266310426_306621180_0 J_266310426 J_306621180 52.99 0.013 0 0
C_266310426_263431510_0 J_266310426 J_263431510 185.21 0.013 0 0
C_266310426_2406084995_0 J_266310426 J_2406084995 88.50 0.013 0 0
C_2406084997_6130226927_0 J_2406084997 J_6130226927 148.37 0.013 0 0
C_2406084997_2400167287_0 J_2406084997 J_2400167287 200.48 0.013 0 0
C_2406084997_263431510_0 J_2406084997 J_263431510 52.47 0.013 0 0
C_2406084997_3298857094_0 J_2406084997 J_3298857094 68.76 0.013 0 0
C_266163778_306617302_0 J_266163778 J_306617302 62.16 0.013 0 0
C_266163778_7432382401_0 J_266163778 J_7432382401 8.15 0.013 0 0
C_266163778_7432382395_0 J_266163778 J_7432382395 46.72 0.013 0 0
C_306617302_306617457_0 J_306617302 J_306617457 45.33 0.013 0 0
C_306617302_266163778_0 J_306617302 J_266163778 62.16 0.013 0 0
C_306617302_306617440_0 J_306617302 J_306617440 184.14 0.013 0 0
C_7432382401_1417443641_0 J_7432382401 J_1417443641 18.76 0.013 0 0
C_7432382401_266163778_0 J_7432382401 J_266163778 8.15 0.013 0 0
C_7432382401_7432382398_0 J_7432382401 J_7432382398 72.36 0.013 0 0
C_7432382395_6130692320_0 J_7432382395 J_6130692320 4.93 0.013 0 0
C_7432382395_7432382401_0 J_7432382395 J_7432382401 47.22 0.013 0 0
C_266164910_622363164_0 J_266164910 J_622363164 57.56 0.013 0 0
C_266164910_306623347_0 J_266164910 J_306623347 143.68 0.013 0 0
C_266164910_306623648_0 J_266164910 J_306623648 38.55 0.013 0 0
C_266164910_306626271_0 J_266164910 J_306626271 56.87 0.013 0 0
C_622363164_622363165_0 J_622363164 J_622363165 48.57 0.013 0 0
C_622363164_306626127_0 J_622363164 J_306626127 130.71 0.013 0 0
C_622363164_266164910_0 J_622363164 J_266164910 57.56 0.013 0 0
C_622363164_306616974_0 J_622363164 J_306616974 53.98 0.013 0 0
C_306623347_306623366_0 J_306623347 J_306623366 39.54 0.013 0 0
C_306623347_306623646_0 J_306623347 J_306623646 37.93 0.013 0 0
C_306623347_306626269_0 J_306623347 J_306626269 65.07 0.013 0 0
C_306623347_266164910_0 J_306623347 J_266164910 143.68 0.013 0 0
C_306623648_6193921851_0 J_306623648 J_6193921851 28.39 0.013 0 0
C_306623648_266164910_0 J_306623648 J_266164910 38.55 0.013 0 0
C_306623648_1468908333_0 J_306623648 J_1468908333 81.54 0.013 0 0
C_306626271_6567395234_0 J_306626271 J_6567395234 36.31 0.013 0 0
C_306626271_306623252_0 J_306626271 J_306623252 119.13 0.013 0 0
C_306626271_266164910_0 J_306626271 J_266164910 56.87 0.013 0 0
C_266164941_266318559_0 J_266164941 J_266318559 59.46 0.013 0 0
C_266164941_11007435038_0 J_266164941 J_11007435038 3.16 0.013 0 0
C_266164941_266304400_0 J_266164941 J_266304400 156.15 0.013 0 0
C_266318559_266313980_0 J_266318559 J_266313980 35.75 0.013 0 0
C_266318559_266164941_0 J_266318559 J_266164941 59.46 0.013 0 0
C_266318559_266314031_0 J_266318559 J_266314031 148.69 0.013 0 0
C_11007435038_266164941_0 J_11007435038 J_266164941 3.16 0.013 0 0
C_11007435038_266164942_0 J_11007435038 J_266164942 25.62 0.013 0 0
C_11007435038_11007435039_0 J_11007435038 J_11007435039 39.55 0.013 0 0
C_266304400_266304402_0 J_266304400 J_266304402 47.40 0.013 0 0
C_266304400_266313958_0 J_266304400 J_266313958 62.40 0.013 0 0
C_266304400_306620859_0 J_266304400 J_306620859 56.25 0.013 0 0
C_266304400_266164941_0 J_266304400 J_266164941 156.15 0.013 0 0
C_266164942_266314035_0 J_266164942 J_266314035 206.88 0.013 0 0
C_266164942_266318994_0 J_266164942 J_266318994 138.31 0.013 0 0
C_266164942_11007435038_0 J_266164942 J_11007435038 25.62 0.013 0 0
C_266164942_266164948_0 J_266164942 J_266164948 62.56 0.013 0 0
C_266314035_266314031_0 J_266314035 J_266314031 39.36 0.013 0 0
C_266314035_266164942_0 J_266314035 J_266164942 206.88 0.013 0 0
C_266314035_266318996_0 J_266314035 J_266318996 52.52 0.013 0 0
C_266318994_266164942_0 J_266318994 J_266164942 138.31 0.013 0 0
C_266318994_2406084995_0 J_266318994 J_2406084995 34.75 0.013 0 0
C_266318994_10094504107_0 J_266318994 J_10094504107 18.21 0.013 0 0
C_266164948_2406084995_0 J_266164948 J_2406084995 135.04 0.013 0 0
C_266164948_266164942_0 J_266164948 J_266164942 62.56 0.013 0 0
C_266164948_4146211262_0 J_266164948 J_4146211262 31.27 0.013 0 0
C_266164948_4146211261_0 J_266164948 J_4146211261 88.50 0.013 0 0
C_2406084995_266318994_0 J_2406084995 J_266318994 34.75 0.013 0 0
C_2406084995_266164948_0 J_2406084995 J_266164948 135.04 0.013 0 0
C_2406084995_10094504105_0 J_2406084995 J_10094504105 33.39 0.013 0 0
C_2406084995_266310426_0 J_2406084995 J_266310426 88.50 0.013 0 0
C_4146211262_4146211263_0 J_4146211262 J_4146211263 132.97 0.013 0 0
C_4146211262_266164948_0 J_4146211262 J_266164948 31.27 0.013 0 0
C_4146211262_4146211265_0 J_4146211262 J_4146211265 38.90 0.013 0 0
C_4146211261_266164948_0 J_4146211261 J_266164948 88.50 0.013 0 0
C_4146211261_10094504108_0 J_4146211261 J_10094504108 29.46 0.013 0 0
C_4146211261_4146211271_0 J_4146211261 J_4146211271 117.61 0.013 0 0
C_266174853_266265561_0 J_266174853 J_266265561 50.20 0.013 0 0
C_266174853_306625695_0 J_266174853 J_306625695 120.42 0.013 0 0
C_266174853_306625759_0 J_266174853 J_306625759 36.95 0.013 0 0
C_266174853_306626127_0 J_266174853 J_306626127 40.57 0.013 0 0
C_266265561_266174853_0 J_266265561 J_266174853 50.20 0.013 0 0
C_266265561_306616744_0 J_266265561 J_306616744 61.37 0.013 0 0
C_266265561_266268082_0 J_266265561 J_266268082 77.11 0.013 0 0
C_306625695_266174853_0 J_306625695 J_266174853 120.42 0.013 0 0
C_306625695_2414635985_0 J_306625695 J_2414635985 28.02 0.013 0 0
C_306625695_306625812_0 J_306625695 J_306625812 33.73 0.013 0 0
C_306625695_306626120_0 J_306625695 J_306626120 32.09 0.013 0 0
C_306625759_306625818_0 J_306625759 J_306625818 46.43 0.013 0 0
C_306625759_306617440_0 J_306625759 J_306617440 9.49 0.013 0 0
C_306625759_266174853_0 J_306625759 J_266174853 36.95 0.013 0 0
C_306626127_306626245_0 J_306626127 J_306626245 48.63 0.013 0 0
C_306626127_266174853_0 J_306626127 J_266174853 40.57 0.013 0 0
C_306626127_622363164_0 J_306626127 J_622363164 130.71 0.013 0 0
C_266174854_266298095_0 J_266174854 J_266298095 89.41 0.013 0 0
C_266174854_1417443647_0 J_266174854 J_1417443647 92.49 0.013 0 0
C_266174854_1417443641_0 J_266174854 J_1417443641 42.77 0.013 0 0
C_266298095_266174854_0 J_266298095 J_266174854 89.41 0.013 0 0
C_266298095_266300742_0 J_266298095 J_266300742 36.49 0.013 0 0
C_266298095_266298087_0 J_266298095 J_266298087 140.83 0.013 0 0
C_1417443647_1488526924_0 J_1417443647 J_1488526924 42.16 0.013 0 0
C_1417443647_266298088_0 J_1417443647 J_266298088 48.76 0.013 0 0
C_1417443647_266174854_0 J_1417443647 J_266174854 92.49 0.013 0 0
C_1417443641_7432382401_0 J_1417443641 J_7432382401 18.76 0.013 0 0
C_1417443641_5493844924_0 J_1417443641 J_5493844924 44.12 0.013 0 0
C_1417443641_266300741_0 J_1417443641 J_266300741 127.18 0.013 0 0
C_1417443641_266174854_0 J_1417443641 J_266174854 42.77 0.013 0 0
C_266174856_1473871931_0 J_266174856 J_1473871931 45.83 0.013 0 0
C_266174856_1473871940_0 J_266174856 J_1473871940 118.71 0.013 0 0
C_266174856_266272487_0 J_266174856 J_266272487 98.71 0.013 0 0
C_1473871931_266174856_0 J_1473871931 J_266174856 45.83 0.013 0 0
C_1473871931_1473871942_0 J_1473871931 J_1473871942 42.14 0.013 0 0
C_1473871931_3096683824_0 J_1473871931 J_3096683824 50.99 0.013 0 0
C_1473871931_1473871945_0 J_1473871931 J_1473871945 113.36 0.013 0 0
C_1473871940_1473871938_0 J_1473871940 J_1473871938 43.07 0.013 0 0
C_1473871940_1473871959_0 J_1473871940 J_1473871959 38.98 0.013 0 0
C_1473871940_266174856_0 J_1473871940 J_266174856 118.71 0.013 0 0
C_266272487_1488556180_0 J_266272487 J_1488556180 52.97 0.013 0 0
C_266272487_266174856_0 J_266272487 J_266174856 98.71 0.013 0 0
C_266272487_266298088_0 J_266272487 J_266298088 36.51 0.013 0 0
C_266174857_313460308_0 J_266174857 J_313460308 41.04 0.013 0 0
C_266174857_1473885221_0 J_266174857 J_1473885221 57.44 0.013 0 0
C_266174857_266272874_0 J_266174857 J_266272874 60.02 0.013 0 0
C_313460308_266174857_0 J_313460308 J_266174857 41.04 0.013 0 0
C_313460308_313460313_0 J_313460308 J_313460313 167.19 0.013 0 0
C_313460308_1488556150_0 J_313460308 J_1488556150 119.05 0.013 0 0
C_1473885221_1473885237_0 J_1473885221 J_1473885237 61.97 0.013 0 0
C_1473885221_266174857_0 J_1473885221 J_266174857 57.44 0.013 0 0
C_1473885221_1473885223_0 J_1473885221 J_1473885223 386.10 0.013 0 0
C_266272874_306618090_0 J_266272874 J_306618090 54.89 0.013 0 0
C_266272874_3161269200_0 J_266272874 J_3161269200 165.43 0.013 0 0
C_266272874_266174857_0 J_266272874 J_266174857 60.02 0.013 0 0
C_266177660_2526081636_0 J_266177660 J_2526081636 24.30 0.013 0 0
C_266177660_6560240052_0 J_266177660 J_6560240052 106.00 0.013 0 0
C_2526081636_266298084_0 J_2526081636 J_266298084 63.71 0.013 0 0
C_2526081636_266177660_0 J_2526081636 J_266177660 24.30 0.013 0 0
C_2526081636_266300661_0 J_2526081636 J_266300661 255.23 0.013 0 0
C_2526081636_3304204552_0 J_2526081636 J_3304204552 105.68 0.013 0 0
C_6560240052_7432359269_0 J_6560240052 J_7432359269 388.62 0.013 0 0
C_6560240052_3304204552_0 J_6560240052 J_3304204552 23.91 0.013 0 0
C_306616744_306617018_0 J_306616744 J_306617018 37.75 0.013 0 0
C_306616744_266265561_0 J_306616744 J_266265561 61.37 0.013 0 0
C_306616744_266276756_0 J_306616744 J_266276756 120.63 0.013 0 0
C_266268082_306617429_0 J_266268082 J_306617429 52.54 0.013 0 0
C_266268082_266268084_0 J_266268082 J_266268084 50.61 0.013 0 0
C_266268082_266265561_0 J_266268082 J_266265561 77.11 0.013 0 0
C_266267494_266267499_0 J_266267494 J_266267499 63.46 0.013 0 0
C_266267494_306624820_0 J_266267494 J_306624820 19.92 0.013 0 0
C_266267494_266267666_0 J_266267494 J_266267666 35.11 0.013 0 0
C_266267499_1469644202_0 J_266267499 J_1469644202 54.84 0.013 0 0
C_266267499_266267494_0 J_266267499 J_266267494 63.46 0.013 0 0
C_266267499_306625528_0 J_266267499 J_306625528 41.78 0.013 0 0
C_306624820_306624836_0 J_306624820 J_306624836 44.54 0.013 0 0
C_306624820_306623471_0 J_306624820 J_306623471 47.22 0.013 0 0
C_306624820_266267494_0 J_306624820 J_266267494 19.92 0.013 0 0
C_266267666_266267494_0 J_266267666 J_266267494 35.11 0.013 0 0
C_266267666_12174142491_0 J_266267666 J_12174142491 116.15 0.013 0 0
C_1469644202_266267499_0 J_1469644202 J_266267499 54.84 0.013 0 0
C_1469644202_306625751_0 J_1469644202 J_306625751 157.64 0.013 0 0
C_1469644202_12174142491_0 J_1469644202 J_12174142491 34.45 0.013 0 0
C_306625528_306626042_0 J_306625528 J_306626042 106.05 0.013 0 0
C_306625528_266267499_0 J_306625528 J_266267499 41.78 0.013 0 0
C_306625528_306626118_0 J_306625528 J_306626118 28.78 0.013 0 0
C_12174142491_1469644202_0 J_12174142491 J_1469644202 34.45 0.013 0 0
C_12174142491_266267666_0 J_12174142491 J_266267666 116.15 0.013 0 0
C_306617429_306617409_0 J_306617429 J_306617409 87.46 0.013 0 0
C_306617429_266268082_0 J_306617429 J_266268082 52.54 0.013 0 0
C_306617429_306617444_0 J_306617429 J_306617444 77.93 0.013 0 0
C_266268084_306617477_0 J_266268084 J_306617477 130.45 0.013 0 0
C_266268084_266268085_0 J_266268084 J_266268085 54.96 0.013 0 0
C_266268084_266268082_0 J_266268084 J_266268082 50.61 0.013 0 0
C_306617477_306617463_0 J_306617477 J_306617463 39.86 0.013 0 0
C_306617477_266268084_0 J_306617477 J_266268084 130.45 0.013 0 0
C_306617477_306617409_0 J_306617477 J_306617409 47.18 0.013 0 0
C_266268085_306616740_0 J_266268085 J_306616740 63.04 0.013 0 0
C_266268085_266268084_0 J_266268085 J_266268084 54.96 0.013 0 0
C_266268085_266268086_0 J_266268085 J_266268086 106.46 0.013 0 0
C_306616740_266268085_0 J_306616740 J_266268085 63.04 0.013 0 0
C_306616740_266276756_0 J_306616740 J_266276756 59.98 0.013 0 0
C_306616740_3298878307_0 J_306616740 J_3298878307 157.41 0.013 0 0
C_2407671508_7432382420_0 J_2407671508 J_7432382420 301.99 0.013 0 0
C_2407671508_266274986_0 J_2407671508 J_266274986 64.36 0.013 0 0
C_2407671508_266268086_0 J_2407671508 J_266268086 217.31 0.013 0 0
C_2407671508_306623127_0 J_2407671508 J_306623127 68.04 0.013 0 0
C_266268374_306623673_0 J_266268374 J_306623673 63.29 0.013 0 0
C_266268374_10094529579_0 J_266268374 J_10094529579 49.31 0.013 0 0
C_266268374_266268375_0 J_266268374 J_266268375 76.04 0.013 0 0
C_306623673_306623368_0 J_306623673 J_306623368 27.80 0.013 0 0
C_306623673_306623632_0 J_306623673 J_306623632 47.45 0.013 0 0
C_306623673_266268374_0 J_306623673 J_266268374 63.29 0.013 0 0
C_10094529579_306623632_0 J_10094529579 J_306623632 73.37 0.013 0 0
C_10094529579_306623633_0 J_10094529579 J_306623633 13.35 0.013 0 0
C_10094529579_266268374_0 J_10094529579 J_266268374 49.31 0.013 0 0
C_266268375_306623367_0 J_266268375 J_306623367 47.58 0.013 0 0
C_266268375_266268374_0 J_266268375 J_266268374 76.04 0.013 0 0
C_266268375_306624975_0 J_266268375 J_306624975 41.83 0.013 0 0
C_306623367_306623368_0 J_306623367 J_306623368 48.67 0.013 0 0
C_306623367_266268375_0 J_306623367 J_266268375 47.58 0.013 0 0
C_306623367_306624836_0 J_306623367 J_306624836 167.93 0.013 0 0
C_306624975_306624988_0 J_306624975 J_306624988 52.23 0.013 0 0
C_306624975_266268375_0 J_306624975 J_266268375 41.83 0.013 0 0
C_306624975_266268377_0 J_306624975 J_266268377 118.67 0.013 0 0
C_266268377_306624796_0 J_266268377 J_306624796 49.73 0.013 0 0
C_266268377_306624975_0 J_266268377 J_306624975 118.67 0.013 0 0
C_266268377_5780852321_0 J_266268377 J_5780852321 133.65 0.013 0 0
C_306624796_306625001_0 J_306624796 J_306625001 102.44 0.013 0 0
C_306624796_266268377_0 J_306624796 J_266268377 49.73 0.013 0 0
C_306624796_306624987_0 J_306624796 J_306624987 58.61 0.013 0 0
C_306624796_306625124_0 J_306624796 J_306625124 37.11 0.013 0 0
C_5780852321_6884276481_0 J_5780852321 J_6884276481 44.62 0.013 0 0
C_5780852321_266268377_0 J_5780852321 J_266268377 133.65 0.013 0 0
C_266268380_6884276690_0 J_266268380 J_6884276690 26.73 0.013 0 0
C_266268380_306624839_0 J_266268380 J_306624839 91.22 0.013 0 0
C_6884276690_6884276477_0 J_6884276690 J_6884276477 5.81 0.013 0 0
C_306624839_306624842_0 J_306624839 J_306624842 51.99 0.013 0 0
C_306624839_266268380_0 J_306624839 J_266268380 91.22 0.013 0 0
C_306620124_306620123_0 J_306620124 J_306620123 48.51 0.013 0 0
C_306620124_266271046_0 J_306620124 J_266271046 46.29 0.013 0 0
C_306620124_306620148_0 J_306620124 J_306620148 121.64 0.013 0 0
C_306620177_266271204_0 J_306620177 J_266271204 42.11 0.013 0 0
C_306620177_6887795923_0 J_306620177 J_6887795923 176.02 0.013 0 0
C_306620177_306619845_0 J_306620177 J_306619845 31.54 0.013 0 0
C_10094586221_266271204_0 J_10094586221 J_266271204 29.75 0.013 0 0
C_10094586221_650089427_0 J_10094586221 J_650089427 44.87 0.013 0 0
C_10094586221_595767079_0 J_10094586221 J_595767079 75.29 0.013 0 0
C_1488556180_266273458_0 J_1488556180 J_266273458 63.13 0.013 0 0
C_1488556180_266272487_0 J_1488556180 J_266272487 52.97 0.013 0 0
C_1488556180_7432244854_0 J_1488556180 J_7432244854 31.98 0.013 0 0
C_266298088_266298087_0 J_266298088 J_266298087 83.59 0.013 0 0
C_266298088_1417443647_0 J_266298088 J_1417443647 48.76 0.013 0 0
C_266298088_266272487_0 J_266298088 J_266272487 36.51 0.013 0 0
C_266272838_266272839_0 J_266272838 J_266272839 64.69 0.013 0 0
C_266272838_7432382393_0 J_266272838 J_7432382393 89.99 0.013 0 0
C_266272838_306609464_0 J_266272838 J_306609464 185.78 0.013 0 0
C_266272839_266272840_0 J_266272839 J_266272840 44.02 0.013 0 0
C_266272839_266272838_0 J_266272839 J_266272838 64.69 0.013 0 0
C_266272839_306609693_0 J_266272839 J_306609693 189.14 0.013 0 0
C_7432382393_266272838_0 J_7432382393 J_266272838 89.99 0.013 0 0
C_7432382393_7432359283_0 J_7432382393 J_7432359283 48.95 0.013 0 0
C_306609464_306609693_0 J_306609464 J_306609693 62.10 0.013 0 0
C_306609464_266272838_0 J_306609464 J_266272838 185.78 0.013 0 0
C_306609464_306608698_0 J_306609464 J_306608698 128.76 0.013 0 0
C_266272840_266272839_0 J_266272840 J_266272839 44.02 0.013 0 0
C_266272840_306609695_0 J_266272840 J_306609695 189.78 0.013 0 0
C_266272840_266272841_0 J_266272840 J_266272841 60.08 0.013 0 0
C_306609693_306608898_0 J_306609693 J_306608898 128.56 0.013 0 0
C_306609693_306609695_0 J_306609693 J_306609695 49.21 0.013 0 0
C_306609693_306609464_0 J_306609693 J_306609464 62.10 0.013 0 0
C_306609693_266272839_0 J_306609693 J_266272839 189.14 0.013 0 0
C_306609695_306609212_0 J_306609695 J_306609212 131.43 0.013 0 0
C_306609695_306609693_0 J_306609695 J_306609693 49.21 0.013 0 0
C_306609695_266272840_0 J_306609695 J_266272840 189.78 0.013 0 0
C_306609695_306609696_0 J_306609695 J_306609696 54.26 0.013 0 0
C_266272841_266272842_0 J_266272841 J_266272842 125.95 0.013 0 0
C_266272841_266272840_0 J_266272841 J_266272840 60.08 0.013 0 0
C_266272841_306610651_0 J_266272841 J_306610651 67.73 0.013 0 0
C_266272841_306614126_0 J_266272841 J_306614126 66.52 0.013 0 0
C_266272842_266272843_0 J_266272842 J_266272843 122.13 0.013 0 0
C_266272842_306619706_0 J_266272842 J_306619706 70.92 0.013 0 0
C_266272842_266272841_0 J_266272842 J_266272841 125.95 0.013 0 0
C_306610651_306610573_0 J_306610651 J_306610573 49.52 0.013 0 0
C_306610651_306619706_0 J_306610651 J_306619706 130.15 0.013 0 0
C_306610651_266272841_0 J_306610651 J_266272841 67.73 0.013 0 0
C_306614126_306618203_0 J_306614126 J_306618203 48.76 0.013 0 0
C_306614126_306618152_0 J_306614126 J_306618152 123.34 0.013 0 0
C_306614126_306617982_0 J_306614126 J_306617982 57.31 0.013 0 0
C_306614126_266272841_0 J_306614126 J_266272841 66.52 0.013 0 0
C_266272843_11259448972_0 J_266272843 J_11259448972 4.94 0.013 0 0
C_266272843_266272842_0 J_266272843 J_266272842 122.13 0.013 0 0
C_266272843_306614127_0 J_266272843 J_306614127 66.50 0.013 0 0
C_306619706_306619696_0 J_306619706 J_306619696 47.95 0.013 0 0
C_306619706_306610698_0 J_306619706 J_306610698 175.57 0.013 0 0
C_306619706_306610651_0 J_306619706 J_306610651 130.15 0.013 0 0
C_306619706_266272842_0 J_306619706 J_266272842 70.92 0.013 0 0
C_11259448972_266272843_0 J_11259448972 J_266272843 4.94 0.013 0 0
C_11259448972_11259448963_0 J_11259448972 J_11259448963 48.15 0.013 0 0
C_306614127_306618031_0 J_306614127 J_306618031 52.13 0.013 0 0
C_306614127_306617982_0 J_306614127 J_306617982 186.22 0.013 0 0
C_306614127_266272843_0 J_306614127 J_266272843 66.50 0.013 0 0
C_306618090_306619109_0 J_306618090 J_306619109 37.26 0.013 0 0
C_306618090_306618120_0 J_306618090 J_306618120 46.02 0.013 0 0
C_306618090_12174120925_0 J_306618090 J_12174120925 77.61 0.013 0 0
C_306618090_266272874_0 J_306618090 J_266272874 54.89 0.013 0 0
C_3161269200_8979004920_0 J_3161269200 J_8979004920 27.90 0.013 0 0
C_3161269200_8979004919_0 J_3161269200 J_8979004919 39.11 0.013 0 0
C_3161269200_266272874_0 J_3161269200 J_266272874 165.43 0.013 0 0
C_266273088_1473871924_0 J_266273088 J_1473871924 63.84 0.013 0 0
C_266273088_1473871945_0 J_266273088 J_1473871945 98.41 0.013 0 0
C_266273088_1488526913_0 J_266273088 J_1488526913 49.63 0.013 0 0
C_1473871924_1488526920_0 J_1473871924 J_1488526920 25.61 0.013 0 0
C_1473871924_266273088_0 J_1473871924 J_266273088 63.84 0.013 0 0
C_1473871924_1473871954_0 J_1473871924 J_1473871954 43.06 0.013 0 0
C_1473871945_266273088_0 J_1473871945 J_266273088 98.41 0.013 0 0
C_1473871945_1473871956_0 J_1473871945 J_1473871956 43.04 0.013 0 0
C_1473871945_1473871931_0 J_1473871945 J_1473871931 113.36 0.013 0 0
C_1488526913_1488526884_0 J_1488526913 J_1488526884 52.02 0.013 0 0
C_1488526913_266273088_0 J_1488526913 J_266273088 49.63 0.013 0 0
C_1488526913_1488526911_0 J_1488526913 J_1488526911 83.80 0.013 0 0
C_1488526913_7432244851_0 J_1488526913 J_7432244851 29.16 0.013 0 0
C_266273090_3096683821_0 J_266273090 J_3096683821 54.56 0.013 0 0
C_266273090_4377707444_0 J_266273090 J_4377707444 5.86 0.013 0 0
C_266273090_4377707454_0 J_266273090 J_4377707454 149.68 0.013 0 0
C_3096683821_266273090_0 J_3096683821 J_266273090 54.56 0.013 0 0
C_3096683821_1488526920_0 J_3096683821 J_1488526920 14.51 0.013 0 0
C_3096683821_1473871961_0 J_3096683821 J_1473871961 226.26 0.013 0 0
C_4377707444_266273090_0 J_4377707444 J_266273090 5.86 0.013 0 0
C_4377707444_6152326682_0 J_4377707444 J_6152326682 148.91 0.013 0 0
C_4377707454_266273090_0 J_4377707454 J_266273090 149.68 0.013 0 0
C_266273458_6141732621_0 J_266273458 J_6141732621 15.12 0.013 0 0
C_266273458_1488556180_0 J_266273458 J_1488556180 63.13 0.013 0 0
C_266273458_266298086_0 J_266273458 J_266298086 37.49 0.013 0 0
C_6141732621_266273460_0 J_6141732621 J_266273460 108.95 0.013 0 0
C_6141732621_266273458_0 J_6141732621 J_266273458 15.12 0.013 0 0
C_6141732621_7432244855_0 J_6141732621 J_7432244855 32.96 0.013 0 0
C_266298086_266298087_0 J_266298086 J_266298087 35.58 0.013 0 0
C_266298086_266298092_0 J_266298086 J_266298092 36.55 0.013 0 0
C_266298086_266300742_0 J_266298086 J_266300742 140.51 0.013 0 0
C_266298086_266273458_0 J_266298086 J_266273458 37.49 0.013 0 0
C_266273460_6141732621_0 J_266273460 J_6141732621 108.95 0.013 0 0
C_266273460_7432244853_0 J_266273460 J_7432244853 34.64 0.013 0 0
C_266273460_266298084_0 J_266273460 J_266298084 36.73 0.013 0 0
C_7432244853_266300657_0 J_7432244853 J_266300657 35.37 0.013 0 0
C_7432244853_266273460_0 J_7432244853 J_266273460 34.64 0.013 0 0
C_7432244853_7432244855_0 J_7432244853 J_7432244855 109.93 0.013 0 0
C_266298084_266298089_0 J_266298084 J_266298089 50.28 0.013 0 0
C_266298084_266273460_0 J_266298084 J_266273460 36.73 0.013 0 0
C_266298084_266300662_0 J_266298084 J_266300662 138.02 0.013 0 0
C_266298084_2526081636_0 J_266298084 J_2526081636 63.71 0.013 0 0
C_266274986_266275089_0 J_266274986 J_266275089 52.84 0.013 0 0
C_266274986_306615476_0 J_266274986 J_306615476 83.48 0.013 0 0
C_266274986_10094586223_0 J_266274986 J_10094586223 178.85 0.013 0 0
C_266274986_2407671508_0 J_266274986 J_2407671508 64.36 0.013 0 0
C_266275089_266274986_0 J_266275089 J_266274986 52.84 0.013 0 0
C_266275089_266275088_0 J_266275089 J_266275088 40.55 0.013 0 0
C_266275089_306615019_0 J_266275089 J_306615019 176.15 0.013 0 0
C_10094586223_10094586224_0 J_10094586223 J_10094586224 85.41 0.013 0 0
C_10094586223_266275021_0 J_10094586223 J_266275021 39.56 0.013 0 0
C_10094586223_266274986_0 J_10094586223 J_266274986 178.85 0.013 0 0
C_266275021_306615461_0 J_266275021 J_306615461 85.05 0.013 0 0
C_266275021_266275022_0 J_266275021 J_266275022 38.86 0.013 0 0
C_266275021_10094586223_0 J_266275021 J_10094586223 39.56 0.013 0 0
C_306615461_266275021_0 J_306615461 J_266275021 85.05 0.013 0 0
C_306615461_306615426_0 J_306615461 J_306615426 45.81 0.013 0 0
C_306615461_10094586224_0 J_306615461 J_10094586224 41.74 0.013 0 0
C_266275022_266275021_0 J_266275022 J_266275021 38.86 0.013 0 0
C_266275022_306615202_0 J_266275022 J_306615202 131.11 0.013 0 0
C_266275022_266275023_0 J_266275022 J_266275023 52.17 0.013 0 0
C_306615202_306615239_0 J_306615202 J_306615239 38.42 0.013 0 0
C_306615202_306615426_0 J_306615202 J_306615426 38.70 0.013 0 0
C_306615202_266275022_0 J_306615202 J_266275022 131.11 0.013 0 0
C_266275023_7432382418_0 J_266275023 J_7432382418 3.97 0.013 0 0
C_266275023_306623067_0 J_266275023 J_306623067 49.96 0.013 0 0
C_266275023_266275022_0 J_266275023 J_266275022 52.17 0.013 0 0
C_266275023_306623066_0 J_266275023 J_306623066 185.06 0.013 0 0
C_7432382418_266275023_0 J_7432382418 J_266275023 3.97 0.013 0 0
C_7432382418_263386445_0 J_7432382418 J_263386445 58.30 0.013 0 0
C_306623067_3298878325_0 J_306623067 J_3298878325 82.79 0.013 0 0
C_306623067_266275023_0 J_306623067 J_266275023 49.96 0.013 0 0
C_306623067_306623070_0 J_306623067 J_306623070 190.45 0.013 0 0
C_306623066_306623070_0 J_306623066 J_306623070 55.50 0.013 0 0
C_306623066_836238547_0 J_306623066 J_836238547 133.88 0.013 0 0
C_306623066_266275023_0 J_306623066 J_266275023 185.06 0.013 0 0
C_266275088_266275089_0 J_266275088 J_266275089 40.55 0.013 0 0
C_266275088_266275087_0 J_266275088 J_266275087 36.27 0.013 0 0
C_266275088_306619953_0 J_266275088 J_306619953 177.81 0.013 0 0
C_306619953_306615019_0 J_306619953 J_306615019 38.57 0.013 0 0
C_306619953_306620007_0 J_306619953 J_306620007 35.40 0.013 0 0
C_306619953_266275088_0 J_306619953 J_266275088 177.81 0.013 0 0
C_306619953_306619844_0 J_306619953 J_306619844 137.26 0.013 0 0
C_266275456_6462301371_0 J_266275456 J_6462301371 59.34 0.013 0 0
C_266275456_2388266844_0 J_266275456 J_2388266844 55.02 0.013 0 0
C_266275456_11007254966_0 J_266275456 J_11007254966 137.61 0.013 0 0
C_6462301371_266275456_0 J_6462301371 J_266275456 59.34 0.013 0 0
C_6462301371_2388266836_0 J_6462301371 J_2388266836 8.51 0.013 0 0
C_6462301371_6462301370_0 J_6462301371 J_6462301370 51.86 0.013 0 0
C_2388266844_11903564939_0 J_2388266844 J_11903564939 14.69 0.013 0 0
C_2388266844_266275456_0 J_2388266844 J_266275456 55.02 0.013 0 0
C_11007254966_6196907479_0 J_11007254966 J_6196907479 18.95 0.013 0 0
C_11007254966_266275456_0 J_11007254966 J_266275456 137.61 0.013 0 0
C_11007254966_11007254971_0 J_11007254966 J_11007254971 74.24 0.013 0 0
C_266275460_266275461_0 J_266275460 J_266275461 71.68 0.013 0 0
C_266275460_6196907479_0 J_266275460 J_6196907479 6.66 0.013 0 0
C_266275460_11431805314_0 J_266275460 J_11431805314 61.48 0.013 0 0
C_266275461_10211111398_0 J_266275461 J_10211111398 48.84 0.013 0 0
C_266275461_4146211288_0 J_266275461 J_4146211288 21.92 0.013 0 0
C_266275461_266275460_0 J_266275461 J_266275460 71.68 0.013 0 0
C_6196907479_4146210944_0 J_6196907479 J_4146210944 68.78 0.013 0 0
C_6196907479_266275460_0 J_6196907479 J_266275460 6.66 0.013 0 0
C_6196907479_11007254966_0 J_6196907479 J_11007254966 18.95 0.013 0 0
C_11431805314_306621270_0 J_11431805314 J_306621270 20.11 0.013 0 0
C_11431805314_266275460_0 J_11431805314 J_266275460 61.48 0.013 0 0
C_11431805314_7432244864_0 J_11431805314 J_7432244864 42.72 0.013 0 0
C_10211111398_4146211286_0 J_10211111398 J_4146211286 22.87 0.013 0 0
C_10211111398_7432244866_0 J_10211111398 J_7432244866 6.23 0.013 0 0
C_10211111398_266275461_0 J_10211111398 J_266275461 48.84 0.013 0 0
C_4146211288_4146211286_0 J_4146211288 J_4146211286 46.08 0.013 0 0
C_4146211288_4146211283_0 J_4146211288 J_4146211283 27.07 0.013 0 0
C_4146211288_266275461_0 J_4146211288 J_266275461 21.92 0.013 0 0
C_266275462_5267402570_0 J_266275462 J_5267402570 51.56 0.013 0 0
C_266275462_4146211268_0 J_266275462 J_4146211268 19.71 0.013 0 0
C_266275462_4146211272_0 J_266275462 J_4146211272 14.58 0.013 0 0
C_5267402570_266275462_0 J_5267402570 J_266275462 51.56 0.013 0 0
C_5267402570_4146211271_0 J_5267402570 J_4146211271 49.16 0.013 0 0
C_5267402570_5267402569_0 J_5267402570 J_5267402569 53.12 0.013 0 0
C_4146211268_4146211270_0 J_4146211268 J_4146211270 139.72 0.013 0 0
C_4146211268_4146211265_0 J_4146211268 J_4146211265 43.19 0.013 0 0
C_4146211268_266275462_0 J_4146211268 J_266275462 19.71 0.013 0 0
C_4146211272_6504556325_0 J_4146211272 J_6504556325 53.69 0.013 0 0
C_4146211272_266275462_0 J_4146211272 J_266275462 14.58 0.013 0 0
C_4146211272_4146211279_0 J_4146211272 J_4146211279 45.92 0.013 0 0
C_266276707_266276753_0 J_266276707 J_266276753 48.21 0.013 0 0
C_266276707_6567395240_0 J_266276707 J_6567395240 22.47 0.013 0 0
C_266276707_6143210301_0 J_266276707 J_6143210301 11.58 0.013 0 0
C_266276753_266276754_0 J_266276753 J_266276754 35.42 0.013 0 0
C_266276753_266276707_0 J_266276753 J_266276707 48.21 0.013 0 0
C_266276753_306616974_0 J_266276753 J_306616974 122.22 0.013 0 0
C_6567395240_6567395228_0 J_6567395240 J_6567395228 54.20 0.013 0 0
C_6567395240_6567395237_0 J_6567395240 J_6567395237 30.09 0.013 0 0
C_6567395240_266276707_0 J_6567395240 J_266276707 22.47 0.013 0 0
C_6143210301_6567395227_0 J_6143210301 J_6567395227 56.44 0.013 0 0
C_6143210301_266276707_0 J_6143210301 J_266276707 11.58 0.013 0 0
C_6143210301_11865527609_0 J_6143210301 J_11865527609 32.15 0.013 0 0
C_266276754_266276755_0 J_266276754 J_266276755 33.12 0.013 0 0
C_266276754_266276753_0 J_266276754 J_266276753 35.42 0.013 0 0
C_266276754_306617098_0 J_266276754 J_306617098 121.92 0.013 0 0
C_306616974_306617098_0 J_306616974 J_306617098 33.18 0.013 0 0
C_306616974_622363164_0 J_306616974 J_622363164 53.98 0.013 0 0
C_306616974_266276753_0 J_306616974 J_266276753 122.22 0.013 0 0
C_266276755_266276756_0 J_266276755 J_266276756 39.92 0.013 0 0
C_266276755_266276754_0 J_266276755 J_266276754 33.12 0.013 0 0
C_266276755_306617018_0 J_266276755 J_306617018 121.53 0.013 0 0
C_306617098_306616974_0 J_306617098 J_306616974 33.18 0.013 0 0
C_306617098_306617018_0 J_306617098 J_306617018 34.21 0.013 0 0
C_306617098_266276754_0 J_306617098 J_266276754 121.92 0.013 0 0
C_266276756_266276755_0 J_266276756 J_266276755 39.92 0.013 0 0
C_266276756_306616744_0 J_266276756 J_306616744 120.63 0.013 0 0
C_266276756_306616740_0 J_266276756 J_306616740 59.98 0.013 0 0
C_306617018_306617098_0 J_306617018 J_306617098 34.21 0.013 0 0
C_306617018_306616744_0 J_306617018 J_306616744 37.75 0.013 0 0
C_306617018_266276755_0 J_306617018 J_266276755 121.53 0.013 0 0
C_266298089_266298092_0 J_266298089 J_266298092 34.88 0.013 0 0
C_266298089_266298084_0 J_266298089 J_266298084 50.28 0.013 0 0
C_266298089_266298091_0 J_266298089 J_266298091 137.84 0.013 0 0
C_266300662_266298084_0 J_266300662 J_266298084 138.02 0.013 0 0
C_266300662_266300661_0 J_266300662 J_266300661 45.82 0.013 0 0
C_266300662_266298091_0 J_266300662 J_266298091 49.59 0.013 0 0
C_266298087_266298088_0 J_266298087 J_266298088 83.59 0.013 0 0
C_266298087_266298086_0 J_266298087 J_266298086 35.58 0.013 0 0
C_266298087_266298095_0 J_266298087 J_266298095 140.83 0.013 0 0
C_266298092_266298086_0 J_266298092 J_266298086 36.55 0.013 0 0
C_266298092_266298089_0 J_266298092 J_266298089 34.88 0.013 0 0
C_266298092_266298093_0 J_266298092 J_266298093 139.38 0.013 0 0
C_266300742_266300741_0 J_266300742 J_266300741 40.80 0.013 0 0
C_266300742_266298086_0 J_266300742 J_266298086 140.51 0.013 0 0
C_266300742_266298095_0 J_266300742 J_266298095 36.49 0.013 0 0
C_266300742_266298093_0 J_266300742 J_266298093 35.75 0.013 0 0
C_266298091_266298089_0 J_266298091 J_266298089 137.84 0.013 0 0
C_266298091_266298093_0 J_266298091 J_266298093 32.91 0.013 0 0
C_266298091_266300662_0 J_266298091 J_266300662 49.59 0.013 0 0
C_266298093_266298092_0 J_266298093 J_266298092 139.38 0.013 0 0
C_266298093_266300742_0 J_266298093 J_266300742 35.75 0.013 0 0
C_266298093_266298091_0 J_266298093 J_266298091 32.91 0.013 0 0
C_266300657_7432244853_0 J_266300657 J_7432244853 35.37 0.013 0 0
C_266300657_6141732622_0 J_266300657 J_6141732622 110.84 0.013 0 0
C_266300657_3304204552_0 J_266300657 J_3304204552 62.17 0.013 0 0
C_6141732622_7432244855_0 J_6141732622 J_7432244855 40.27 0.013 0 0
C_6141732622_1473885223_0 J_6141732622 J_1473885223 77.68 0.013 0 0
C_6141732622_266300657_0 J_6141732622 J_266300657 110.84 0.013 0 0
C_3304204552_2387017402_0 J_3304204552 J_2387017402 390.31 0.013 0 0
C_3304204552_266300657_0 J_3304204552 J_266300657 62.17 0.013 0 0
C_3304204552_6560240052_0 J_3304204552 J_6560240052 23.91 0.013 0 0
C_3304204552_2526081636_0 J_3304204552 J_2526081636 105.68 0.013 0 0
C_266300661_266300662_0 J_266300661 J_266300662 45.82 0.013 0 0
C_266300661_266300741_0 J_266300661 J_266300741 117.73 0.013 0 0
C_266300661_2526081636_0 J_266300661 J_2526081636 255.23 0.013 0 0
C_266300741_11663109183_0 J_266300741 J_11663109183 5.74 0.013 0 0
C_266300741_266300742_0 J_266300741 J_266300742 40.80 0.013 0 0
C_266300741_266300661_0 J_266300741 J_266300661 117.73 0.013 0 0
C_266300741_1417443641_0 J_266300741 J_1417443641 127.18 0.013 0 0
C_11663109183_266300741_0 J_11663109183 J_266300741 5.74 0.013 0 0
C_266302974_2414639341_0 J_266302974 J_2414639341 159.71 0.013 0 0
C_266302974_266302978_0 J_266302974 J_266302978 60.31 0.013 0 0
C_266302974_5961754417_0 J_266302974 J_5961754417 28.11 0.013 0 0
C_2414639341_266302974_0 J_2414639341 J_266302974 159.71 0.013 0 0
C_2414639341_306614479_0 J_2414639341 J_306614479 63.93 0.013 0 0
C_2414639341_2414639342_0 J_2414639341 J_2414639342 17.17 0.013 0 0
C_266302978_306614881_0 J_266302978 J_306614881 48.41 0.013 0 0
C_266302978_306614901_0 J_266302978 J_306614901 153.39 0.013 0 0
C_266302978_266302974_0 J_266302978 J_266302974 60.31 0.013 0 0
C_266302978_7432283512_0 J_266302978 J_7432283512 46.82 0.013 0 0
C_5961754417_12181798460_0 J_5961754417 J_12181798460 8.08 0.013 0 0
C_5961754417_2414626606_0 J_5961754417 J_2414626606 131.64 0.013 0 0
C_306614881_266303623_0 J_306614881 J_266303623 59.92 0.013 0 0
C_306614881_266302978_0 J_306614881 J_266302978 48.41 0.013 0 0
C_306614881_306614901_0 J_306614881 J_306614901 111.60 0.013 0 0
C_306614901_306614832_0 J_306614901 J_306614832 56.25 0.013 0 0
C_306614901_306614881_0 J_306614901 J_306614881 111.60 0.013 0 0
C_306614901_266302978_0 J_306614901 J_266302978 153.39 0.013 0 0
C_7432283512_266302978_0 J_7432283512 J_266302978 46.82 0.013 0 0
C_266303004_266303953_0 J_266303004 J_266303953 50.07 0.013 0 0
C_266303004_266303064_0 J_266303004 J_266303064 213.10 0.013 0 0
C_266303004_2414639342_0 J_266303004 J_2414639342 68.39 0.013 0 0
C_266303953_266303954_0 J_266303953 J_266303954 38.94 0.013 0 0
C_266303953_266303004_0 J_266303953 J_266303004 50.07 0.013 0 0
C_266303953_266304629_0 J_266303953 J_266304629 205.60 0.013 0 0
C_266303064_266304629_0 J_266303064 J_266304629 52.57 0.013 0 0
C_266303064_266303004_0 J_266303064 J_266303004 213.10 0.013 0 0
C_266303064_2385138309_0 J_266303064 J_2385138309 170.69 0.013 0 0
C_266303064_2414635984_0 J_266303064 J_2414635984 64.16 0.013 0 0
C_2414639342_266303004_0 J_2414639342 J_266303004 68.39 0.013 0 0
C_2414639342_2414639343_0 J_2414639342 J_2414639343 51.13 0.013 0 0
C_2414639342_2414639341_0 J_2414639342 J_2414639341 17.17 0.013 0 0
C_266304629_308452451_0 J_266304629 J_308452451 121.42 0.013 0 0
C_266304629_266304630_0 J_266304629 J_266304630 38.38 0.013 0 0
C_266304629_266303064_0 J_266304629 J_266303064 52.57 0.013 0 0
C_266304629_266303953_0 J_266304629 J_266303953 205.60 0.013 0 0
C_2385138309_266303064_0 J_2385138309 J_266303064 170.69 0.013 0 0
C_2414635984_306620763_0 J_2414635984 J_306620763 67.10 0.013 0 0
C_2414635984_266303064_0 J_2414635984 J_266303064 64.16 0.013 0 0
C_2414635984_3298857094_0 J_2414635984 J_3298857094 201.41 0.013 0 0
C_2414635984_2414639343_0 J_2414635984 J_2414639343 170.24 0.013 0 0
C_266303623_306614881_0 J_266303623 J_306614881 59.92 0.013 0 0
C_266303623_306614842_0 J_266303623 J_306614842 63.31 0.013 0 0
C_266303623_266303624_0 J_266303623 J_266303624 106.25 0.013 0 0
C_306614842_306614832_0 J_306614842 J_306614832 55.45 0.013 0 0
C_306614842_306614850_0 J_306614842 J_306614850 110.19 0.013 0 0
C_306614842_266303623_0 J_306614842 J_266303623 63.31 0.013 0 0
C_266303624_266303625_0 J_266303624 J_266303625 65.99 0.013 0 0
C_266303624_306614967_0 J_266303624 J_306614967 57.42 0.013 0 0
C_266303624_266303623_0 J_266303624 J_266303623 106.25 0.013 0 0
C_266303624_306614850_0 J_266303624 J_306614850 77.87 0.013 0 0
C_266303625_266303626_0 J_266303625 J_266303626 45.51 0.013 0 0
C_266303625_266303624_0 J_266303625 J_266303624 65.99 0.013 0 0
C_266303625_306614734_0 J_266303625 J_306614734 145.43 0.013 0 0
C_266303625_306617634_0 J_266303625 J_306617634 102.56 0.013 0 0
C_306614967_306614924_0 J_306614967 J_306614924 49.95 0.013 0 0
C_306614967_266303624_0 J_306614967 J_266303624 57.42 0.013 0 0
C_306614967_11476594000_0 J_306614967 J_11476594000 190.59 0.013 0 0
C_306614850_306614842_0 J_306614850 J_306614842 110.19 0.013 0 0
C_306614850_306614738_0 J_306614850 J_306614738 53.86 0.013 0 0
C_306614850_266303624_0 J_306614850 J_266303624 77.87 0.013 0 0
C_266303626_266303627_0 J_266303626 J_266303627 56.37 0.013 0 0
C_266303626_266303625_0 J_266303626 J_266303625 45.51 0.013 0 0
C_266303626_306617742_0 J_266303626 J_306617742 68.73 0.013 0 0
C_266303626_306617687_0 J_266303626 J_306617687 94.66 0.013 0 0
C_306614734_306617731_0 J_306614734 J_306617731 49.42 0.013 0 0
C_306614734_306614738_0 J_306614734 J_306614738 62.18 0.013 0 0
C_306614734_266303625_0 J_306614734 J_266303625 145.43 0.013 0 0
C_306617634_306614481_0 J_306617634 J_306614481 55.30 0.013 0 0
C_306617634_306617687_0 J_306617634 J_306617687 47.04 0.013 0 0
C_306617634_266303625_0 J_306617634 J_266303625 102.56 0.013 0 0
C_266303627_266303628_0 J_266303627 J_266303628 46.77 0.013 0 0
C_266303627_266303626_0 J_266303627 J_266303626 56.37 0.013 0 0
C_266303627_11007453622_0 J_266303627 J_11007453622 85.69 0.013 0 0
C_306617742_306617735_0 J_306617742 J_306617735 40.21 0.013 0 0
C_306617742_306617758_0 J_306617742 J_306617758 91.87 0.013 0 0
C_306617742_266303626_0 J_306617742 J_266303626 68.73 0.013 0 0
C_306617687_306617634_0 J_306617687 J_306617634 47.04 0.013 0 0
C_306617687_11007453622_0 J_306617687 J_11007453622 55.56 0.013 0 0
C_306617687_266303626_0 J_306617687 J_266303626 94.66 0.013 0 0
C_266303628_266303629_0 J_266303628 J_266303629 47.30 0.013 0 0
C_266303628_266303627_0 J_266303628 J_266303627 46.77 0.013 0 0
C_266303628_306617758_0 J_266303628 J_306617758 86.52 0.013 0 0
C_266303628_306617751_0 J_266303628 J_306617751 80.26 0.013 0 0
C_11007453622_306617687_0 J_11007453622 J_306617687 55.56 0.013 0 0
C_11007453622_306617751_0 J_11007453622 J_306617751 49.07 0.013 0 0
C_11007453622_266303627_0 J_11007453622 J_266303627 85.69 0.013 0 0
C_266303629_9189927178_0 J_266303629 J_9189927178 73.65 0.013 0 0
C_266303629_266303628_0 J_266303629 J_266303628 47.30 0.013 0 0
C_266303629_6178041423_0 J_266303629 J_6178041423 55.95 0.013 0 0
C_266303629_306617686_0 J_266303629 J_306617686 75.07 0.013 0 0
C_306617758_306617745_0 J_306617758 J_306617745 43.15 0.013 0 0
C_306617758_306617742_0 J_306617758 J_306617742 91.87 0.013 0 0
C_306617758_266303628_0 J_306617758 J_266303628 86.52 0.013 0 0
C_306617751_11007453622_0 J_306617751 J_11007453622 49.07 0.013 0 0
C_306617751_306617686_0 J_306617751 J_306617686 46.63 0.013 0 0
C_306617751_266303628_0 J_306617751 J_266303628 80.26 0.013 0 0
C_9189927178_1473890785_0 J_9189927178 J_1473890785 43.00 0.013 0 0
C_9189927178_266303629_0 J_9189927178 J_266303629 73.65 0.013 0 0
C_9189927178_9189927179_0 J_9189927178 J_9189927179 72.58 0.013 0 0
C_6178041423_306617745_0 J_6178041423 J_306617745 38.40 0.013 0 0
C_6178041423_6178041422_0 J_6178041423 J_6178041422 52.34 0.013 0 0
C_6178041423_266303629_0 J_6178041423 J_266303629 55.95 0.013 0 0
C_306617686_306617751_0 J_306617686 J_306617751 46.63 0.013 0 0
C_306617686_9189927179_0 J_306617686 J_9189927179 73.26 0.013 0 0
C_306617686_266303629_0 J_306617686 J_266303629 75.07 0.013 0 0
C_306617686_306614481_0 J_306617686 J_306614481 255.78 0.013 0 0
C_266303954_266303955_0 J_266303954 J_266303955 110.21 0.013 0 0
C_266303954_266303953_0 J_266303954 J_266303953 38.94 0.013 0 0
C_266303954_266304630_0 J_266303954 J_266304630 201.16 0.013 0 0
C_266303955_266303956_0 J_266303955 J_266303956 66.76 0.013 0 0
C_266303955_266303954_0 J_266303955 J_266303954 110.21 0.013 0 0
C_266303955_266304631_0 J_266303955 J_266304631 186.17 0.013 0 0
C_266304630_308452454_0 J_266304630 J_308452454 124.10 0.013 0 0
C_266304630_5292923940_0 J_266304630 J_5292923940 45.18 0.013 0 0
C_266304630_266304629_0 J_266304630 J_266304629 38.38 0.013 0 0
C_266304630_266303954_0 J_266304630 J_266303954 201.16 0.013 0 0
C_266303956_266304632_0 J_266303956 J_266304632 179.02 0.013 0 0
C_266303956_266303955_0 J_266303956 J_266303955 66.76 0.013 0 0
C_266303956_6132249479_0 J_266303956 J_6132249479 8.29 0.013 0 0
C_266304631_5292923940_0 J_266304631 J_5292923940 63.67 0.013 0 0
C_266304631_266304632_0 J_266304631 J_266304632 63.15 0.013 0 0
C_266304631_266303955_0 J_266304631 J_266303955 186.17 0.013 0 0
C_266304631_2407759902_0 J_266304631 J_2407759902 159.43 0.013 0 0
C_266304632_266303956_0 J_266304632 J_266303956 179.02 0.013 0 0
C_266304632_266304631_0 J_266304632 J_266304631 63.15 0.013 0 0
C_266304632_2400167301_0 J_266304632 J_2400167301 80.44 0.013 0 0
C_6132249479_11476594021_0 J_6132249479 J_11476594021 5.44 0.013 0 0
C_6132249479_266303956_0 J_6132249479 J_266303956 8.29 0.013 0 0
C_6132249479_306614481_0 J_6132249479 J_306614481 18.80 0.013 0 0
C_266304402_306620508_0 J_266304402 J_306620508 37.25 0.013 0 0
C_266304402_266304400_0 J_266304402 J_266304400 47.40 0.013 0 0
C_266304402_266318288_0 J_266304402 J_266318288 142.69 0.013 0 0
C_266313958_266313980_0 J_266313958 J_266313980 116.89 0.013 0 0
C_266313958_266313984_0 J_266313958 J_266313984 33.78 0.013 0 0
C_266313958_266304400_0 J_266313958 J_266304400 62.40 0.013 0 0
C_266313958_5292300571_0 J_266313958 J_5292300571 34.26 0.013 0 0
C_306620508_306620373_0 J_306620508 J_306620373 35.86 0.013 0 0
C_306620508_266304402_0 J_306620508 J_266304402 37.25 0.013 0 0
C_306620508_266318287_0 J_306620508 J_266318287 150.43 0.013 0 0
C_266318288_266318287_0 J_266318288 J_266318287 40.08 0.013 0 0
C_266318288_9696939532_0 J_266318288 J_9696939532 33.58 0.013 0 0
C_266318288_266304402_0 J_266318288 J_266304402 142.69 0.013 0 0
C_308452451_266304629_0 J_308452451 J_266304629 121.42 0.013 0 0
C_308452454_266304630_0 J_308452454 J_266304630 124.10 0.013 0 0
C_5292923940_266304631_0 J_5292923940 J_266304631 63.67 0.013 0 0
C_5292923940_266304630_0 J_5292923940 J_266304630 45.18 0.013 0 0
C_5292923940_5292923939_0 J_5292923940 J_5292923939 130.80 0.013 0 0
C_2407759902_266304631_0 J_2407759902 J_266304631 159.43 0.013 0 0
C_2400167301_650141087_0 J_2400167301 J_650141087 6.73 0.013 0 0
C_2400167301_12067305544_0 J_2400167301 J_12067305544 361.31 0.013 0 0
C_2400167301_266304632_0 J_2400167301 J_266304632 80.44 0.013 0 0
C_3298857091_266310433_0 J_3298857091 J_266310433 16.07 0.013 0 0
C_3298857091_266310426_0 J_3298857091 J_266310426 61.20 0.013 0 0
C_3298857091_3298857093_0 J_3298857091 J_3298857093 170.21 0.013 0 0
C_306621180_266310426_0 J_306621180 J_266310426 52.99 0.013 0 0
C_306621180_306621179_0 J_306621180 J_306621179 120.46 0.013 0 0
C_306621180_6196261543_0 J_306621180 J_6196261543 41.25 0.013 0 0
C_306621180_7432244870_0 J_306621180 J_7432244870 44.15 0.013 0 0
C_266310433_7432244872_0 J_266310433 J_7432244872 29.45 0.013 0 0
C_266310433_266310437_0 J_266310433 J_266310437 40.29 0.013 0 0
C_266310433_3298857091_0 J_266310433 J_3298857091 16.07 0.013 0 0
C_7432244872_266310445_0 J_7432244872 J_266310445 37.08 0.013 0 0
C_7432244872_266310433_0 J_7432244872 J_266310433 29.45 0.013 0 0
C_7432244872_7432244873_0 J_7432244872 J_7432244873 54.37 0.013 0 0
C_266310437_266310471_0 J_266310437 J_266310471 43.37 0.013 0 0
C_266310437_266310441_0 J_266310437 J_266310441 131.51 0.013 0 0
C_266310437_266310433_0 J_266310437 J_266310433 40.29 0.013 0 0
C_266310471_266318343_0 J_266310471 J_266318343 36.95 0.013 0 0
C_266310471_266310437_0 J_266310471 J_266310437 43.37 0.013 0 0
C_266310471_306620825_0 J_266310471 J_306620825 136.00 0.013 0 0
C_266310441_306620828_0 J_266310441 J_306620828 14.26 0.013 0 0
C_266310441_306620318_0 J_266310441 J_306620318 64.39 0.013 0 0
C_266310441_306620866_0 J_266310441 J_306620866 48.05 0.013 0 0
C_266310441_266310437_0 J_266310441 J_266310437 131.51 0.013 0 0
C_306620828_306620825_0 J_306620828 J_306620825 40.52 0.013 0 0
C_306620828_266310441_0 J_306620828 J_266310441 14.26 0.013 0 0
C_306620828_306620833_0 J_306620828 J_306620833 120.99 0.013 0 0
C_306620318_266310441_0 J_306620318 J_266310441 64.39 0.013 0 0
C_306620318_306620373_0 J_306620318 J_306620373 37.36 0.013 0 0
C_306620318_266310445_0 J_306620318 J_266310445 159.56 0.013 0 0
C_306620866_306620788_0 J_306620866 J_306620788 72.90 0.013 0 0
C_306620866_266310441_0 J_306620866 J_266310441 48.05 0.013 0 0
C_306620866_306620870_0 J_306620866 J_306620870 42.43 0.013 0 0
C_266310445_266318286_0 J_266310445 J_266318286 39.88 0.013 0 0
C_266310445_7432244872_0 J_266310445 J_7432244872 37.08 0.013 0 0
C_266310445_306620318_0 J_266310445 J_306620318 159.56 0.013 0 0
C_266318286_266318287_0 J_266318286 J_266318287 36.96 0.013 0 0
C_266318286_266310445_0 J_266318286 J_266310445 39.88 0.013 0 0
C_266318286_306620373_0 J_266318286 J_306620373 157.12 0.013 0 0
C_266318343_266318344_0 J_266318343 J_266318344 38.88 0.013 0 0
C_266318343_266310471_0 J_266318343 J_266310471 36.95 0.013 0 0
C_266318343_306620803_0 J_266318343 J_306620803 139.44 0.013 0 0
C_306620825_306620803_0 J_306620825 J_306620803 37.21 0.013 0 0
C_306620825_306620828_0 J_306620825 J_306620828 40.52 0.013 0 0
C_306620825_306620826_0 J_306620825 J_306620826 120.96 0.013 0 0
C_306620825_266310471_0 J_306620825 J_266310471 136.00 0.013 0 0
C_266313980_266318559_0 J_266313980 J_266318559 35.75 0.013 0 0
C_266313980_266313958_0 J_266313980 J_266313958 116.89 0.013 0 0
C_266313980_10094504111_0 J_266313980 J_10094504111 32.26 0.013 0 0
C_266313984_266313958_0 J_266313984 J_266313958 33.78 0.013 0 0
C_266313984_266318628_0 J_266313984 J_266318628 38.73 0.013 0 0
C_266313984_306616045_0 J_266313984 J_306616045 161.90 0.013 0 0
C_5292300571_266313990_0 J_5292300571 J_266313990 80.15 0.013 0 0
C_5292300571_266313958_0 J_5292300571 J_266313958 34.26 0.013 0 0
C_5292300571_11245714088_0 J_5292300571 J_11245714088 122.21 0.013 0 0
C_266313967_306616045_0 J_266313967 J_306616045 33.43 0.013 0 0
C_266313967_11245714088_0 J_266313967 J_11245714088 2.55 0.013 0 0
C_266313967_266313975_0 J_266313967 J_266313975 53.50 0.013 0 0
C_306616045_266313984_0 J_306616045 J_266313984 161.90 0.013 0 0
C_306616045_266313967_0 J_306616045 J_266313967 33.43 0.013 0 0
C_306616045_306616092_0 J_306616045 J_306616092 39.25 0.013 0 0
C_11245714088_266314020_0 J_11245714088 J_266314020 79.65 0.013 0 0
C_11245714088_5292300571_0 J_11245714088 J_5292300571 122.21 0.013 0 0
C_11245714088_266313967_0 J_11245714088 J_266313967 2.55 0.013 0 0
C_266313975_306622080_0 J_266313975 J_306622080 79.83 0.013 0 0
C_266313975_306616029_0 J_266313975 J_306616029 110.28 0.013 0 0
C_266313975_266313967_0 J_266313975 J_266313967 53.50 0.013 0 0
C_306622080_266313975_0 J_306622080 J_266313975 79.83 0.013 0 0
C_306622080_306622157_0 J_306622080 J_306622157 56.49 0.013 0 0
C_306622080_266318996_0 J_306622080 J_266318996 108.39 0.013 0 0
C_306616029_7432382410_0 J_306616029 J_7432382410 15.45 0.013 0 0
C_306616029_306622158_0 J_306616029 J_306622158 55.92 0.013 0 0
C_306616029_306616044_0 J_306616029 J_306616044 54.12 0.013 0 0
C_306616029_266313975_0 J_306616029 J_266313975 110.28 0.013 0 0
C_10094504111_266313980_0 J_10094504111 J_266313980 32.26 0.013 0 0
C_10094504111_266313990_0 J_10094504111 J_266313990 36.28 0.013 0 0
C_10094504111_266314026_0 J_10094504111 J_266314026 118.46 0.013 0 0
C_266318628_266313984_0 J_266318628 J_266313984 38.73 0.013 0 0
C_266318628_266318627_0 J_266318628 J_266318627 38.13 0.013 0 0
C_266318628_306616092_0 J_266318628 J_306616092 168.35 0.013 0 0
C_266313990_5292300571_0 J_266313990 J_5292300571 80.15 0.013 0 0
C_266313990_266314020_0 J_266313990 J_266314020 118.28 0.013 0 0
C_266313990_10094504111_0 J_266313990 J_10094504111 36.28 0.013 0 0
C_266314020_266314026_0 J_266314020 J_266314026 36.16 0.013 0 0
C_266314020_11245714088_0 J_266314020 J_11245714088 79.65 0.013 0 0
C_266314020_266313990_0 J_266314020 J_266313990 118.28 0.013 0 0
C_266314026_266314031_0 J_266314026 J_266314031 33.81 0.013 0 0
C_266314026_266314020_0 J_266314026 J_266314020 36.16 0.013 0 0
C_266314026_10094504111_0 J_266314026 J_10094504111 118.46 0.013 0 0
C_266314031_266314035_0 J_266314031 J_266314035 39.36 0.013 0 0
C_266314031_266314026_0 J_266314031 J_266314026 33.81 0.013 0 0
C_266314031_266318559_0 J_266314031 J_266318559 148.69 0.013 0 0
C_266318996_10094504110_0 J_266318996 J_10094504110 38.47 0.013 0 0
C_266318996_266314035_0 J_266318996 J_266314035 52.52 0.013 0 0
C_266318996_306622080_0 J_266318996 J_306622080 108.39 0.013 0 0
C_266316218_306622275_0 J_266316218 J_306622275 212.94 0.013 0 0
C_266316218_306622887_0 J_266316218 J_306622887 48.36 0.013 0 0
C_266316218_306622206_0 J_266316218 J_306622206 42.95 0.013 0 0
C_266316218_2406084993_0 J_266316218 J_2406084993 57.06 0.013 0 0
C_306622275_306622244_0 J_306622275 J_306622244 43.05 0.013 0 0
C_306622275_306622059_0 J_306622275 J_306622059 37.23 0.013 0 0
C_306622275_266316218_0 J_306622275 J_266316218 212.94 0.013 0 0
C_306622887_306622935_0 J_306622887 J_306622935 39.00 0.013 0 0
C_306622887_306622157_0 J_306622887 J_306622157 129.97 0.013 0 0
C_306622887_266316218_0 J_306622887 J_266316218 48.36 0.013 0 0
C_306622206_306622244_0 J_306622206 J_306622244 215.66 0.013 0 0
C_306622206_266316218_0 J_306622206 J_266316218 42.95 0.013 0 0
C_306622206_306622782_0 J_306622206 J_306622782 205.42 0.013 0 0
C_2406084993_10094504110_0 J_2406084993 J_10094504110 35.61 0.013 0 0
C_2406084993_306621921_0 J_2406084993 J_306621921 99.40 0.013 0 0
C_2406084993_266316218_0 J_2406084993 J_266316218 57.06 0.013 0 0
C_2406084993_10094504108_0 J_2406084993 J_10094504108 143.03 0.013 0 0
C_266318287_266318288_0 J_266318287 J_266318288 40.08 0.013 0 0
C_266318287_266318286_0 J_266318287 J_266318286 36.96 0.013 0 0
C_266318287_306620508_0 J_266318287 J_306620508 150.43 0.013 0 0
C_306620373_306620318_0 J_306620373 J_306620318 37.36 0.013 0 0
C_306620373_306620508_0 J_306620373 J_306620508 35.86 0.013 0 0
C_306620373_266318286_0 J_306620373 J_266318286 157.12 0.013 0 0
C_9696939532_266318288_0 J_9696939532 J_266318288 33.58 0.013 0 0
C_266318344_266318345_0 J_266318344 J_266318345 50.25 0.013 0 0
C_266318344_266318343_0 J_266318344 J_266318343 38.88 0.013 0 0
C_266318344_306620799_0 J_266318344 J_306620799 142.80 0.013 0 0
C_306620803_306620799_0 J_306620803 J_306620799 35.87 0.013 0 0
C_306620803_306620825_0 J_306620803 J_306620825 37.21 0.013 0 0
C_306620803_306620804_0 J_306620803 J_306620804 120.90 0.013 0 0
C_306620803_266318343_0 J_306620803 J_266318343 139.44 0.013 0 0
C_266318345_266318344_0 J_266318345 J_266318344 50.25 0.013 0 0
C_266318345_306620763_0 J_266318345 J_306620763 148.01 0.013 0 0
C_266318345_3298857093_0 J_266318345 J_3298857093 51.27 0.013 0 0
C_306620799_306620763_0 J_306620799 J_306620763 50.96 0.013 0 0
C_306620799_306620803_0 J_306620799 J_306620803 35.87 0.013 0 0
C_306620799_306620800_0 J_306620799 J_306620800 120.99 0.013 0 0
C_306620799_266318344_0 J_306620799 J_266318344 142.80 0.013 0 0
C_306620763_306620799_0 J_306620763 J_306620799 50.96 0.013 0 0
C_306620763_306620795_0 J_306620763 J_306620795 120.40 0.013 0 0
C_306620763_266318345_0 J_306620763 J_266318345 148.01 0.013 0 0
C_306620763_2414635984_0 J_306620763 J_2414635984 67.10 0.013 0 0
C_3298857093_266318345_0 J_3298857093 J_266318345 51.27 0.013 0 0
C_3298857093_3298857091_0 J_3298857093 J_3298857091 170.21 0.013 0 0
C_3298857093_3298857094_0 J_3298857093 J_3298857094 62.60 0.013 0 0
C_266318627_266318628_0 J_266318627 J_266318628 38.13 0.013 0 0
C_266318627_266318626_0 J_266318627 J_266318626 56.24 0.013 0 0
C_266318627_306616044_0 J_266318627 J_306616044 173.50 0.013 0 0
C_306616044_306616092_0 J_306616044 J_306616092 36.08 0.013 0 0
C_306616044_266318627_0 J_306616044 J_266318627 173.50 0.013 0 0
C_306616044_306616029_0 J_306616044 J_306616029 54.12 0.013 0 0
C_306616092_266318628_0 J_306616092 J_266318628 168.35 0.013 0 0
C_306616092_306616045_0 J_306616092 J_306616045 39.25 0.013 0 0
C_306616092_306616044_0 J_306616092 J_306616044 36.08 0.013 0 0
C_10094504107_266318994_0 J_10094504107 J_266318994 18.21 0.013 0 0
C_10094504110_266318996_0 J_10094504110 J_266318996 38.47 0.013 0 0
C_10094504110_2406084993_0 J_10094504110 J_2406084993 35.61 0.013 0 0
C_10094504110_10094504108_0 J_10094504110 J_10094504108 157.95 0.013 0 0
C_306608060_6131903446_0 J_306608060 J_6131903446 8.40 0.013 0 0
C_306608060_1417443517_0 J_306608060 J_1417443517 48.78 0.013 0 0
C_6131903446_306608060_0 J_6131903446 J_306608060 8.40 0.013 0 0
C_6131903446_6132603450_0 J_6131903446 J_6132603450 41.21 0.013 0 0
C_1417443517_3504342593_0 J_1417443517 J_3504342593 153.76 0.013 0 0
C_1417443517_5267835373_0 J_1417443517 J_5267835373 30.38 0.013 0 0
C_1417443517_306608060_0 J_1417443517 J_306608060 48.78 0.013 0 0
C_306608698_2407745349_0 J_306608698 J_2407745349 55.17 0.013 0 0
C_306608698_306608898_0 J_306608698 J_306608898 60.30 0.013 0 0
C_306608698_306609464_0 J_306608698 J_306609464 128.76 0.013 0 0
C_2407745349_306608698_0 J_2407745349 J_306608698 55.17 0.013 0 0
C_2407745349_3287849051_0 J_2407745349 J_3287849051 138.30 0.013 0 0
C_2407745349_3287849054_0 J_2407745349 J_3287849054 165.09 0.013 0 0
C_306608898_306609693_0 J_306608898 J_306609693 128.56 0.013 0 0
C_306608898_306609212_0 J_306608898 J_306609212 49.67 0.013 0 0
C_306608898_306608698_0 J_306608898 J_306608698 60.30 0.013 0 0
C_306608699_306613002_0 J_306608699 J_306613002 46.96 0.013 0 0
C_306608699_3287849054_0 J_306608699 J_3287849054 60.79 0.013 0 0
C_306608699_306608700_0 J_306608699 J_306608700 158.20 0.013 0 0
C_306608699_306609212_0 J_306608699 J_306609212 56.79 0.013 0 0
C_306613002_306609958_0 J_306613002 J_306609958 47.13 0.013 0 0
C_306613002_306608699_0 J_306613002 J_306608699 46.96 0.013 0 0
C_306613002_306612973_0 J_306613002 J_306612973 156.46 0.013 0 0
C_3287849054_306608699_0 J_3287849054 J_306608699 60.79 0.013 0 0
C_3287849054_2407745349_0 J_3287849054 J_2407745349 165.09 0.013 0 0
C_3287849054_306609759_0 J_3287849054 J_306609759 210.13 0.013 0 0
C_3287849054_2389125034_0 J_3287849054 J_2389125034 25.03 0.013 0 0
C_306608700_306612973_0 J_306608700 J_306612973 47.58 0.013 0 0
C_306608700_595766458_0 J_306608700 J_595766458 48.36 0.013 0 0
C_306608700_306608699_0 J_306608700 J_306608699 158.20 0.013 0 0
C_306609212_306609695_0 J_306609212 J_306609695 131.43 0.013 0 0
C_306609212_306608898_0 J_306609212 J_306608898 49.67 0.013 0 0
C_306609212_306608699_0 J_306609212 J_306608699 56.79 0.013 0 0
C_306612973_306612958_0 J_306612973 J_306612958 51.60 0.013 0 0
C_306612973_306608700_0 J_306612973 J_306608700 47.58 0.013 0 0
C_306612973_306613002_0 J_306612973 J_306613002 156.46 0.013 0 0
C_595766458_306610154_0 J_595766458 J_306610154 102.35 0.013 0 0
C_595766458_306609759_0 J_595766458 J_306609759 62.47 0.013 0 0
C_595766458_306608700_0 J_595766458 J_306608700 48.36 0.013 0 0
C_306609696_306610173_0 J_306609696 J_306610173 10.05 0.013 0 0
C_306609696_306609958_0 J_306609696 J_306609958 41.02 0.013 0 0
C_306609696_306609695_0 J_306609696 J_306609695 54.26 0.013 0 0
C_306610173_306609696_0 J_306610173 J_306609696 10.05 0.013 0 0
C_306610173_306610572_0 J_306610173 J_306610572 202.48 0.013 0 0
C_306610173_306610573_0 J_306610173 J_306610573 63.28 0.013 0 0
C_306609958_306609696_0 J_306609958 J_306609696 41.02 0.013 0 0
C_306609958_306613002_0 J_306609958 J_306613002 47.13 0.013 0 0
C_306609958_306612958_0 J_306609958 J_306612958 153.54 0.013 0 0
C_306609759_595766458_0 J_306609759 J_595766458 62.47 0.013 0 0
C_306609759_306612919_0 J_306609759 J_306612919 53.23 0.013 0 0
C_306609759_3287849054_0 J_306609759 J_3287849054 210.13 0.013 0 0
C_306612919_306612930_0 J_306612919 J_306612930 168.47 0.013 0 0
C_306612919_306609759_0 J_306612919 J_306609759 53.23 0.013 0 0
C_306612919_306612914_0 J_306612919 J_306612914 65.91 0.013 0 0
C_306609760_306610572_0 J_306609760 J_306610572 65.13 0.013 0 0
C_306609760_306612931_0 J_306609760 J_306612931 48.37 0.013 0 0
C_306609760_306619696_0 J_306609760 J_306619696 66.16 0.013 0 0
C_306610572_306609760_0 J_306610572 J_306609760 65.13 0.013 0 0
C_306610572_306610154_0 J_306610572 J_306610154 53.36 0.013 0 0
C_306610572_306610173_0 J_306610572 J_306610173 202.48 0.013 0 0
C_306612931_306609760_0 J_306612931 J_306609760 48.37 0.013 0 0
C_306612931_306612930_0 J_306612931 J_306612930 119.32 0.013 0 0
C_306612931_595766589_0 J_306612931 J_595766589 63.06 0.013 0 0
C_306619696_306609760_0 J_306619696 J_306609760 66.16 0.013 0 0
C_306619696_306619706_0 J_306619696 J_306619706 47.95 0.013 0 0
C_306619696_306610573_0 J_306619696 J_306610573 132.22 0.013 0 0
C_306612958_306610154_0 J_306612958 J_306610154 49.58 0.013 0 0
C_306612958_306612973_0 J_306612958 J_306612973 51.60 0.013 0 0
C_306612958_306609958_0 J_306612958 J_306609958 153.54 0.013 0 0
C_306610154_306610572_0 J_306610154 J_306610572 53.36 0.013 0 0
C_306610154_595766458_0 J_306610154 J_595766458 102.35 0.013 0 0
C_306610154_306612930_0 J_306610154 J_306612930 50.48 0.013 0 0
C_306610154_306612958_0 J_306610154 J_306612958 49.58 0.013 0 0
C_306612930_306610154_0 J_306612930 J_306610154 50.48 0.013 0 0
C_306612930_306612931_0 J_306612930 J_306612931 119.32 0.013 0 0
C_306612930_306612919_0 J_306612930 J_306612919 168.47 0.013 0 0
C_306612930_306610155_0 J_306612930 J_306610155 64.74 0.013 0 0
C_306610155_306612930_0 J_306610155 J_306612930 64.74 0.013 0 0
C_306610155_306611495_0 J_306610155 J_306611495 88.93 0.013 0 0
C_306611495_12249984864_0 J_306611495 J_12249984864 5.22 0.013 0 0
C_306611495_595766589_0 J_306611495 J_595766589 30.98 0.013 0 0
C_306610573_306610651_0 J_306610573 J_306610651 49.52 0.013 0 0
C_306610573_306619696_0 J_306610573 J_306619696 132.22 0.013 0 0
C_306610573_306610173_0 J_306610573 J_306610173 63.28 0.013 0 0
C_306610698_306619706_0 J_306610698 J_306619706 175.57 0.013 0 0
C_306610698_11259448960_0 J_306610698 J_11259448960 63.51 0.013 0 0
C_11259448960_11259448963_0 J_11259448960 J_11259448963 9.08 0.013 0 0
C_11259448960_11259448972_0 J_11259448960 J_11259448972 48.12 0.013 0 0
C_306611194_306611189_0 J_306611194 J_306611189 398.20 0.013 0 0
C_306611195_2619300330_0 J_306611195 J_2619300330 9.28 0.013 0 0
C_306611195_306611194_0 J_306611195 J_306611194 90.26 0.013 0 0
C_306611195_306611382_0 J_306611195 J_306611382 26.64 0.013 0 0
C_2619300330_306611195_0 J_2619300330 J_306611195 9.28 0.013 0 0
C_306611382_306611892_0 J_306611382 J_306611892 35.78 0.013 0 0
C_306611382_306619117_0 J_306611382 J_306619117 102.45 0.013 0 0
C_306611382_306611195_0 J_306611382 J_306611195 26.64 0.013 0 0
C_306611892_306619140_0 J_306611892 J_306619140 97.69 0.013 0 0
C_306611892_306611891_0 J_306611892 J_306611891 62.97 0.013 0 0
C_306611892_306611382_0 J_306611892 J_306611382 35.78 0.013 0 0
C_306619117_306619149_0 J_306619117 J_306619149 63.83 0.013 0 0
C_306619117_306611382_0 J_306619117 J_306611382 102.45 0.013 0 0
C_306619117_6885082500_0 J_306619117 J_6885082500 234.65 0.013 0 0
C_306611415_1417443741_0 J_306611415 J_1417443741 51.22 0.013 0 0
C_306611415_306611644_0 J_306611415 J_306611644 44.73 0.013 0 0
C_1417443741_1417443740_0 J_1417443741 J_1417443740 24.21 0.013 0 0
C_1417443741_10081671363_0 J_1417443741 J_10081671363 36.02 0.013 0 0
C_306611644_306611552_0 J_306611644 J_306611552 67.83 0.013 0 0
C_306611644_306612056_0 J_306611644 J_306612056 58.15 0.013 0 0
C_12249984864_306611495_0 J_12249984864 J_306611495 5.22 0.013 0 0
C_12249984864_306619430_0 J_12249984864 J_306619430 68.94 0.013 0 0
C_12249984864_6885082496_0 J_12249984864 J_6885082496 202.05 0.013 0 0
C_595766589_306612931_0 J_595766589 J_306612931 63.06 0.013 0 0
C_595766589_306610698_0 J_595766589 J_306610698 49.06 0.013 0 0
C_306611516_306611889_0 J_306611516 J_306611889 77.92 0.013 0 0
C_306611516_10081671362_0 J_306611516 J_10081671362 115.51 0.013 0 0
C_306611889_306611516_0 J_306611889 J_306611516 77.92 0.013 0 0
C_306611889_306611919_0 J_306611889 J_306611919 130.95 0.013 0 0
C_306611889_306611189_0 J_306611889 J_306611189 33.67 0.013 0 0
C_10081671362_306611796_0 J_10081671362 J_306611796 17.77 0.013 0 0
C_10081671362_306611516_0 J_10081671362 J_306611516 115.51 0.013 0 0
C_10081671362_9918817333_0 J_10081671362 J_9918817333 123.51 0.013 0 0
C_306611517_306611552_0 J_306611517 J_306611552 23.79 0.013 0 0
C_306611552_306611517_0 J_306611552 J_306611517 23.79 0.013 0 0
C_306611552_306611644_0 J_306611552 J_306611644 67.83 0.013 0 0
C_306611552_306611796_0 J_306611552 J_306611796 262.46 0.013 0 0
C_306611796_306611825_0 J_306611796 J_306611825 71.71 0.013 0 0
C_306611796_306611552_0 J_306611796 J_306611552 262.46 0.013 0 0
C_306611796_10081671362_0 J_306611796 J_10081671362 17.77 0.013 0 0
C_306612056_306612267_0 J_306612056 J_306612267 49.45 0.013 0 0
C_306612056_306611825_0 J_306612056 J_306611825 204.29 0.013 0 0
C_306611825_306611796_0 J_306611825 J_306611796 71.71 0.013 0 0
C_306611825_306612124_0 J_306611825 J_306612124 36.06 0.013 0 0
C_306612124_306612223_0 J_306612124 J_306612223 66.10 0.013 0 0
C_306612124_306611889_0 J_306612124 J_306611889 62.17 0.013 0 0
C_306611919_306612221_0 J_306611919 J_306612221 56.96 0.013 0 0
C_306611919_306612001_0 J_306611919 J_306612001 33.10 0.013 0 0
C_306611919_306611889_0 J_306611919 J_306611889 130.95 0.013 0 0
C_306611891_6182617723_0 J_306611891 J_6182617723 52.82 0.013 0 0
C_306611891_306611892_0 J_306611891 J_306611892 62.97 0.013 0 0
C_306611891_306612586_0 J_306611891 J_306612586 38.85 0.013 0 0
C_6182617723_306612391_0 J_6182617723 J_306612391 100.00 0.013 0 0
C_6182617723_306612483_0 J_6182617723 J_306612483 64.85 0.013 0 0
C_6182617723_306611891_0 J_6182617723 J_306611891 52.82 0.013 0 0
C_306612586_5267822918_0 J_306612586 J_5267822918 49.09 0.013 0 0
C_306612586_306611891_0 J_306612586 J_306611891 38.85 0.013 0 0
C_306612586_306612561_0 J_306612586 J_306612561 117.90 0.013 0 0
C_306619140_306611892_0 J_306619140 J_306611892 97.69 0.013 0 0
C_306619140_306619251_0 J_306619140 J_306619251 62.28 0.013 0 0
C_306619140_306612618_0 J_306619140 J_306612618 162.49 0.013 0 0
C_306612221_306612295_0 J_306612221 J_306612295 81.33 0.013 0 0
C_306612221_306611919_0 J_306612221 J_306611919 56.96 0.013 0 0
C_306612221_306612223_0 J_306612221 J_306612223 55.17 0.013 0 0
C_306612001_306612467_0 J_306612001 J_306612467 70.44 0.013 0 0
C_306612001_306611919_0 J_306612001 J_306611919 33.10 0.013 0 0
C_306612001_306612483_0 J_306612001 J_306612483 88.91 0.013 0 0
C_306611966_1417443754_0 J_306611966 J_1417443754 45.69 0.013 0 0
C_306611966_7478115610_0 J_306611966 J_7478115610 10.83 0.013 0 0
C_306611966_5267822911_0 J_306611966 J_5267822911 172.10 0.013 0 0
C_1417443754_10081671364_0 J_1417443754 J_10081671364 30.24 0.013 0 0
C_1417443754_1417443734_0 J_1417443754 J_1417443734 64.93 0.013 0 0
C_7478115610_306612055_0 J_7478115610 J_306612055 159.94 0.013 0 0
C_7478115610_306611966_0 J_7478115610 J_306611966 10.83 0.013 0 0
C_7478115610_306612013_0 J_7478115610 J_306612013 42.60 0.013 0 0
C_5267822911_1417443726_0 J_5267822911 J_1417443726 28.17 0.013 0 0
C_5267822911_6142327790_0 J_5267822911 J_6142327790 36.32 0.013 0 0
C_5267822911_306611966_0 J_5267822911 J_306611966 172.10 0.013 0 0
C_306612467_306612391_0 J_306612467 J_306612391 43.39 0.013 0 0
C_306612467_306612001_0 J_306612467 J_306612001 70.44 0.013 0 0
C_306612467_306612483_0 J_306612467 J_306612483 58.34 0.013 0 0
C_306612483_306612467_0 J_306612483 J_306612467 58.34 0.013 0 0
C_306612483_306612001_0 J_306612483 J_306612001 88.91 0.013 0 0
C_306612483_6182617723_0 J_306612483 J_6182617723 64.85 0.013 0 0
C_306612013_7478115610_0 J_306612013 J_7478115610 42.60 0.013 0 0
C_306612013_5267822917_0 J_306612013 J_5267822917 96.31 0.013 0 0
C_306612013_5267822918_0 J_306612013 J_5267822918 122.45 0.013 0 0
C_5267822917_306612052_0 J_5267822917 J_306612052 33.23 0.013 0 0
C_5267822917_5267822918_0 J_5267822917 J_5267822918 77.36 0.013 0 0
C_5267822917_306612013_0 J_5267822917 J_306612013 96.31 0.013 0 0
C_5267822918_306612586_0 J_5267822918 J_306612586 49.09 0.013 0 0
C_5267822918_5267822917_0 J_5267822918 J_5267822917 77.36 0.013 0 0
C_5267822918_306612013_0 J_5267822918 J_306612013 122.45 0.013 0 0
C_306612052_5267822917_0 J_306612052 J_5267822917 33.23 0.013 0 0
C_306612052_306612561_0 J_306612052 J_306612561 26.88 0.013 0 0
C_306612052_306612055_0 J_306612052 J_306612055 31.22 0.013 0 0
C_306612561_306612052_0 J_306612561 J_306612052 26.88 0.013 0 0
C_306612561_306612391_0 J_306612561 J_306612391 49.47 0.013 0 0
C_306612561_306612586_0 J_306612561 J_306612586 117.90 0.013 0 0
C_306612055_7478115610_0 J_306612055 J_7478115610 159.94 0.013 0 0
C_306612055_306612295_0 J_306612055 J_306612295 77.91 0.013 0 0
C_306612055_306612267_0 J_306612055 J_306612267 39.62 0.013 0 0
C_306612055_306612052_0 J_306612055 J_306612052 31.22 0.013 0 0
C_306612295_306612055_0 J_306612295 J_306612055 77.91 0.013 0 0
C_306612295_306612221_0 J_306612295 J_306612221 81.33 0.013 0 0
C_306612295_306612391_0 J_306612295 J_306612391 30.80 0.013 0 0
C_306612267_306612056_0 J_306612267 J_306612056 49.45 0.013 0 0
C_306612267_306612055_0 J_306612267 J_306612055 39.62 0.013 0 0
C_306612267_306612223_0 J_306612267 J_306612223 197.12 0.013 0 0
C_306612223_306612221_0 J_306612223 J_306612221 55.17 0.013 0 0
C_306612223_306612124_0 J_306612223 J_306612124 66.10 0.013 0 0
C_306612223_306612267_0 J_306612223 J_306612267 197.12 0.013 0 0
C_306612391_306612561_0 J_306612391 J_306612561 49.47 0.013 0 0
C_306612391_306612467_0 J_306612391 J_306612467 43.39 0.013 0 0
C_306612391_6182617723_0 J_306612391 J_6182617723 100.00 0.013 0 0
C_306612391_306612295_0 J_306612391 J_306612295 30.80 0.013 0 0
C_306612552_3149523811_0 J_306612552 J_3149523811 59.38 0.013 0 0
C_3149523811_306613711_0 J_3149523811 J_306613711 62.63 0.013 0 0
C_3149523811_3149523808_0 J_3149523811 J_3149523808 23.95 0.013 0 0
C_3149523811_306612552_0 J_3149523811 J_306612552 59.38 0.013 0 0
C_306612618_306613918_0 J_306612618 J_306613918 6.67 0.013 0 0
C_306612618_306619140_0 J_306612618 J_306619140 162.49 0.013 0 0
C_306613918_306611966_0 J_306613918 J_306611966 67.06 0.013 0 0
C_306613918_306612714_0 J_306613918 J_306612714 54.57 0.013 0 0
C_306612710_306613150_0 J_306612710 J_306613150 111.51 0.013 0 0
C_306612710_3221362717_0 J_306612710 J_3221362717 57.24 0.013 0 0
C_306612710_12249984863_0 J_306612710 J_12249984863 47.21 0.013 0 0
C_306613150_306612710_0 J_306613150 J_306612710 111.51 0.013 0 0
C_306613150_3221362720_0 J_306613150 J_3221362720 45.48 0.013 0 0
C_306613150_306612712_0 J_306613150 J_306612712 49.87 0.013 0 0
C_3221362717_306613706_0 J_3221362717 J_306613706 105.10 0.013 0 0
C_3221362717_306612710_0 J_3221362717 J_306612710 57.24 0.013 0 0
C_3221362717_3221362720_0 J_3221362717 J_3221362720 100.84 0.013 0 0
C_12249984863_12249984864_0 J_12249984863 J_12249984864 56.20 0.013 0 0
C_12249984863_306612710_0 J_12249984863 J_306612710 47.21 0.013 0 0
C_306612712_306613796_0 J_306612712 J_306613796 50.00 0.013 0 0
C_306612712_306613207_0 J_306612712 J_306613207 55.02 0.013 0 0
C_306612712_306612714_0 J_306612712 J_306612714 205.66 0.013 0 0
C_306612712_306613150_0 J_306612712 J_306613150 49.87 0.013 0 0
C_306613796_306613322_0 J_306613796 J_306613322 46.62 0.013 0 0
C_306613796_306612712_0 J_306613796 J_306612712 50.00 0.013 0 0
C_306613796_306613917_0 J_306613796 J_306613917 206.54 0.013 0 0
C_306613207_306619236_0 J_306613207 J_306619236 75.78 0.013 0 0
C_306613207_306612712_0 J_306613207 J_306612712 55.02 0.013 0 0
C_306612714_6529626686_0 J_306612714 J_6529626686 11.80 0.013 0 0
C_306612714_306613918_0 J_306612714 J_306613918 54.57 0.013 0 0
C_306612714_306612712_0 J_306612714 J_306612712 205.66 0.013 0 0
C_6529626686_306613917_0 J_6529626686 J_306613917 37.72 0.013 0 0
C_6529626686_306612714_0 J_6529626686 J_306612714 11.80 0.013 0 0
C_6529626686_6529626685_0 J_6529626686 J_6529626685 63.27 0.013 0 0
C_306612914_306612919_0 J_306612914 J_306612919 65.91 0.013 0 0
C_306612914_306610155_0 J_306612914 J_306610155 174.24 0.013 0 0
C_306613125_3149523808_0 J_306613125 J_3149523808 13.98 0.013 0 0
C_306613125_9792476719_0 J_306613125 J_9792476719 18.61 0.013 0 0
C_306613125_2450399427_0 J_306613125 J_2450399427 108.12 0.013 0 0
C_3149523808_3149523811_0 J_3149523808 J_3149523811 23.95 0.013 0 0
C_3149523808_306613125_0 J_3149523808 J_306613125 13.98 0.013 0 0
C_3149523808_3149523809_0 J_3149523808 J_3149523809 107.55 0.013 0 0
C_9792476719_2450399417_0 J_9792476719 J_2450399417 104.11 0.013 0 0
C_9792476719_306613125_0 J_9792476719 J_306613125 18.61 0.013 0 0
C_9792476719_3149523801_0 J_9792476719 J_3149523801 47.37 0.013 0 0
C_2450399427_3149523809_0 J_2450399427 J_3149523809 12.77 0.013 0 0
C_2450399427_3149523807_0 J_2450399427 J_3149523807 15.12 0.013 0 0
C_2450399427_306613125_0 J_2450399427 J_306613125 108.12 0.013 0 0
C_3221362720_306613706_0 J_3221362720 J_306613706 42.41 0.013 0 0
C_3221362720_306613150_0 J_3221362720 J_306613150 45.48 0.013 0 0
C_3221362720_3221362717_0 J_3221362720 J_3221362717 100.84 0.013 0 0
C_306619236_306619290_0 J_306619236 J_306619290 61.07 0.013 0 0
C_306619236_306619304_0 J_306619236 J_306619304 63.87 0.013 0 0
C_306613322_306613796_0 J_306613322 J_306613796 46.62 0.013 0 0
C_306613322_306613711_0 J_306613322 J_306613711 132.69 0.013 0 0
C_306613322_306613706_0 J_306613322 J_306613706 47.88 0.013 0 0
C_306613711_3149523811_0 J_306613711 J_3149523811 62.63 0.013 0 0
C_306613711_6142327787_0 J_306613711 J_6142327787 78.58 0.013 0 0
C_306613711_306613322_0 J_306613711 J_306613322 132.69 0.013 0 0
C_306613706_3221362720_0 J_306613706 J_3221362720 42.41 0.013 0 0
C_306613706_11259448969_0 J_306613706 J_11259448969 211.85 0.013 0 0
C_306613706_306613322_0 J_306613706 J_306613322 47.88 0.013 0 0
C_306613706_3221362717_0 J_306613706 J_3221362717 105.10 0.013 0 0
C_11259448969_306613706_0 J_11259448969 J_306613706 211.85 0.013 0 0
C_11259448969_12249984863_0 J_11259448969 J_12249984863 75.82 0.013 0 0
C_6142327787_306613711_0 J_6142327787 J_306613711 78.58 0.013 0 0
C_6142327787_306613917_0 J_6142327787 J_306613917 35.32 0.013 0 0
C_6142327787_6142327790_0 J_6142327787 J_6142327790 152.44 0.013 0 0
C_306613917_6529626686_0 J_306613917 J_6529626686 37.72 0.013 0 0
C_306613917_306613796_0 J_306613917 J_306613796 206.54 0.013 0 0
C_306613917_6142327787_0 J_306613917 J_6142327787 35.32 0.013 0 0
C_306613955_306618000_0 J_306613955 J_306618000 53.39 0.013 0 0
C_306613955_306618152_0 J_306613955 J_306618152 48.79 0.013 0 0
C_306613955_306618047_0 J_306613955 J_306618047 42.55 0.013 0 0
C_306618000_306618040_0 J_306618000 J_306618040 36.34 0.013 0 0
C_306618000_306613955_0 J_306618000 J_306613955 53.39 0.013 0 0
C_306618000_306618011_0 J_306618000 J_306618011 121.76 0.013 0 0
C_306618152_306618226_0 J_306618152 J_306618226 51.72 0.013 0 0
C_306618152_306614126_0 J_306618152 J_306614126 123.34 0.013 0 0
C_306618152_306613955_0 J_306618152 J_306613955 48.79 0.013 0 0
C_306618047_306618864_0 J_306618047 J_306618864 54.13 0.013 0 0
C_306618047_306613955_0 J_306618047 J_306613955 42.55 0.013 0 0
C_306618047_306618121_0 J_306618047 J_306618121 65.10 0.013 0 0
C_306614002_306614043_0 J_306614002 J_306614043 103.96 0.013 0 0
C_306614002_306618040_0 J_306614002 J_306618040 37.07 0.013 0 0
C_306614002_306618049_0 J_306614002 J_306618049 44.31 0.013 0 0
C_306614002_306618037_0 J_306614002 J_306618037 37.72 0.013 0 0
C_306614043_306614003_0 J_306614043 J_306614003 60.17 0.013 0 0
C_306614043_306614002_0 J_306614043 J_306614002 103.96 0.013 0 0
C_306614043_306618038_0 J_306614043 J_306618038 36.08 0.013 0 0
C_306618040_306614002_0 J_306618040 J_306614002 37.07 0.013 0 0
C_306618040_306618000_0 J_306618040 J_306618000 36.34 0.013 0 0
C_306618040_306618039_0 J_306618040 J_306618039 118.49 0.013 0 0
C_306618049_306618684_0 J_306618049 J_306618684 54.15 0.013 0 0
C_306618049_306614002_0 J_306618049 J_306614002 44.31 0.013 0 0
C_306618049_306618913_0 J_306618049 J_306618913 34.10 0.013 0 0
C_306618049_306618051_0 J_306618049 J_306618051 163.46 0.013 0 0
C_306618037_306614002_0 J_306618037 J_306614002 37.72 0.013 0 0
C_306618037_306618035_0 J_306618037 J_306618035 75.45 0.013 0 0
C_306618037_306618038_0 J_306618037 J_306618038 104.92 0.013 0 0
C_306614003_306614043_0 J_306614003 J_306614043 60.17 0.013 0 0
C_306614003_306618051_0 J_306614003 J_306618051 41.87 0.013 0 0
C_306614003_747660349_0 J_306614003 J_747660349 158.27 0.013 0 0
C_306618051_2447849296_0 J_306618051 J_2447849296 11.95 0.013 0 0
C_306618051_306614003_0 J_306618051 J_306614003 41.87 0.013 0 0
C_306618051_306618049_0 J_306618051 J_306618049 163.46 0.013 0 0
C_747660349_313460551_0 J_747660349 J_313460551 61.66 0.013 0 0
C_747660349_306614003_0 J_747660349 J_306614003 158.27 0.013 0 0
C_747660349_11259448973_0 J_747660349 J_11259448973 14.47 0.013 0 0
C_306618038_306614043_0 J_306618038 J_306614043 36.08 0.013 0 0
C_306618038_306618031_0 J_306618038 J_306618031 65.56 0.013 0 0
C_306618038_306618037_0 J_306618038 J_306618037 104.92 0.013 0 0
C_306614045_1473885459_0 J_306614045 J_1473885459 20.67 0.013 0 0
C_306614045_13285069336_0 J_306614045 J_13285069336 11.77 0.013 0 0
C_1473885459_1473885439_0 J_1473885459 J_1473885439 159.86 0.013 0 0
C_1473885459_306614045_0 J_1473885459 J_306614045 20.67 0.013 0 0
C_1473885459_1473885458_0 J_1473885459 J_1473885458 60.48 0.013 0 0
C_13285069336_7432359284_0 J_13285069336 J_7432359284 60.69 0.013 0 0
C_13285069336_1488556147_0 J_13285069336 J_1488556147 51.01 0.013 0 0
C_306614125_306618319_0 J_306614125 J_306618319 137.39 0.013 0 0
C_306614125_1488556147_0 J_306614125 J_1488556147 34.93 0.013 0 0
C_306614125_306618148_0 J_306614125 J_306618148 41.45 0.013 0 0
C_306618319_306618203_0 J_306618319 J_306618203 35.40 0.013 0 0
C_306618319_306614125_0 J_306618319 J_306614125 137.39 0.013 0 0
C_306618319_306618602_0 J_306618319 J_306618602 38.48 0.013 0 0
C_1488556147_306614125_0 J_1488556147 J_306614125 34.93 0.013 0 0
C_1488556147_6141578243_0 J_1488556147 J_6141578243 126.10 0.013 0 0
C_1488556147_13285069336_0 J_1488556147 J_13285069336 51.01 0.013 0 0
C_306618148_306618624_0 J_306618148 J_306618624 40.45 0.013 0 0
C_306618148_306618151_0 J_306618148 J_306618151 84.20 0.013 0 0
C_306618148_306614125_0 J_306618148 J_306614125 41.45 0.013 0 0
C_306618203_306614126_0 J_306618203 J_306614126 48.76 0.013 0 0
C_306618203_306618319_0 J_306618203 J_306618319 35.40 0.013 0 0
C_306618203_306618421_0 J_306618203 J_306618421 88.76 0.013 0 0
C_306617982_306618011_0 J_306617982 J_306618011 48.42 0.013 0 0
C_306617982_306614127_0 J_306617982 J_306614127 186.22 0.013 0 0
C_306617982_306614126_0 J_306617982 J_306614126 57.31 0.013 0 0
C_306618031_306618038_0 J_306618031 J_306618038 65.56 0.013 0 0
C_306618031_306614127_0 J_306618031 J_306614127 52.13 0.013 0 0
C_306618031_306618035_0 J_306618031 J_306618035 110.27 0.013 0 0
C_306614479_306614480_0 J_306614479 J_306614480 212.50 0.013 0 0
C_306614479_306614924_0 J_306614479 J_306614924 266.31 0.013 0 0
C_306614479_2414639341_0 J_306614479 J_2414639341 63.93 0.013 0 0
C_306614480_306614924_0 J_306614480 J_306614924 55.63 0.013 0 0
C_306614480_306614479_0 J_306614480 J_306614479 212.50 0.013 0 0
C_306614480_306614481_0 J_306614480 J_306614481 66.32 0.013 0 0
C_306614924_306614967_0 J_306614924 J_306614967 49.95 0.013 0 0
C_306614924_306614480_0 J_306614924 J_306614480 55.63 0.013 0 0
C_306614924_306614479_0 J_306614924 J_306614479 266.31 0.013 0 0
C_306614481_306617634_0 J_306614481 J_306617634 55.30 0.013 0 0
C_306614481_6132249479_0 J_306614481 J_6132249479 18.80 0.013 0 0
C_306614481_306617686_0 J_306614481 J_306617686 255.78 0.013 0 0
C_306614481_306614480_0 J_306614481 J_306614480 66.32 0.013 0 0
C_306617731_306614739_0 J_306617731 J_306614739 122.38 0.013 0 0
C_306617731_306614734_0 J_306617731 J_306614734 49.42 0.013 0 0
C_306617731_306617735_0 J_306617731 J_306617735 46.10 0.013 0 0
C_306614738_306614734_0 J_306614738 J_306614734 62.18 0.013 0 0
C_306614738_306614832_0 J_306614738 J_306614832 115.25 0.013 0 0
C_306614738_306614850_0 J_306614738 J_306614850 53.86 0.013 0 0
C_306614738_11982570362_0 J_306614738 J_11982570362 60.59 0.013 0 0
C_306614832_306614842_0 J_306614832 J_306614842 55.45 0.013 0 0
C_306614832_306614738_0 J_306614832 J_306614738 115.25 0.013 0 0
C_306614832_306614901_0 J_306614832 J_306614901 56.25 0.013 0 0
C_11982570362_11178931798_0 J_11982570362 J_11178931798 241.77 0.013 0 0
C_11982570362_306614738_0 J_11982570362 J_306614738 60.59 0.013 0 0
C_306614739_6178041421_0 J_306614739 J_6178041421 60.77 0.013 0 0
C_306614739_306617731_0 J_306614739 J_306617731 122.38 0.013 0 0
C_306614739_306617738_0 J_306614739 J_306617738 52.64 0.013 0 0
C_306614739_11982570360_0 J_306614739 J_11982570360 59.35 0.013 0 0
C_6178041421_1473890791_0 J_6178041421 J_1473890791 71.83 0.013 0 0
C_6178041421_306614739_0 J_6178041421 J_306614739 60.77 0.013 0 0
C_6178041421_6178041419_0 J_6178041421 J_6178041419 55.57 0.013 0 0
C_306617738_306614739_0 J_306617738 J_306614739 52.64 0.013 0 0
C_306617738_306617745_0 J_306617738 J_306617745 33.73 0.013 0 0
C_306617738_306617735_0 J_306617738 J_306617735 130.03 0.013 0 0
C_11982570360_306614739_0 J_11982570360 J_306614739 59.35 0.013 0 0
C_11982570360_11982570362_0 J_11982570360 J_11982570362 228.71 0.013 0 0
C_11476594000_306614967_0 J_11476594000 J_306614967 190.59 0.013 0 0
C_306620879_306615014_0 J_306620879 J_306615014 101.97 0.013 0 0
C_306620879_306620870_0 J_306620879 J_306620870 118.72 0.013 0 0
C_306620879_306620210_0 J_306620879 J_306620210 45.21 0.013 0 0
C_306619786_306615019_0 J_306619786 J_306615019 137.99 0.013 0 0
C_306619786_306615014_0 J_306619786 J_306615014 53.17 0.013 0 0
C_306619786_306619844_0 J_306619786 J_306619844 36.94 0.013 0 0
C_306615155_306615653_0 J_306615155 J_306615653 107.46 0.013 0 0
C_306615155_306615032_0 J_306615155 J_306615032 49.61 0.013 0 0
C_306615155_306615904_0 J_306615155 J_306615904 39.70 0.013 0 0
C_306615653_306615239_0 J_306615653 J_306615239 42.55 0.013 0 0
C_306615653_306615155_0 J_306615653 J_306615155 107.46 0.013 0 0
C_306615653_306615937_0 J_306615653 J_306615937 38.54 0.013 0 0
C_306615904_306615597_0 J_306615904 J_306615597 154.26 0.013 0 0
C_306615904_306615155_0 J_306615904 J_306615155 39.70 0.013 0 0
C_306615904_306615643_0 J_306615904 J_306615643 37.32 0.013 0 0
C_306615597_306615164_0 J_306615597 J_306615164 51.88 0.013 0 0
C_306615597_306615904_0 J_306615597 J_306615904 154.26 0.013 0 0
C_306615597_306615629_0 J_306615597 J_306615629 35.93 0.013 0 0
C_306615239_306615202_0 J_306615239 J_306615202 38.42 0.013 0 0
C_306615239_306615653_0 J_306615239 J_306615653 42.55 0.013 0 0
C_306615239_306615877_0 J_306615239 J_306615877 170.41 0.013 0 0
C_306615239_306615227_0 J_306615239 J_306615227 52.00 0.013 0 0
C_306615426_306615208_0 J_306615426 J_306615208 163.31 0.013 0 0
C_306615426_306615202_0 J_306615426 J_306615202 38.70 0.013 0 0
C_306615426_306615461_0 J_306615426 J_306615461 45.81 0.013 0 0
C_306615208_306615426_0 J_306615208 J_306615426 163.31 0.013 0 0
C_306615208_306615608_0 J_306615208 J_306615608 46.67 0.013 0 0
C_306615208_306615250_0 J_306615208 J_306615250 41.31 0.013 0 0
C_306615608_10094586224_0 J_306615608 J_10094586224 122.62 0.013 0 0
C_306615608_306615208_0 J_306615608 J_306615208 46.67 0.013 0 0
C_306615608_306615476_0 J_306615608 J_306615476 53.34 0.013 0 0
C_306615250_306615877_0 J_306615250 J_306615877 30.19 0.013 0 0
C_306615250_306615208_0 J_306615250 J_306615208 41.31 0.013 0 0
C_306615250_306615629_0 J_306615250 J_306615629 110.42 0.013 0 0
C_306615227_3298878325_0 J_306615227 J_3298878325 35.40 0.013 0 0
C_306615227_306615239_0 J_306615227 J_306615239 52.00 0.013 0 0
C_306615227_7432382415_0 J_306615227 J_7432382415 151.58 0.013 0 0
C_3298878325_306615227_0 J_3298878325 J_306615227 35.40 0.013 0 0
C_3298878325_306623067_0 J_3298878325 J_306623067 82.79 0.013 0 0
C_3298878325_5780852347_0 J_3298878325 J_5780852347 11.25 0.013 0 0
C_7432382415_263386438_0 J_7432382415 J_263386438 50.25 0.013 0 0
C_7432382415_306615227_0 J_7432382415 J_306615227 151.58 0.013 0 0
C_306615877_306615250_0 J_306615877 J_306615250 30.19 0.013 0 0
C_306615877_306615239_0 J_306615877 J_306615239 170.41 0.013 0 0
C_306615877_306615876_0 J_306615877 J_306615876 41.23 0.013 0 0
C_306615629_306615250_0 J_306615629 J_306615250 110.42 0.013 0 0
C_306615629_306615597_0 J_306615629 J_306615597 35.93 0.013 0 0
C_306615629_306615730_0 J_306615629 J_306615730 28.78 0.013 0 0
C_10094586224_306615608_0 J_10094586224 J_306615608 122.62 0.013 0 0
C_10094586224_306615461_0 J_10094586224 J_306615461 41.74 0.013 0 0
C_10094586224_10094586223_0 J_10094586224 J_10094586223 85.41 0.013 0 0
C_306615730_306615629_0 J_306615730 J_306615629 28.78 0.013 0 0
C_306615730_306615876_0 J_306615730 J_306615876 69.15 0.013 0 0
C_306615730_306615643_0 J_306615730 J_306615643 127.45 0.013 0 0
C_306615643_306615937_0 J_306615643 J_306615937 69.37 0.013 0 0
C_306615643_306615904_0 J_306615643 J_306615904 37.32 0.013 0 0
C_306615643_306615730_0 J_306615643 J_306615730 127.45 0.013 0 0
C_306615937_306615876_0 J_306615937 J_306615876 132.30 0.013 0 0
C_306615937_306615653_0 J_306615937 J_306615653 38.54 0.013 0 0
C_306615937_306615643_0 J_306615937 J_306615643 69.37 0.013 0 0
C_306615876_306615877_0 J_306615876 J_306615877 41.23 0.013 0 0
C_306615876_306615730_0 J_306615876 J_306615730 69.15 0.013 0 0
C_306615876_306615937_0 J_306615876 J_306615937 132.30 0.013 0 0
C_306616007_306623070_0 J_306616007 J_306623070 322.56 0.013 0 0
C_306616007_306616031_0 J_306616007 J_306616031 77.16 0.013 0 0
C_306616007_5961715635_0 J_306616007 J_5961715635 166.56 0.013 0 0
C_306623070_306623066_0 J_306623070 J_306623066 55.50 0.013 0 0
C_306623070_306616007_0 J_306623070 J_306616007 322.56 0.013 0 0
C_306623070_306623067_0 J_306623070 J_306623067 190.45 0.013 0 0
C_306616031_1054699489_0 J_306616031 J_1054699489 38.66 0.013 0 0
C_306616031_306622158_0 J_306616031 J_306622158 175.37 0.013 0 0
C_306616031_306616007_0 J_306616031 J_306616007 77.16 0.013 0 0
C_5961715635_3298864776_0 J_5961715635 J_3298864776 5.72 0.013 0 0
C_5961715635_306616007_0 J_5961715635 J_306616007 166.56 0.013 0 0
C_5961715635_7432382412_0 J_5961715635 J_7432382412 86.07 0.013 0 0
C_306622158_306616031_0 J_306622158 J_306616031 175.37 0.013 0 0
C_306622158_306622953_0 J_306622158 J_306622953 36.72 0.013 0 0
C_306622158_306616029_0 J_306622158 J_306616029 55.92 0.013 0 0
C_1054699489_306616031_0 J_1054699489 J_306616031 38.66 0.013 0 0
C_1054699489_306622967_0 J_1054699489 J_306622967 121.84 0.013 0 0
C_1054699489_1054699551_0 J_1054699489 J_1054699551 36.87 0.013 0 0
C_3298878307_11865527609_0 J_3298878307 J_11865527609 2.84 0.013 0 0
C_3298878307_7432244880_0 J_3298878307 J_7432244880 26.39 0.013 0 0
C_3298878307_306616740_0 J_3298878307 J_306616740 157.41 0.013 0 0
C_306617262_11663109186_0 J_306617262 J_11663109186 40.67 0.013 0 0
C_306617262_12680448313_0 J_306617262 J_12680448313 11.37 0.013 0 0
C_11663109186_306617262_0 J_11663109186 J_306617262 40.67 0.013 0 0
C_11663109186_11663109187_0 J_11663109186 J_11663109187 12.99 0.013 0 0
C_11663109186_7432382398_0 J_11663109186 J_7432382398 54.43 0.013 0 0
C_12680448313_12680448312_0 J_12680448313 J_12680448312 7.96 0.013 0 0
C_12680448313_11178931802_0 J_12680448313 J_11178931802 149.91 0.013 0 0
C_306617283_306617463_0 J_306617283 J_306617463 48.30 0.013 0 0
C_306617283_306617457_0 J_306617283 J_306617457 128.96 0.013 0 0
C_306617283_12680448312_0 J_306617283 J_12680448312 60.07 0.013 0 0
C_306617463_306617283_0 J_306617463 J_306617283 48.30 0.013 0 0
C_306617463_306617477_0 J_306617463 J_306617477 39.86 0.013 0 0
C_306617463_306617465_0 J_306617463 J_306617465 128.66 0.013 0 0
C_306617457_306617302_0 J_306617457 J_306617302 45.33 0.013 0 0
C_306617457_306617283_0 J_306617457 J_306617283 128.96 0.013 0 0
C_306617457_306617465_0 J_306617457 J_306617465 47.89 0.013 0 0
C_12680448312_12680448313_0 J_12680448312 J_12680448313 7.96 0.013 0 0
C_12680448312_306617262_0 J_12680448312 J_306617262 11.20 0.013 0 0
C_12680448312_306617283_0 J_12680448312 J_306617283 60.07 0.013 0 0
C_306617440_306617444_0 J_306617440 J_306617444 48.80 0.013 0 0
C_306617440_306625759_0 J_306617440 J_306625759 9.49 0.013 0 0
C_306617440_306617302_0 J_306617440 J_306617302 184.14 0.013 0 0
C_306617409_306617429_0 J_306617409 J_306617429 87.46 0.013 0 0
C_306617409_306617477_0 J_306617409 J_306617477 47.18 0.013 0 0
C_306617409_306617486_0 J_306617409 J_306617486 81.20 0.013 0 0
C_306617486_306617465_0 J_306617486 J_306617465 37.09 0.013 0 0
C_306617486_306617444_0 J_306617486 J_306617444 95.33 0.013 0 0
C_306617486_306617409_0 J_306617486 J_306617409 81.20 0.013 0 0
C_306617444_306617440_0 J_306617444 J_306617440 48.80 0.013 0 0
C_306617444_306617486_0 J_306617444 J_306617486 95.33 0.013 0 0
C_306617444_306617429_0 J_306617444 J_306617429 77.93 0.013 0 0
C_306617465_306617457_0 J_306617465 J_306617457 47.89 0.013 0 0
C_306617465_306617486_0 J_306617465 J_306617486 37.09 0.013 0 0
C_306617465_306617463_0 J_306617465 J_306617463 128.66 0.013 0 0
C_9189927179_306617686_0 J_9189927179 J_306617686 73.26 0.013 0 0
C_9189927179_6463519072_0 J_9189927179 J_6463519072 41.73 0.013 0 0
C_9189927179_9189927178_0 J_9189927179 J_9189927178 72.58 0.013 0 0
C_306617735_306617731_0 J_306617735 J_306617731 46.10 0.013 0 0
C_306617735_306617742_0 J_306617735 J_306617742 40.21 0.013 0 0
C_306617735_306617738_0 J_306617735 J_306617738 130.03 0.013 0 0
C_306617745_306617738_0 J_306617745 J_306617738 33.73 0.013 0 0
C_306617745_6178041423_0 J_306617745 J_6178041423 38.40 0.013 0 0
C_306617745_306617758_0 J_306617745 J_306617758 43.15 0.013 0 0
C_306618011_306618000_0 J_306618011 J_306618000 121.76 0.013 0 0
C_306618011_306617982_0 J_306618011 J_306617982 48.42 0.013 0 0
C_306618011_306618039_0 J_306618011 J_306618039 38.82 0.013 0 0
C_306618039_306618035_0 J_306618039 J_306618035 34.10 0.013 0 0
C_306618039_306618011_0 J_306618039 J_306618011 38.82 0.013 0 0
C_306618039_306618040_0 J_306618039 J_306618040 118.49 0.013 0 0
C_306618035_306618039_0 J_306618035 J_306618039 34.10 0.013 0 0
C_306618035_306618037_0 J_306618035 J_306618037 75.45 0.013 0 0
C_306618035_306618031_0 J_306618035 J_306618031 110.27 0.013 0 0
C_306618045_306618684_0 J_306618045 J_306618684 47.52 0.013 0 0
C_306618045_306619061_0 J_306618045 J_306619061 68.33 0.013 0 0
C_306618045_306619043_0 J_306618045 J_306619043 41.50 0.013 0 0
C_306618684_306618045_0 J_306618684 J_306618045 47.52 0.013 0 0
C_306618684_306618049_0 J_306618684 J_306618049 54.15 0.013 0 0
C_306618684_306618755_0 J_306618684 J_306618755 70.51 0.013 0 0
C_306619061_306619067_0 J_306619061 J_306619067 28.84 0.013 0 0
C_306619061_306618755_0 J_306619061 J_306618755 54.40 0.013 0 0
C_306619061_306618045_0 J_306619061 J_306618045 68.33 0.013 0 0
C_306619043_306619063_0 J_306619043 J_306619063 27.95 0.013 0 0
C_306619043_306618913_0 J_306619043 J_306618913 100.98 0.013 0 0
C_306619043_306618045_0 J_306619043 J_306618045 41.50 0.013 0 0
C_306618864_306618913_0 J_306618864 J_306618913 37.39 0.013 0 0
C_306618864_306618047_0 J_306618864 J_306618047 54.13 0.013 0 0
C_306618864_306618974_0 J_306618864 J_306618974 162.12 0.013 0 0
C_306618121_306618227_0 J_306618121 J_306618227 53.40 0.013 0 0
C_306618121_306618047_0 J_306618121 J_306618047 65.10 0.013 0 0
C_306618121_306618053_0 J_306618121 J_306618053 51.27 0.013 0 0
C_306618913_306618049_0 J_306618913 J_306618049 34.10 0.013 0 0
C_306618913_306618864_0 J_306618913 J_306618864 37.39 0.013 0 0
C_306618913_306619043_0 J_306618913 J_306619043 100.98 0.013 0 0
C_2447849296_306618051_0 J_2447849296 J_306618051 11.95 0.013 0 0
C_2447849296_1417443666_0 J_2447849296 J_1417443666 58.90 0.013 0 0
C_2447849296_306618704_0 J_2447849296 J_306618704 42.04 0.013 0 0
C_306618053_306619089_0 J_306618053 J_306619089 53.88 0.013 0 0
C_306618053_306618845_0 J_306618053 J_306618845 82.08 0.013 0 0
C_306618053_306618121_0 J_306618053 J_306618121 51.27 0.013 0 0
C_306619089_306618053_0 J_306619089 J_306618053 53.88 0.013 0 0
C_306619089_306619107_0 J_306619089 J_306619107 34.65 0.013 0 0
C_306619089_306619097_0 J_306619089 J_306619097 100.16 0.013 0 0
C_306618845_306618876_0 J_306618845 J_306618876 53.58 0.013 0 0
C_306618845_306618719_0 J_306618845 J_306618719 37.23 0.013 0 0
C_306618845_306618053_0 J_306618845 J_306618053 82.08 0.013 0 0
C_306618089_12174120925_0 J_306618089 J_12174120925 52.69 0.013 0 0
C_12174120925_306618090_0 J_12174120925 J_306618090 77.61 0.013 0 0
C_12174120925_12174120924_0 J_12174120925 J_12174120924 37.33 0.013 0 0
C_12174120925_306618089_0 J_12174120925 J_306618089 52.69 0.013 0 0
C_306619109_306618139_0 J_306619109 J_306618139 64.49 0.013 0 0
C_306619109_306618090_0 J_306619109 J_306618090 37.26 0.013 0 0
C_306619109_306619112_0 J_306619109 J_306619112 43.68 0.013 0 0
C_306618120_306618091_0 J_306618120 J_306618091 90.42 0.013 0 0
C_306618120_306618090_0 J_306618120 J_306618090 46.02 0.013 0 0
C_306618120_306618149_0 J_306618120 J_306618149 39.58 0.013 0 0
C_306618091_6141578243_0 J_306618091 J_6141578243 69.11 0.013 0 0
C_306618091_306618120_0 J_306618091 J_306618120 90.42 0.013 0 0
C_306618091_306618241_0 J_306618091 J_306618241 34.59 0.013 0 0
C_6141578243_1488556147_0 J_6141578243 J_1488556147 126.10 0.013 0 0
C_6141578243_306618091_0 J_6141578243 J_306618091 69.11 0.013 0 0
C_6141578243_306618151_0 J_6141578243 J_306618151 36.15 0.013 0 0
C_306618241_306618149_0 J_306618241 J_306618149 88.13 0.013 0 0
C_306618241_306618242_0 J_306618241 J_306618242 71.44 0.013 0 0
C_306618241_306618091_0 J_306618241 J_306618091 34.59 0.013 0 0
C_306618149_306618131_0 J_306618149 J_306618131 61.64 0.013 0 0
C_306618149_306618120_0 J_306618149 J_306618120 39.58 0.013 0 0
C_306618149_306618241_0 J_306618149 J_306618241 88.13 0.013 0 0
C_306618227_306618121_0 J_306618227 J_306618121 53.40 0.013 0 0
C_306618227_306618131_0 J_306618227 J_306618131 107.88 0.013 0 0
C_306618227_306618228_0 J_306618227 J_306618228 119.60 0.013 0 0
C_306618131_306618227_0 J_306618131 J_306618227 107.88 0.013 0 0
C_306618131_306618149_0 J_306618131 J_306618149 61.64 0.013 0 0
C_306618131_306618139_0 J_306618131 J_306618139 48.03 0.013 0 0
C_306618139_306619107_0 J_306618139 J_306619107 72.08 0.013 0 0
C_306618139_306619109_0 J_306618139 J_306619109 64.49 0.013 0 0
C_306618139_306618131_0 J_306618139 J_306618131 48.03 0.013 0 0
C_306619107_306619089_0 J_306619107 J_306619089 34.65 0.013 0 0
C_306619107_306618139_0 J_306619107 J_306618139 72.08 0.013 0 0
C_306619107_306619114_0 J_306619107 J_306619114 44.11 0.013 0 0
C_306618624_306618148_0 J_306618624 J_306618148 40.45 0.013 0 0
C_306618624_306618516_0 J_306618624 J_306618516 47.44 0.013 0 0
C_306618624_306618602_0 J_306618624 J_306618602 95.93 0.013 0 0
C_306618151_306618660_0 J_306618151 J_306618660 38.49 0.013 0 0
C_306618151_306618148_0 J_306618151 J_306618148 84.20 0.013 0 0
C_306618151_6141578243_0 J_306618151 J_6141578243 36.15 0.013 0 0
C_306618660_306618244_0 J_306618660 J_306618244 33.48 0.013 0 0
C_306618660_306618151_0 J_306618660 J_306618151 38.49 0.013 0 0
C_306618660_306618516_0 J_306618660 J_306618516 37.12 0.013 0 0
C_306618226_306618152_0 J_306618226 J_306618152 51.72 0.013 0 0
C_306618226_306618244_0 J_306618226 J_306618244 99.59 0.013 0 0
C_306618226_306618228_0 J_306618226 J_306618228 37.46 0.013 0 0
C_306618226_306618421_0 J_306618226 J_306618421 35.11 0.013 0 0
C_306618421_306618226_0 J_306618421 J_306618226 35.11 0.013 0 0
C_306618421_306618203_0 J_306618421 J_306618203 88.76 0.013 0 0
C_306618421_306618400_0 J_306618421 J_306618400 37.05 0.013 0 0
C_306618244_306618226_0 J_306618244 J_306618226 99.59 0.013 0 0
C_306618244_306618660_0 J_306618244 J_306618660 33.48 0.013 0 0
C_306618244_306618243_0 J_306618244 J_306618243 37.72 0.013 0 0
C_306618228_306618227_0 J_306618228 J_306618227 119.60 0.013 0 0
C_306618228_306618226_0 J_306618228 J_306618226 37.46 0.013 0 0
C_306618228_7478115641_0 J_306618228 J_7478115641 33.61 0.013 0 0
C_7478115641_306618243_0 J_7478115641 J_306618243 67.37 0.013 0 0
C_7478115641_306618228_0 J_7478115641 J_306618228 33.61 0.013 0 0
C_7478115641_7478115637_0 J_7478115641 J_7478115637 66.86 0.013 0 0
C_306618229_306618243_0 J_306618229 J_306618243 72.74 0.013 0 0
C_306618243_306618229_0 J_306618243 J_306618229 72.74 0.013 0 0
C_306618243_7478115641_0 J_306618243 J_7478115641 67.37 0.013 0 0
C_306618243_306618244_0 J_306618243 J_306618244 37.72 0.013 0 0
C_306618243_306618242_0 J_306618243 J_306618242 37.03 0.013 0 0
C_306618242_306618241_0 J_306618242 J_306618241 71.44 0.013 0 0
C_306618242_306618243_0 J_306618242 J_306618243 37.03 0.013 0 0
C_306618242_10081725595_0 J_306618242 J_10081725595 25.65 0.013 0 0
C_10081725595_306618242_0 J_10081725595 J_306618242 25.65 0.013 0 0
C_306618602_306618400_0 J_306618602 J_306618400 50.15 0.013 0 0
C_306618602_306618319_0 J_306618602 J_306618319 38.48 0.013 0 0
C_306618602_306618624_0 J_306618602 J_306618624 95.93 0.013 0 0
C_306618400_306618602_0 J_306618400 J_306618602 50.15 0.013 0 0
C_306618400_306618516_0 J_306618400 J_306618516 95.51 0.013 0 0
C_306618400_306618421_0 J_306618400 J_306618421 37.05 0.013 0 0
C_306618516_306618400_0 J_306618516 J_306618400 95.51 0.013 0 0
C_306618516_306618660_0 J_306618516 J_306618660 37.12 0.013 0 0
C_306618516_306618624_0 J_306618516 J_306618624 47.44 0.013 0 0
C_306618755_7478115630_0 J_306618755 J_7478115630 29.87 0.013 0 0
C_306618755_306618684_0 J_306618755 J_306618684 70.51 0.013 0 0
C_306618755_306619061_0 J_306618755 J_306619061 54.40 0.013 0 0
C_306618704_2447849296_0 J_306618704 J_2447849296 42.04 0.013 0 0
C_306618704_7478115630_0 J_306618704 J_7478115630 54.20 0.013 0 0
C_306618704_313460477_0 J_306618704 J_313460477 74.97 0.013 0 0
C_7478115630_306618755_0 J_7478115630 J_306618755 29.87 0.013 0 0
C_7478115630_306618704_0 J_7478115630 J_306618704 54.20 0.013 0 0
C_7478115630_7478115636_0 J_7478115630 J_7478115636 114.59 0.013 0 0
C_313460477_306618704_0 J_313460477 J_306618704 74.97 0.013 0 0
C_313460477_5267835373_0 J_313460477 J_5267835373 171.77 0.013 0 0
C_313460477_313460484_0 J_313460477 J_313460484 63.76 0.013 0 0
C_306618719_1417443578_0 J_306618719 J_1417443578 89.23 0.013 0 0
C_306618719_306618845_0 J_306618719 J_306618845 37.23 0.013 0 0
C_1417443578_306618743_0 J_1417443578 J_306618743 108.13 0.013 0 0
C_1417443578_306618719_0 J_1417443578 J_306618719 89.23 0.013 0 0
C_1417443578_10081725588_0 J_1417443578 J_10081725588 37.43 0.013 0 0
C_306618743_1417443578_0 J_306618743 J_1417443578 108.13 0.013 0 0
C_306618743_306618811_0 J_306618743 J_306618811 36.11 0.013 0 0
C_306618743_7478115636_0 J_306618743 J_7478115636 100.55 0.013 0 0
C_306618811_306618743_0 J_306618811 J_306618743 36.11 0.013 0 0
C_306618811_306618983_0 J_306618811 J_306618983 34.43 0.013 0 0
C_306618811_306618876_0 J_306618811 J_306618876 146.05 0.013 0 0
C_7478115636_7478115630_0 J_7478115636 J_7478115630 114.59 0.013 0 0
C_7478115636_7478115632_0 J_7478115636 J_7478115632 22.90 0.013 0 0
C_7478115636_306618743_0 J_7478115636 J_306618743 100.55 0.013 0 0
C_306618983_306618811_0 J_306618983 J_306618811 34.43 0.013 0 0
C_306618983_7478115632_0 J_306618983 J_7478115632 4.46 0.013 0 0
C_306618983_306618958_0 J_306618983 J_306618958 108.65 0.013 0 0
C_306618876_306618845_0 J_306618876 J_306618845 53.58 0.013 0 0
C_306618876_306618811_0 J_306618876 J_306618811 146.05 0.013 0 0
C_306618876_306618974_0 J_306618876 J_306618974 35.86 0.013 0 0
C_306618974_306618876_0 J_306618974 J_306618876 35.86 0.013 0 0
C_306618974_306618864_0 J_306618974 J_306618864 162.12 0.013 0 0
C_306618974_306618958_0 J_306618974 J_306618958 37.80 0.013 0 0
C_306618958_306619063_0 J_306618958 J_306619063 31.64 0.013 0 0
C_306618958_306618983_0 J_306618958 J_306618983 108.65 0.013 0 0
C_306618958_306618974_0 J_306618958 J_306618974 37.80 0.013 0 0
C_306619063_306618958_0 J_306619063 J_306618958 31.64 0.013 0 0
C_306619063_306619043_0 J_306619063 J_306619043 27.95 0.013 0 0
C_306619063_306619067_0 J_306619063 J_306619067 108.66 0.013 0 0
C_7478115632_306618983_0 J_7478115632 J_306618983 4.46 0.013 0 0
C_7478115632_306619067_0 J_7478115632 J_306619067 29.96 0.013 0 0
C_7478115632_7478115636_0 J_7478115632 J_7478115636 22.90 0.013 0 0
C_306619067_7478115632_0 J_306619067 J_7478115632 29.96 0.013 0 0
C_306619067_306619061_0 J_306619067 J_306619061 28.84 0.013 0 0
C_306619067_306619063_0 J_306619067 J_306619063 108.66 0.013 0 0
C_306619097_8984867006_0 J_306619097 J_8984867006 40.87 0.013 0 0
C_306619097_306619089_0 J_306619097 J_306619089 100.16 0.013 0 0
C_306619097_306619108_0 J_306619097 J_306619108 36.65 0.013 0 0
C_306619095_8984867006_0 J_306619095 J_8984867006 36.70 0.013 0 0
C_306619095_6180287627_0 J_306619095 J_6180287627 22.00 0.013 0 0
C_306619095_7478118969_0 J_306619095 J_7478118969 4.50 0.013 0 0
C_8984867006_306619095_0 J_8984867006 J_306619095 36.70 0.013 0 0
C_8984867006_306619097_0 J_8984867006 J_306619097 40.87 0.013 0 0
C_8984867006_8984867007_0 J_8984867006 J_8984867007 37.09 0.013 0 0
C_6180287627_1417443508_0 J_6180287627 J_1417443508 16.34 0.013 0 0
C_6180287627_306619095_0 J_6180287627 J_306619095 22.00 0.013 0 0
C_7478118969_306619095_0 J_7478118969 J_306619095 4.50 0.013 0 0
C_306619108_306619097_0 J_306619108 J_306619097 36.65 0.013 0 0
C_306619108_3161269203_0 J_306619108 J_3161269203 159.39 0.013 0 0
C_306619108_306619114_0 J_306619108 J_306619114 57.69 0.013 0 0
C_306619114_306619107_0 J_306619114 J_306619107 44.11 0.013 0 0
C_306619114_3161269203_0 J_306619114 J_3161269203 97.89 0.013 0 0
C_306619114_306619108_0 J_306619114 J_306619108 57.69 0.013 0 0
C_3161269203_306619114_0 J_3161269203 J_306619114 97.89 0.013 0 0
C_3161269203_306619112_0 J_3161269203 J_306619112 38.62 0.013 0 0
C_3161269203_306619108_0 J_3161269203 J_306619108 159.39 0.013 0 0
C_306619112_306619109_0 J_306619112 J_306619109 43.68 0.013 0 0
C_306619112_3161269203_0 J_306619112 J_3161269203 38.62 0.013 0 0
C_306619112_12174120924_0 J_306619112 J_12174120924 34.68 0.013 0 0
C_306619111_12174120924_0 J_306619111 J_12174120924 38.06 0.013 0 0
C_12174120924_306619111_0 J_12174120924 J_306619111 38.06 0.013 0 0
C_12174120924_12174120925_0 J_12174120924 J_12174120925 37.33 0.013 0 0
C_12174120924_306619112_0 J_12174120924 J_306619112 34.68 0.013 0 0
C_306619149_10081671366_0 J_306619149 J_10081671366 53.30 0.013 0 0
C_306619149_306619117_0 J_306619149 J_306619117 63.83 0.013 0 0
C_306619149_306619537_0 J_306619149 J_306619537 52.17 0.013 0 0
C_6885082500_306619117_0 J_6885082500 J_306619117 234.65 0.013 0 0
C_6885082500_11374930012_0 J_6885082500 J_11374930012 26.85 0.013 0 0
C_306619138_306619304_0 J_306619138 J_306619304 83.20 0.013 0 0
C_306619138_306619251_0 J_306619138 J_306619251 58.80 0.013 0 0
C_306619138_10081671366_0 J_306619138 J_10081671366 17.03 0.013 0 0
C_306619304_306619138_0 J_306619304 J_306619138 83.20 0.013 0 0
C_306619304_306619548_0 J_306619304 J_306619548 83.58 0.013 0 0
C_306619304_306619236_0 J_306619304 J_306619236 63.87 0.013 0 0
C_306619251_306619140_0 J_306619251 J_306619140 62.28 0.013 0 0
C_306619251_306619138_0 J_306619251 J_306619138 58.80 0.013 0 0
C_306619251_306619290_0 J_306619251 J_306619290 153.80 0.013 0 0
C_10081671366_306619149_0 J_10081671366 J_306619149 53.30 0.013 0 0
C_10081671366_306619138_0 J_10081671366 J_306619138 17.03 0.013 0 0
C_10081671366_5928014162_0 J_10081671366 J_5928014162 58.49 0.013 0 0
C_306619537_306619613_0 J_306619537 J_306619613 62.20 0.013 0 0
C_306619537_306619149_0 J_306619537 J_306619149 52.17 0.013 0 0
C_306619537_5928014162_0 J_306619537 J_5928014162 53.72 0.013 0 0
C_306619290_306612618_0 J_306619290 J_306612618 61.11 0.013 0 0
C_306619290_306619251_0 J_306619290 J_306619251 153.80 0.013 0 0
C_306619548_306619304_0 J_306619548 J_306619304 83.58 0.013 0 0
C_306619548_306619660_0 J_306619548 J_306619660 62.58 0.013 0 0
C_306619548_5928014162_0 J_306619548 J_5928014162 82.16 0.013 0 0
C_306619358_306619613_0 J_306619358 J_306619613 61.39 0.013 0 0
C_306619358_306619459_0 J_306619358 J_306619459 137.05 0.013 0 0
C_306619358_6885082496_0 J_306619358 J_6885082496 65.74 0.013 0 0
C_306619613_306619358_0 J_306619613 J_306619358 61.39 0.013 0 0
C_306619613_306619537_0 J_306619613 J_306619537 62.20 0.013 0 0
C_306619613_306619660_0 J_306619613 J_306619660 136.46 0.013 0 0
C_306619459_306619358_0 J_306619459 J_306619358 137.05 0.013 0 0
C_306619459_306619660_0 J_306619459 J_306619660 62.06 0.013 0 0
C_306619459_306619430_0 J_306619459 J_306619430 64.95 0.013 0 0
C_6885082496_306619358_0 J_6885082496 J_306619358 65.74 0.013 0 0
C_6885082496_6885082500_0 J_6885082496 J_6885082500 61.82 0.013 0 0
C_306619430_306613207_0 J_306619430 J_306613207 136.33 0.013 0 0
C_306619430_306619459_0 J_306619430 J_306619459 64.95 0.013 0 0
C_306619660_306619548_0 J_306619660 J_306619548 62.58 0.013 0 0
C_306619660_306619459_0 J_306619660 J_306619459 62.06 0.013 0 0
C_306619660_306619613_0 J_306619660 J_306619613 136.46 0.013 0 0
C_5928014162_306619548_0 J_5928014162 J_306619548 82.16 0.013 0 0
C_5928014162_306619537_0 J_5928014162 J_306619537 53.72 0.013 0 0
C_5928014162_10081671366_0 J_5928014162 J_10081671366 58.49 0.013 0 0
C_306619844_306619995_0 J_306619844 J_306619995 34.79 0.013 0 0
C_306619844_306619786_0 J_306619844 J_306619786 36.94 0.013 0 0
C_306619844_306619953_0 J_306619844 J_306619953 137.26 0.013 0 0
C_306619995_306620209_0 J_306619995 J_306620209 75.18 0.013 0 0
C_306619995_306619844_0 J_306619995 J_306619844 34.79 0.013 0 0
C_306619995_306620173_0 J_306619995 J_306620173 35.66 0.013 0 0
C_306619845_306619847_0 J_306619845 J_306619847 50.90 0.013 0 0
C_306619845_306620209_0 J_306619845 J_306620209 145.84 0.013 0 0
C_306619845_306620177_0 J_306619845 J_306620177 31.54 0.013 0 0
C_306619847_306619845_0 J_306619847 J_306619845 50.90 0.013 0 0
C_306619847_306620777_0 J_306619847 J_306620777 164.21 0.013 0 0
C_306619847_306620753_0 J_306619847 J_306620753 54.80 0.013 0 0
C_306620209_595767079_0 J_306620209 J_595767079 35.11 0.013 0 0
C_306620209_306620210_0 J_306620209 J_306620210 52.22 0.013 0 0
C_306620209_306619845_0 J_306620209 J_306619845 145.84 0.013 0 0
C_306620209_306619995_0 J_306620209 J_306619995 75.18 0.013 0 0
C_306620777_306619847_0 J_306620777 J_306619847 164.21 0.013 0 0
C_306620753_306620210_0 J_306620753 J_306620210 192.73 0.013 0 0
C_306620753_306619847_0 J_306620753 J_306619847 54.80 0.013 0 0
C_306620753_306620795_0 J_306620753 J_306620795 48.80 0.013 0 0
C_306620753_2414639343_0 J_306620753 J_2414639343 66.42 0.013 0 0
C_306620173_306620007_0 J_306620173 J_306620007 100.80 0.013 0 0
C_306620173_306619995_0 J_306620173 J_306619995 35.66 0.013 0 0
C_306620173_306620181_0 J_306620173 J_306620181 45.15 0.013 0 0
C_306620148_306620088_0 J_306620148 J_306620088 48.31 0.013 0 0
C_306620148_306620007_0 J_306620148 J_306620007 46.33 0.013 0 0
C_306620148_306620124_0 J_306620148 J_306620124 121.64 0.013 0 0
C_306620088_306620053_0 J_306620088 J_306620053 34.97 0.013 0 0
C_306620088_306620148_0 J_306620088 J_306620148 48.31 0.013 0 0
C_306620088_306620123_0 J_306620088 J_306620123 121.84 0.013 0 0
C_6887795923_5961754417_0 J_6887795923 J_5961754417 114.30 0.013 0 0
C_6887795923_306620177_0 J_6887795923 J_306620177 176.02 0.013 0 0
C_595767079_306620209_0 J_595767079 J_306620209 35.11 0.013 0 0
C_595767079_306620181_0 J_595767079 J_306620181 28.64 0.013 0 0
C_595767079_10094586221_0 J_595767079 J_10094586221 75.29 0.013 0 0
C_306620210_306620753_0 J_306620210 J_306620753 192.73 0.013 0 0
C_306620210_306620209_0 J_306620210 J_306620209 52.22 0.013 0 0
C_306620210_306620788_0 J_306620210 J_306620788 46.86 0.013 0 0
C_306620210_306620879_0 J_306620210 J_306620879 45.21 0.013 0 0
C_306620788_306620210_0 J_306620788 J_306620210 46.86 0.013 0 0
C_306620788_306620866_0 J_306620788 J_306620866 72.90 0.013 0 0
C_306620788_306620833_0 J_306620788 J_306620833 22.18 0.013 0 0
C_306620795_306620800_0 J_306620795 J_306620800 51.27 0.013 0 0
C_306620795_306620753_0 J_306620795 J_306620753 48.80 0.013 0 0
C_306620795_306620763_0 J_306620795 J_306620763 120.40 0.013 0 0
C_2414639343_306620753_0 J_2414639343 J_306620753 66.42 0.013 0 0
C_2414639343_2414635984_0 J_2414639343 J_2414635984 170.24 0.013 0 0
C_2414639343_2414639342_0 J_2414639343 J_2414639342 51.13 0.013 0 0
C_306620833_306620826_0 J_306620833 J_306620826 40.79 0.013 0 0
C_306620833_306620788_0 J_306620833 J_306620788 22.18 0.013 0 0
C_306620833_306620828_0 J_306620833 J_306620828 120.99 0.013 0 0
C_306620800_306620795_0 J_306620800 J_306620795 51.27 0.013 0 0
C_306620800_306620804_0 J_306620800 J_306620804 37.84 0.013 0 0
C_306620800_306620799_0 J_306620800 J_306620799 120.99 0.013 0 0
C_306620804_306620800_0 J_306620804 J_306620800 37.84 0.013 0 0
C_306620804_306620826_0 J_306620804 J_306620826 37.09 0.013 0 0
C_306620804_306620803_0 J_306620804 J_306620803 120.90 0.013 0 0
C_306620826_306620804_0 J_306620826 J_306620804 37.09 0.013 0 0
C_306620826_306620833_0 J_306620826 J_306620833 40.79 0.013 0 0
C_306620826_306620825_0 J_306620826 J_306620825 120.96 0.013 0 0
C_306620870_306620866_0 J_306620870 J_306620866 42.43 0.013 0 0
C_306620870_306620859_0 J_306620870 J_306620859 171.01 0.013 0 0
C_306620870_306620879_0 J_306620870 J_306620879 118.72 0.013 0 0
C_306621104_2387017508_0 J_306621104 J_2387017508 56.08 0.013 0 0
C_306621104_2447310407_0 J_306621104 J_2447310407 31.51 0.013 0 0
C_306621104_7432244856_0 J_306621104 J_7432244856 38.37 0.013 0 0
C_2387017508_306621104_0 J_2387017508 J_306621104 56.08 0.013 0 0
C_2387017508_6131800547_0 J_2387017508 J_6131800547 163.76 0.013 0 0
C_2447310407_6131800546_0 J_2447310407 J_6131800546 118.81 0.013 0 0
C_2447310407_306621104_0 J_2447310407 J_306621104 31.51 0.013 0 0
C_2447310407_2447310406_0 J_2447310407 J_2447310406 47.17 0.013 0 0
C_7432244856_7432244857_0 J_7432244856 J_7432244857 54.65 0.013 0 0
C_7432244856_2447310402_0 J_7432244856 J_2447310402 145.22 0.013 0 0
C_7432244856_306621104_0 J_7432244856 J_306621104 38.37 0.013 0 0
C_306621179_306621180_0 J_306621179 J_306621180 120.46 0.013 0 0
C_306621179_2388266816_0 J_306621179 J_2388266816 50.66 0.013 0 0
C_306621179_13475843621_0 J_306621179 J_13475843621 30.88 0.013 0 0
C_2388266816_306621179_0 J_2388266816 J_306621179 50.66 0.013 0 0
C_2388266816_4146211277_0 J_2388266816 J_4146211277 26.12 0.013 0 0
C_2388266816_2388266812_0 J_2388266816 J_2388266812 110.49 0.013 0 0
C_13475843621_2447310402_0 J_13475843621 J_2447310402 15.15 0.013 0 0
C_13475843621_13475843622_0 J_13475843621 J_13475843622 17.56 0.013 0 0
C_13475843621_306621179_0 J_13475843621 J_306621179 30.88 0.013 0 0
C_6196261543_4146211264_0 J_6196261543 J_4146211264 150.38 0.013 0 0
C_6196261543_306621180_0 J_6196261543 J_306621180 41.25 0.013 0 0
C_6196261543_6196261542_0 J_6196261543 J_6196261542 32.77 0.013 0 0
C_7432244870_306621180_0 J_7432244870 J_306621180 44.15 0.013 0 0
C_7432244870_4146211263_0 J_7432244870 J_4146211263 39.93 0.013 0 0
C_7432244870_7432244871_0 J_7432244870 J_7432244871 58.70 0.013 0 0
C_306621229_306621778_0 J_306621229 J_306621778 34.05 0.013 0 0
C_306621229_7432244863_0 J_306621229 J_7432244863 41.97 0.013 0 0
C_306621229_306621270_0 J_306621229 J_306621270 12.59 0.013 0 0
C_306621778_306621229_0 J_306621778 J_306621229 34.05 0.013 0 0
C_306621778_306621762_0 J_306621778 J_306621762 157.91 0.013 0 0
C_306621778_306621809_0 J_306621778 J_306621809 37.95 0.013 0 0
C_7432244863_7432244865_0 J_7432244863 J_7432244865 23.86 0.013 0 0
C_7432244863_306621229_0 J_7432244863 J_306621229 41.97 0.013 0 0
C_7432244863_7432244864_0 J_7432244863 J_7432244864 44.80 0.013 0 0
C_306621270_11431805314_0 J_306621270 J_11431805314 20.11 0.013 0 0
C_306621270_306621229_0 J_306621270 J_306621229 12.59 0.013 0 0
C_306621270_2387127863_0 J_306621270 J_2387127863 207.77 0.013 0 0
C_2387127863_2388266844_0 J_2387127863 J_2388266844 17.23 0.013 0 0
C_2387127863_306621270_0 J_2387127863 J_306621270 207.77 0.013 0 0
C_306621271_5267402569_0 J_306621271 J_5267402569 77.49 0.013 0 0
C_306621271_306621762_0 J_306621271 J_306621762 31.03 0.013 0 0
C_306621271_4146211280_0 J_306621271 J_4146211280 27.25 0.013 0 0
C_5267402569_4146211279_0 J_5267402569 J_4146211279 44.39 0.013 0 0
C_5267402569_306621271_0 J_5267402569 J_306621271 77.49 0.013 0 0
C_5267402569_5267402570_0 J_5267402569 J_5267402570 53.12 0.013 0 0
C_306621762_306621271_0 J_306621762 J_306621271 31.03 0.013 0 0
C_306621762_306621760_0 J_306621762 J_306621760 34.32 0.013 0 0
C_306621762_306621778_0 J_306621762 J_306621778 157.91 0.013 0 0
C_4146211280_306621271_0 J_4146211280 J_306621271 27.25 0.013 0 0
C_4146211280_7432244867_0 J_4146211280 J_7432244867 27.60 0.013 0 0
C_4146211280_4146211281_0 J_4146211280 J_4146211281 67.16 0.013 0 0
C_306621654_306622120_0 J_306621654 J_306622120 19.50 0.013 0 0
C_306621654_306621921_0 J_306621654 J_306621921 49.15 0.013 0 0
C_306621654_306621760_0 J_306621654 J_306621760 36.58 0.013 0 0
C_306621921_306621654_0 J_306621921 J_306621654 49.15 0.013 0 0
C_306621921_4146211271_0 J_306621921 J_4146211271 139.80 0.013 0 0
C_306621921_2406084993_0 J_306621921 J_2406084993 99.40 0.013 0 0
C_306621760_306621762_0 J_306621760 J_306621762 34.32 0.013 0 0
C_306621760_306621654_0 J_306621760 J_306621654 36.58 0.013 0 0
C_306621760_306621809_0 J_306621760 J_306621809 173.75 0.013 0 0
C_4146211271_5267402570_0 J_4146211271 J_5267402570 49.16 0.013 0 0
C_4146211271_306621921_0 J_4146211271 J_306621921 139.80 0.013 0 0
C_4146211271_4146211261_0 J_4146211271 J_4146211261 117.61 0.013 0 0
C_306622059_306622275_0 J_306622059 J_306622275 37.23 0.013 0 0
C_306622059_306622853_0 J_306622059 J_306622853 50.32 0.013 0 0
C_306622059_306622844_0 J_306622059 J_306622844 78.01 0.013 0 0
C_306622853_306622884_0 J_306622853 J_306622884 40.18 0.013 0 0
C_306622853_306622059_0 J_306622853 J_306622059 50.32 0.013 0 0
C_306622853_306622845_0 J_306622853 J_306622845 139.11 0.013 0 0
C_306622844_306622059_0 J_306622844 J_306622059 78.01 0.013 0 0
C_306622157_306622943_0 J_306622157 J_306622943 38.08 0.013 0 0
C_306622157_306622953_0 J_306622157 J_306622953 153.64 0.013 0 0
C_306622157_306622887_0 J_306622157 J_306622887 129.97 0.013 0 0
C_306622157_306622080_0 J_306622157 J_306622080 56.49 0.013 0 0
C_6505392518_5267402571_0 J_6505392518 J_5267402571 102.24 0.013 0 0
C_6505392518_5267402571_1 J_6505392518 J_5267402571 102.89 0.013 0 0
C_6505392518_306622120_0 J_6505392518 J_306622120 158.20 0.013 0 0
C_306622943_306623026_0 J_306622943 J_306623026 38.02 0.013 0 0
C_306622943_306622157_0 J_306622943 J_306622157 38.08 0.013 0 0
C_306622943_306622963_0 J_306622943 J_306622963 36.11 0.013 0 0
C_306622943_306622987_0 J_306622943 J_306622987 94.18 0.013 0 0
C_306622953_306622944_0 J_306622953 J_306622944 36.82 0.013 0 0
C_306622953_306622158_0 J_306622953 J_306622158 36.72 0.013 0 0
C_306622953_306622157_0 J_306622953 J_306622157 153.64 0.013 0 0
C_306622244_306622206_0 J_306622244 J_306622206 215.66 0.013 0 0
C_306622244_306622275_0 J_306622244 J_306622275 43.05 0.013 0 0
C_306622244_306622782_0 J_306622244 J_306622782 86.11 0.013 0 0
C_306622782_5267402571_0 J_306622782 J_5267402571 23.91 0.013 0 0
C_306622782_306622244_0 J_306622782 J_306622244 86.11 0.013 0 0
C_306622782_306622206_0 J_306622782 J_306622206 205.42 0.013 0 0
C_5267402571_306622782_0 J_5267402571 J_306622782 23.91 0.013 0 0
C_5267402571_6505392518_0 J_5267402571 J_6505392518 102.24 0.013 0 0
C_5267402571_6505392518_1 J_5267402571 J_6505392518 102.89 0.013 0 0
C_306622845_306622934_0 J_306622845 J_306622934 24.95 0.013 0 0
C_306622845_306622967_0 J_306622845 J_306622967 35.83 0.013 0 0
C_306622845_306622853_0 J_306622845 J_306622853 139.11 0.013 0 0
C_306622934_306622845_0 J_306622934 J_306622845 24.95 0.013 0 0
C_306622934_306623034_0 J_306622934 J_306623034 82.55 0.013 0 0
C_306622934_1054699509_0 J_306622934 J_1054699509 94.19 0.013 0 0
C_306622967_1054699489_0 J_306622967 J_1054699489 121.84 0.013 0 0
C_306622967_306622845_0 J_306622967 J_306622845 35.83 0.013 0 0
C_306622967_1054699537_0 J_306622967 J_1054699537 36.11 0.013 0 0
C_306622884_306622935_0 J_306622884 J_306622935 165.09 0.013 0 0
C_306622884_306622853_0 J_306622884 J_306622853 40.18 0.013 0 0
C_306622884_1054699509_0 J_306622884 J_1054699509 39.06 0.013 0 0
C_306622935_306622887_0 J_306622935 J_306622887 39.00 0.013 0 0
C_306622935_306622884_0 J_306622935 J_306622884 165.09 0.013 0 0
C_306622935_306622987_0 J_306622935 J_306622987 36.03 0.013 0 0
C_1054699509_306622934_0 J_1054699509 J_306622934 94.19 0.013 0 0
C_1054699509_306622884_0 J_1054699509 J_306622884 39.06 0.013 0 0
C_1054699509_306623000_0 J_1054699509 J_306623000 91.73 0.013 0 0
C_306623034_306622934_0 J_306623034 J_306622934 82.55 0.013 0 0
C_306623034_306623026_0 J_306623034 J_306623026 32.28 0.013 0 0
C_306623034_306623000_0 J_306623034 J_306623000 93.91 0.013 0 0
C_306622987_306622943_0 J_306622987 J_306622943 94.18 0.013 0 0
C_306622987_306622935_0 J_306622987 J_306622935 36.03 0.013 0 0
C_306622987_306623023_0 J_306622987 J_306623023 39.27 0.013 0 0
C_306623026_306623034_0 J_306623026 J_306623034 32.28 0.013 0 0
C_306623026_306622943_0 J_306623026 J_306622943 38.02 0.013 0 0
C_306623026_306623023_0 J_306623026 J_306623023 93.75 0.013 0 0
C_306622963_306622973_0 J_306622963 J_306622973 37.28 0.013 0 0
C_306622963_306622943_0 J_306622963 J_306622943 36.11 0.013 0 0
C_306622963_1054699537_0 J_306622963 J_1054699537 135.32 0.013 0 0
C_306622944_306622973_0 J_306622944 J_306622973 80.12 0.013 0 0
C_306622944_1054699551_0 J_306622944 J_1054699551 110.89 0.013 0 0
C_306622944_306622953_0 J_306622944 J_306622953 36.82 0.013 0 0
C_306622973_306622944_0 J_306622973 J_306622944 80.12 0.013 0 0
C_306622973_306622963_0 J_306622973 J_306622963 37.28 0.013 0 0
C_306622973_306622975_0 J_306622973 J_306622975 125.81 0.013 0 0
C_1054699551_1054699489_0 J_1054699551 J_1054699489 36.87 0.013 0 0
C_1054699551_306622944_0 J_1054699551 J_306622944 110.89 0.013 0 0
C_1054699551_306622975_0 J_1054699551 J_306622975 77.92 0.013 0 0
C_1054699537_306622967_0 J_1054699537 J_306622967 36.11 0.013 0 0
C_1054699537_306622963_0 J_1054699537 J_306622963 135.32 0.013 0 0
C_1054699537_306622975_0 J_1054699537 J_306622975 41.57 0.013 0 0
C_306622975_306622973_0 J_306622975 J_306622973 125.81 0.013 0 0
C_306622975_1054699537_0 J_306622975 J_1054699537 41.57 0.013 0 0
C_306622975_1054699551_0 J_306622975 J_1054699551 77.92 0.013 0 0
C_306623023_306623000_0 J_306623023 J_306623000 32.25 0.013 0 0
C_306623023_306622987_0 J_306623023 J_306622987 39.27 0.013 0 0
C_306623023_306623026_0 J_306623023 J_306623026 93.75 0.013 0 0
C_306623000_1054699509_0 J_306623000 J_1054699509 91.73 0.013 0 0
C_306623000_306623023_0 J_306623000 J_306623023 32.25 0.013 0 0
C_306623000_306623034_0 J_306623000 J_306623034 93.91 0.013 0 0
C_836238547_10001905133_0 J_836238547 J_10001905133 141.52 0.013 0 0
C_836238547_3549124910_0 J_836238547 J_3549124910 33.93 0.013 0 0
C_836238547_306623066_0 J_836238547 J_306623066 133.88 0.013 0 0
C_836238547_10001905132_0 J_836238547 J_10001905132 188.07 0.013 0 0
C_3549124825_306623098_0 J_3549124825 J_306623098 179.64 0.013 0 0
C_3549124825_306623540_0 J_3549124825 J_306623540 36.67 0.013 0 0
C_3549124825_3549124822_0 J_3549124825 J_3549124822 58.16 0.013 0 0
C_306623144_306623172_0 J_306623144 J_306623172 109.46 0.013 0 0
C_306623144_306623288_0 J_306623144 J_306623288 53.56 0.013 0 0
C_306623144_306623098_0 J_306623144 J_306623098 55.39 0.013 0 0
C_3549124908_3549124909_0 J_3549124908 J_3549124909 50.47 0.013 0 0
C_3549124908_3549124822_0 J_3549124908 J_3549124822 185.78 0.013 0 0
C_3549124908_306623098_0 J_3549124908 J_306623098 59.77 0.013 0 0
C_306623127_5267402561_0 J_306623127 J_5267402561 61.58 0.013 0 0
C_306623127_7432244880_0 J_306623127 J_7432244880 34.86 0.013 0 0
C_306623127_2407671508_0 J_306623127 J_2407671508 68.04 0.013 0 0
C_5267402561_306623127_0 J_5267402561 J_306623127 61.58 0.013 0 0
C_5267402561_306623172_0 J_5267402561 J_306623172 71.16 0.013 0 0
C_5267402561_5267402562_0 J_5267402561 J_5267402562 34.02 0.013 0 0
C_7432244880_5267402562_0 J_7432244880 J_5267402562 59.45 0.013 0 0
C_7432244880_3298878307_0 J_7432244880 J_3298878307 26.39 0.013 0 0
C_7432244880_306623127_0 J_7432244880 J_306623127 34.86 0.013 0 0
C_306623172_5267402561_0 J_306623172 J_5267402561 71.16 0.013 0 0
C_306623172_306623144_0 J_306623172 J_306623144 109.46 0.013 0 0
C_306623172_7432244881_0 J_306623172 J_7432244881 30.78 0.013 0 0
C_306623288_306623545_0 J_306623288 J_306623545 158.94 0.013 0 0
C_306623288_306623144_0 J_306623288 J_306623144 53.56 0.013 0 0
C_306623288_306623346_0 J_306623288 J_306623346 29.72 0.013 0 0
C_306623366_306623347_0 J_306623366 J_306623347 39.54 0.013 0 0
C_306623366_306623149_0 J_306623366 J_306623149 37.50 0.013 0 0
C_306623366_306623614_0 J_306623366 J_306623614 52.72 0.013 0 0
C_306623366_306623579_0 J_306623366 J_306623579 92.48 0.013 0 0
C_306623545_306623288_0 J_306623545 J_306623288 158.94 0.013 0 0
C_306623545_306623579_0 J_306623545 J_306623579 35.51 0.013 0 0
C_306623545_306623149_0 J_306623545 J_306623149 95.91 0.013 0 0
C_306623545_306623540_0 J_306623545 J_306623540 53.92 0.013 0 0
C_7432244881_306623250_0 J_7432244881 J_306623250 27.30 0.013 0 0
C_7432244881_306623172_0 J_7432244881 J_306623172 30.78 0.013 0 0
C_7432244881_5267402562_0 J_7432244881 J_5267402562 71.83 0.013 0 0
C_306623250_7432244881_0 J_306623250 J_7432244881 27.30 0.013 0 0
C_306623250_306623289_0 J_306623250 J_306623289 34.41 0.013 0 0
C_306623250_6143210298_0 J_306623250 J_6143210298 37.41 0.013 0 0
C_306623250_6567395226_0 J_306623250 J_6567395226 72.08 0.013 0 0
C_306623289_306623346_0 J_306623289 J_306623346 43.70 0.013 0 0
C_306623289_306623250_0 J_306623289 J_306623250 34.41 0.013 0 0
C_306623289_306626269_0 J_306623289 J_306626269 179.71 0.013 0 0
C_6143210298_6567395238_0 J_6143210298 J_6567395238 33.67 0.013 0 0
C_6143210298_306623250_0 J_6143210298 J_306623250 37.41 0.013 0 0
C_6143210298_6567395227_0 J_6143210298 J_6567395227 72.15 0.013 0 0
C_6567395226_5267402562_0 J_6567395226 J_5267402562 30.17 0.013 0 0
C_6567395226_6567395227_0 J_6567395226 J_6567395227 32.16 0.013 0 0
C_6567395226_11865527609_0 J_6567395226 J_11865527609 58.63 0.013 0 0
C_6567395226_306623250_0 J_6567395226 J_306623250 72.08 0.013 0 0
C_306623252_306626269_0 J_306623252 J_306626269 29.17 0.013 0 0
C_306623252_6567395231_0 J_306623252 J_6567395231 41.77 0.013 0 0
C_306623252_306626271_0 J_306623252 J_306626271 119.13 0.013 0 0
C_306626269_306623347_0 J_306626269 J_306623347 65.07 0.013 0 0
C_306626269_306623289_0 J_306626269 J_306623289 179.71 0.013 0 0
C_306626269_306623252_0 J_306626269 J_306623252 29.17 0.013 0 0
C_6567395231_306623252_0 J_6567395231 J_306623252 41.77 0.013 0 0
C_6567395231_6567395235_0 J_6567395231 J_6567395235 34.28 0.013 0 0
C_6567395231_12174205245_0 J_6567395231 J_12174205245 71.56 0.013 0 0
C_306623346_306623288_0 J_306623346 J_306623288 29.72 0.013 0 0
C_306623346_306623289_0 J_306623346 J_306623289 43.70 0.013 0 0
C_306623346_306623579_0 J_306623346 J_306623579 156.77 0.013 0 0
C_306623579_306623366_0 J_306623579 J_306623366 92.48 0.013 0 0
C_306623579_306623346_0 J_306623579 J_306623346 156.77 0.013 0 0
C_306623579_306623545_0 J_306623579 J_306623545 35.51 0.013 0 0
C_306623646_306623347_0 J_306623646 J_306623347 37.93 0.013 0 0
C_306623646_306623642_0 J_306623646 J_306623642 34.41 0.013 0 0
C_306623646_306623514_0 J_306623646 J_306623514 137.10 0.013 0 0
C_306623614_306623632_0 J_306623614 J_306623632 46.50 0.013 0 0
C_306623614_306623366_0 J_306623614 J_306623366 52.72 0.013 0 0
C_306623614_306623631_0 J_306623614 J_306623631 81.83 0.013 0 0
C_306623368_306623367_0 J_306623368 J_306623367 48.67 0.013 0 0
C_306623368_306623673_0 J_306623368 J_306623673 27.80 0.013 0 0
C_306623368_306623514_0 J_306623368 J_306623514 40.72 0.013 0 0
C_306624836_306624820_0 J_306624836 J_306624820 44.54 0.013 0 0
C_306624836_306624943_0 J_306624836 J_306624943 37.97 0.013 0 0
C_306624836_306623367_0 J_306624836 J_306623367 167.93 0.013 0 0
C_306623514_306623640_0 J_306623514 J_306623640 35.76 0.013 0 0
C_306623514_306623368_0 J_306623514 J_306623368 40.72 0.013 0 0
C_306623514_306623646_0 J_306623514 J_306623646 137.10 0.013 0 0
C_306623471_306623640_0 J_306623471 J_306623640 134.93 0.013 0 0
C_306623471_10094529583_0 J_306623471 J_10094529583 42.38 0.013 0 0
C_306623471_306624820_0 J_306623471 J_306624820 47.22 0.013 0 0
C_306623640_306623471_0 J_306623640 J_306623471 134.93 0.013 0 0
C_306623640_306623514_0 J_306623640 J_306623514 35.76 0.013 0 0
C_306623640_10094529584_0 J_306623640 J_10094529584 39.38 0.013 0 0
C_10094529583_10094529584_0 J_10094529583 J_10094529584 131.26 0.013 0 0
C_10094529583_1468908333_0 J_10094529583 J_1468908333 22.96 0.013 0 0
C_10094529583_306623471_0 J_10094529583 J_306623471 42.38 0.013 0 0
C_306623540_3549124825_0 J_306623540 J_3549124825 36.67 0.013 0 0
C_306623540_836238514_0 J_306623540 J_836238514 16.47 0.013 0 0
C_306623540_306623545_0 J_306623540 J_306623545 53.92 0.013 0 0
C_836238514_306623540_0 J_836238514 J_306623540 16.47 0.013 0 0
C_836238514_836238509_0 J_836238514 J_836238509 37.18 0.013 0 0
C_836238514_836238551_0 J_836238514 J_836238551 155.30 0.013 0 0
C_306623632_306623673_0 J_306623632 J_306623673 47.45 0.013 0 0
C_306623632_306623614_0 J_306623632 J_306623614 46.50 0.013 0 0
C_306623632_10094529579_0 J_306623632 J_10094529579 73.37 0.013 0 0
C_306623633_306623631_0 J_306623633 J_306623631 32.10 0.013 0 0
C_306623633_10094529579_0 J_306623633 J_10094529579 13.35 0.013 0 0
C_306623633_836238561_0 J_306623633 J_836238561 51.67 0.013 0 0
C_836238561_3549123729_0 J_836238561 J_3549123729 34.55 0.013 0 0
C_836238561_5267369424_0 J_836238561 J_5267369424 205.52 0.013 0 0
C_836238561_5267369424_1 J_836238561 J_5267369424 105.60 0.013 0 0
C_836238561_306623633_0 J_836238561 J_306623633 51.67 0.013 0 0
C_10094529584_6193921852_0 J_10094529584 J_6193921852 32.08 0.013 0 0
C_10094529584_306623640_0 J_10094529584 J_306623640 39.38 0.013 0 0
C_10094529584_10094529583_0 J_10094529584 J_10094529583 131.26 0.013 0 0
C_306623642_6193921852_0 J_306623642 J_6193921852 70.79 0.013 0 0
C_306623642_6193921851_0 J_306623642 J_6193921851 87.47 0.013 0 0
C_306623642_306623646_0 J_306623642 J_306623646 34.41 0.013 0 0
C_6193921852_306623642_0 J_6193921852 J_306623642 70.79 0.013 0 0
C_6193921852_10094529584_0 J_6193921852 J_10094529584 32.08 0.013 0 0
C_6193921852_10094529581_0 J_6193921852 J_10094529581 51.66 0.013 0 0
C_6193921851_306623648_0 J_6193921851 J_306623648 28.39 0.013 0 0
C_6193921851_306623642_0 J_6193921851 J_306623642 87.47 0.013 0 0
C_6193921851_6193921850_0 J_6193921851 J_6193921850 77.97 0.013 0 0
C_1468908333_306625687_0 J_1468908333 J_306625687 50.78 0.013 0 0
C_1468908333_6193921850_0 J_1468908333 J_6193921850 40.47 0.013 0 0
C_1468908333_306623648_0 J_1468908333 J_306623648 81.54 0.013 0 0
C_1468908333_10094529583_0 J_1468908333 J_10094529583 22.96 0.013 0 0
C_306623783_4377707469_0 J_306623783 J_4377707469 52.33 0.013 0 0
C_306623783_2387012139_0 J_306623783 J_2387012139 48.02 0.013 0 0
C_306623783_1488526923_0 J_306623783 J_1488526923 128.51 0.013 0 0
C_4377707469_306623783_0 J_4377707469 J_306623783 52.33 0.013 0 0
C_4377707469_4377707475_0 J_4377707469 J_4377707475 29.00 0.013 0 0
C_4377707469_4377707474_0 J_4377707469 J_4377707474 147.51 0.013 0 0
C_2387012139_306623783_0 J_2387012139 J_306623783 48.02 0.013 0 0
C_2387012139_6152326682_0 J_2387012139 J_6152326682 3.61 0.013 0 0
C_1488526923_1488526919_0 J_1488526923 J_1488526919 38.12 0.013 0 0
C_1488526923_1488526894_0 J_1488526923 J_1488526894 48.66 0.013 0 0
C_1488526923_1488526889_0 J_1488526923 J_1488526889 70.91 0.013 0 0
C_1488526923_306623783_0 J_1488526923 J_306623783 128.51 0.013 0 0
C_306625001_306624837_0 J_306625001 J_306624837 38.59 0.013 0 0
C_306625001_306624796_0 J_306625001 J_306624796 102.44 0.013 0 0
C_306625001_306625106_0 J_306625001 J_306625106 36.56 0.013 0 0
C_306625001_306625286_0 J_306625001 J_306625286 56.35 0.013 0 0
C_306624987_306625194_0 J_306624987 J_306625194 27.86 0.013 0 0
C_306624987_306624796_0 J_306624987 J_306624796 58.61 0.013 0 0
C_306624987_306625286_0 J_306624987 J_306625286 114.55 0.013 0 0
C_306625124_306624796_0 J_306625124 J_306624796 37.11 0.013 0 0
C_306625124_7467099419_0 J_306625124 J_7467099419 31.83 0.013 0 0
C_306625124_306625106_0 J_306625124 J_306625106 93.55 0.013 0 0
C_306624943_306624837_0 J_306624943 J_306624837 113.41 0.013 0 0
C_306624943_306624836_0 J_306624943 J_306624836 37.97 0.013 0 0
C_306624943_306624999_0 J_306624943 J_306624999 37.14 0.013 0 0
C_306624837_306625001_0 J_306624837 J_306625001 38.59 0.013 0 0
C_306624837_306624842_0 J_306624837 J_306624842 144.27 0.013 0 0
C_306624837_306624943_0 J_306624837 J_306624943 113.41 0.013 0 0
C_306624842_306624839_0 J_306624842 J_306624839 51.99 0.013 0 0
C_306624842_306624837_0 J_306624842 J_306624837 144.27 0.013 0 0
C_306624842_306624983_0 J_306624842 J_306624983 41.38 0.013 0 0
C_306624983_306624842_0 J_306624983 J_306624842 41.38 0.013 0 0
C_306624983_7467099419_0 J_306624983 J_7467099419 113.07 0.013 0 0
C_306624983_7467099418_0 J_306624983 J_7467099418 71.42 0.013 0 0
C_306624999_306624988_0 J_306624999 J_306624988 121.17 0.013 0 0
C_306624999_306624943_0 J_306624999 J_306624943 37.14 0.013 0 0
C_306624999_306625203_0 J_306624999 J_306625203 30.00 0.013 0 0
C_306624988_306625194_0 J_306624988 J_306625194 29.37 0.013 0 0
C_306624988_306624975_0 J_306624988 J_306624975 52.23 0.013 0 0
C_306624988_306624999_0 J_306624988 J_306624999 121.17 0.013 0 0
C_7467099419_306625124_0 J_7467099419 J_306625124 31.83 0.013 0 0
C_7467099419_306624983_0 J_7467099419 J_306624983 113.07 0.013 0 0
C_7467099419_7467099418_0 J_7467099419 J_7467099418 81.67 0.013 0 0
C_7467099418_306625106_0 J_7467099418 J_306625106 27.29 0.013 0 0
C_7467099418_306624983_0 J_7467099418 J_306624983 71.42 0.013 0 0
C_7467099418_7467099419_0 J_7467099418 J_7467099419 81.67 0.013 0 0
C_306625194_306624988_0 J_306625194 J_306624988 29.37 0.013 0 0
C_306625194_306624987_0 J_306625194 J_306624987 27.86 0.013 0 0
C_306625194_306625203_0 J_306625194 J_306625203 117.57 0.013 0 0
C_306625286_306625001_0 J_306625286 J_306625001 56.35 0.013 0 0
C_306625286_306625203_0 J_306625286 J_306625203 27.11 0.013 0 0
C_306625286_306624987_0 J_306625286 J_306624987 114.55 0.013 0 0
C_306625203_306625286_0 J_306625203 J_306625286 27.11 0.013 0 0
C_306625203_306624999_0 J_306625203 J_306624999 30.00 0.013 0 0
C_306625203_306625194_0 J_306625203 J_306625194 117.57 0.013 0 0
C_306625106_7467099418_0 J_306625106 J_7467099418 27.29 0.013 0 0
C_306625106_306625001_0 J_306625106 J_306625001 36.56 0.013 0 0
C_306625106_306625124_0 J_306625106 J_306625124 93.55 0.013 0 0
C_306626042_306625751_0 J_306626042 J_306625751 67.84 0.013 0 0
C_306626042_306625528_0 J_306626042 J_306625528 106.05 0.013 0 0
C_306626042_306626117_0 J_306626042 J_306626117 31.05 0.013 0 0
C_306626118_306626117_0 J_306626118 J_306626117 106.59 0.013 0 0
C_306626118_306625528_0 J_306626118 J_306625528 28.78 0.013 0 0
C_306626118_306626116_0 J_306626118 J_306626116 30.37 0.013 0 0
C_306625656_622363166_0 J_306625656 J_622363166 139.66 0.013 0 0
C_306625656_306626245_0 J_306625656 J_306626245 35.17 0.013 0 0
C_306625656_306626120_0 J_306625656 J_306626120 38.42 0.013 0 0
C_622363166_306625656_0 J_622363166 J_306625656 139.66 0.013 0 0
C_622363166_306625687_0 J_622363166 J_306625687 35.89 0.013 0 0
C_622363166_622363165_0 J_622363166 J_622363165 36.03 0.013 0 0
C_306626245_306626127_0 J_306626245 J_306626127 48.63 0.013 0 0
C_306626245_306625656_0 J_306626245 J_306625656 35.17 0.013 0 0
C_306626245_622363165_0 J_306626245 J_622363165 138.02 0.013 0 0
C_306626120_306625656_0 J_306626120 J_306625656 38.42 0.013 0 0
C_306626120_306625695_0 J_306626120 J_306625695 32.09 0.013 0 0
C_306626120_306626041_0 J_306626120 J_306626041 35.79 0.013 0 0
C_306625687_306626041_0 J_306625687 J_306626041 107.24 0.013 0 0
C_306625687_1468908333_0 J_306625687 J_1468908333 50.78 0.013 0 0
C_306625687_306626116_0 J_306625687 J_306626116 32.93 0.013 0 0
C_306625687_622363166_0 J_306625687 J_622363166 35.89 0.013 0 0
C_306626041_306625687_0 J_306626041 J_306625687 107.24 0.013 0 0
C_306626041_306626044_0 J_306626041 J_306626044 33.37 0.013 0 0
C_306626041_306626120_0 J_306626041 J_306626120 35.79 0.013 0 0
C_306626116_306626044_0 J_306626116 J_306626044 107.07 0.013 0 0
C_306626116_306626118_0 J_306626116 J_306626118 30.37 0.013 0 0
C_306626116_306625687_0 J_306626116 J_306625687 32.93 0.013 0 0
C_2414635985_2414635986_0 J_2414635985 J_2414635986 131.18 0.013 0 0
C_2414635985_306625695_0 J_2414635985 J_306625695 28.02 0.013 0 0
C_2414635985_306625994_0 J_2414635985 J_306625994 28.29 0.013 0 0
C_306625812_306625861_0 J_306625812 J_306625861 38.77 0.013 0 0
C_306625812_306625696_0 J_306625812 J_306625696 99.15 0.013 0 0
C_306625812_306625695_0 J_306625812 J_306625695 33.73 0.013 0 0
C_306625696_2414635986_0 J_306625696 J_2414635986 23.98 0.013 0 0
C_306625696_306625946_0 J_306625696 J_306625946 38.72 0.013 0 0
C_306625696_306625812_0 J_306625696 J_306625812 99.15 0.013 0 0
C_2414635986_306626040_0 J_2414635986 J_306626040 33.31 0.013 0 0
C_2414635986_306625696_0 J_2414635986 J_306625696 23.98 0.013 0 0
C_2414635986_2414635985_0 J_2414635986 J_2414635985 131.18 0.013 0 0
C_306625946_306625919_0 J_306625946 J_306625919 35.42 0.013 0 0
C_306625946_306625861_0 J_306625946 J_306625861 98.94 0.013 0 0
C_306625946_306625696_0 J_306625946 J_306625696 38.72 0.013 0 0
C_306625751_10094529594_0 J_306625751 J_10094529594 32.34 0.013 0 0
C_306625751_306626042_0 J_306625751 J_306626042 67.84 0.013 0 0
C_306625751_306625994_0 J_306625751 J_306625994 39.64 0.013 0 0
C_306625751_1469644202_0 J_306625751 J_1469644202 157.64 0.013 0 0
C_10094529594_10994556964_0 J_10094529594 J_10994556964 53.85 0.013 0 0
C_10094529594_306625751_0 J_10094529594 J_306625751 32.34 0.013 0 0
C_306625994_306626040_0 J_306625994 J_306626040 133.28 0.013 0 0
C_306625994_2414635985_0 J_306625994 J_2414635985 28.29 0.013 0 0
C_306625994_306625751_0 J_306625994 J_306625751 39.64 0.013 0 0
C_306625818_306625861_0 J_306625818 J_306625861 35.36 0.013 0 0
C_306625818_306625759_0 J_306625818 J_306625759 46.43 0.013 0 0
C_306625818_6195583528_0 J_306625818 J_6195583528 156.90 0.013 0 0
C_306625861_306625812_0 J_306625861 J_306625812 38.77 0.013 0 0
C_306625861_306625818_0 J_306625861 J_306625818 35.36 0.013 0 0
C_306625861_306625946_0 J_306625861 J_306625946 98.94 0.013 0 0
C_6195583528_306625916_0 J_6195583528 J_306625916 45.99 0.013 0 0
C_6195583528_306625818_0 J_6195583528 J_306625818 156.90 0.013 0 0
C_6195583528_6195583527_0 J_6195583528 J_6195583527 34.21 0.013 0 0
C_306625912_6195583527_0 J_306625912 J_6195583527 41.96 0.013 0 0
C_306625912_306625916_0 J_306625912 J_306625916 32.98 0.013 0 0
C_306625912_2414635979_0 J_306625912 J_2414635979 89.78 0.013 0 0
C_6195583527_306625912_0 J_6195583527 J_306625912 41.96 0.013 0 0
C_6195583527_306625919_0 J_6195583527 J_306625919 21.33 0.013 0 0
C_6195583527_6195583528_0 J_6195583527 J_6195583528 34.21 0.013 0 0
C_306625916_6195583528_0 J_306625916 J_6195583528 45.99 0.013 0 0
C_306625916_306625912_0 J_306625916 J_306625912 32.98 0.013 0 0
C_306625916_6130692320_0 J_306625916 J_6130692320 52.03 0.013 0 0
C_2414635979_2414635978_0 J_2414635979 J_2414635978 53.93 0.013 0 0
C_2414635979_2414635981_0 J_2414635979 J_2414635981 51.85 0.013 0 0
C_2414635979_306625912_0 J_2414635979 J_306625912 89.78 0.013 0 0
C_6130692320_6567100315_0 J_6130692320 J_6567100315 96.10 0.013 0 0
C_6130692320_7432382395_0 J_6130692320 J_7432382395 4.93 0.013 0 0
C_6130692320_306625916_0 J_6130692320 J_306625916 52.03 0.013 0 0
C_306625919_6195583527_0 J_306625919 J_6195583527 21.33 0.013 0 0
C_306625919_306625946_0 J_306625919 J_306625946 35.42 0.013 0 0
C_306625919_2414635981_0 J_306625919 J_2414635981 94.86 0.013 0 0
C_2414635981_306625927_0 J_2414635981 J_306625927 37.52 0.013 0 0
C_2414635981_306625919_0 J_2414635981 J_306625919 94.86 0.013 0 0
C_2414635981_2414635979_0 J_2414635981 J_2414635979 51.85 0.013 0 0
C_2414635981_306626040_0 J_2414635981 J_306626040 35.60 0.013 0 0
C_306625927_306625980_0 J_306625927 J_306625980 38.49 0.013 0 0
C_306625927_2414635981_0 J_306625927 J_2414635981 37.52 0.013 0 0
C_306625927_2273437034_0 J_306625927 J_2273437034 101.60 0.013 0 0
C_306625980_306625927_0 J_306625980 J_306625927 38.49 0.013 0 0
C_306625980_10994556964_0 J_306625980 J_10994556964 43.00 0.013 0 0
C_306625980_306626040_0 J_306625980 J_306626040 34.21 0.013 0 0
C_2273437034_306625927_0 J_2273437034 J_306625927 101.60 0.013 0 0
C_2273437034_2019288832_0 J_2273437034 J_2019288832 137.27 0.013 0 0
C_2273437034_2414635978_0 J_2273437034 J_2414635978 38.33 0.013 0 0
C_10994556964_306625980_0 J_10994556964 J_306625980 43.00 0.013 0 0
C_10994556964_10094529594_0 J_10994556964 J_10094529594 53.85 0.013 0 0
C_10994556964_10994556963_0 J_10994556964 J_10994556963 19.06 0.013 0 0
C_306626040_306625980_0 J_306626040 J_306625980 34.21 0.013 0 0
C_306626040_2414635986_0 J_306626040 J_2414635986 33.31 0.013 0 0
C_306626040_2414635981_0 J_306626040 J_2414635981 35.60 0.013 0 0
C_306626040_306625994_0 J_306626040 J_306625994 133.28 0.013 0 0
C_306626044_306626117_0 J_306626044 J_306626117 29.60 0.013 0 0
C_306626044_306626041_0 J_306626044 J_306626041 33.37 0.013 0 0
C_306626044_306626116_0 J_306626044 J_306626116 107.07 0.013 0 0
C_306626117_306626042_0 J_306626117 J_306626042 31.05 0.013 0 0
C_306626117_306626044_0 J_306626117 J_306626044 29.60 0.013 0 0
C_306626117_306626118_0 J_306626117 J_306626118 106.59 0.013 0 0
C_622363165_306626245_0 J_622363165 J_306626245 138.02 0.013 0 0
C_622363165_622363166_0 J_622363165 J_622363166 36.03 0.013 0 0
C_622363165_622363164_0 J_622363165 J_622363164 48.57 0.013 0 0
C_6567395234_12174205245_0 J_6567395234 J_12174205245 51.46 0.013 0 0
C_6567395234_306626271_0 J_6567395234 J_306626271 36.31 0.013 0 0
C_6567395234_6567395237_0 J_6567395234 J_6567395237 33.32 0.013 0 0
C_313460313_1473871929_0 J_313460313 J_1473871929 55.26 0.013 0 0
C_313460313_10081725591_0 J_313460313 J_10081725591 30.34 0.013 0 0
C_313460313_313460308_0 J_313460313 J_313460308 167.19 0.013 0 0
C_313460313_1488556131_0 J_313460313 J_1488556131 49.04 0.013 0 0
C_1488556150_10094580889_0 J_1488556150 J_10094580889 38.76 0.013 0 0
C_1488556150_1473871959_0 J_1488556150 J_1473871959 42.28 0.013 0 0
C_1488556150_313460308_0 J_1488556150 J_313460308 119.05 0.013 0 0
C_1473871929_1473871927_0 J_1473871929 J_1473871927 51.85 0.013 0 0
C_1473871929_313460313_0 J_1473871929 J_313460313 55.26 0.013 0 0
C_1473871929_5267823521_0 J_1473871929 J_5267823521 13.89 0.013 0 0
C_10081725591_313460313_0 J_10081725591 J_313460313 30.34 0.013 0 0
C_10081725591_10848086334_0 J_10081725591 J_10848086334 50.35 0.013 0 0
C_10081725591_10081725592_0 J_10081725591 J_10081725592 20.69 0.013 0 0
C_1488556131_1473871927_0 J_1488556131 J_1473871927 55.25 0.013 0 0
C_1488556131_10094580887_0 J_1488556131 J_10094580887 30.38 0.013 0 0
C_1488556131_313460313_0 J_1488556131 J_313460313 49.04 0.013 0 0
C_313460396_3161269199_0 J_313460396 J_3161269199 52.89 0.013 0 0
C_313460396_3161268847_0 J_313460396 J_3161268847 15.64 0.013 0 0
C_3161269199_313460398_0 J_3161269199 J_313460398 7.65 0.013 0 0
C_3161269199_313460396_0 J_3161269199 J_313460396 52.89 0.013 0 0
C_3161269199_3161269197_0 J_3161269199 J_3161269197 69.14 0.013 0 0
C_3161268847_313460396_0 J_3161268847 J_313460396 15.64 0.013 0 0
C_3161268847_10081725549_0 J_3161268847 J_10081725549 29.37 0.013 0 0
C_313460398_3096683823_0 J_313460398 J_3096683823 30.18 0.013 0 0
C_313460398_3161269199_0 J_313460398 J_3161269199 7.65 0.013 0 0
C_313460398_1473871961_0 J_313460398 J_1473871961 58.66 0.013 0 0
C_3096683823_3161269196_0 J_3096683823 J_3161269196 31.99 0.013 0 0
C_3096683823_313460398_0 J_3096683823 J_313460398 30.18 0.013 0 0
C_3096683823_1473871941_0 J_3096683823 J_1473871941 66.41 0.013 0 0
C_3096683823_6901563123_0 J_3096683823 J_6901563123 53.35 0.013 0 0
C_1473871961_1473871941_0 J_1473871961 J_1473871941 40.53 0.013 0 0
C_1473871961_313460398_0 J_1473871961 J_313460398 58.66 0.013 0 0
C_1473871961_3096683821_0 J_1473871961 J_3096683821 226.26 0.013 0 0
C_5267835373_3504342593_0 J_5267835373 J_3504342593 135.44 0.013 0 0
C_5267835373_313460477_0 J_5267835373 J_313460477 171.77 0.013 0 0
C_5267835373_1417443517_0 J_5267835373 J_1417443517 30.38 0.013 0 0
C_313460484_313460485_0 J_313460484 J_313460485 122.20 0.013 0 0
C_313460484_1417443652_0 J_313460484 J_1417443652 34.91 0.013 0 0
C_313460484_313460550_0 J_313460484 J_313460550 40.96 0.013 0 0
C_313460484_313460477_0 J_313460484 J_313460477 63.76 0.013 0 0
C_313460485_1417443629_0 J_313460485 J_1417443629 8.89 0.013 0 0
C_313460485_313460484_0 J_313460485 J_313460484 122.20 0.013 0 0
C_313460485_10081706680_0 J_313460485 J_10081706680 25.63 0.013 0 0
C_1417443652_6528148971_0 J_1417443652 J_6528148971 23.26 0.013 0 0
C_1417443652_313460484_0 J_1417443652 J_313460484 34.91 0.013 0 0
C_1417443652_1417443633_0 J_1417443652 J_1417443633 139.59 0.013 0 0
C_313460550_313460484_0 J_313460550 J_313460484 40.96 0.013 0 0
C_313460550_6528148964_0 J_313460550 J_6528148964 55.34 0.013 0 0
C_313460550_10081706678_0 J_313460550 J_10081706678 141.00 0.013 0 0
C_1417443629_1417443628_0 J_1417443629 J_1417443628 112.39 0.013 0 0
C_1417443629_313460485_0 J_1417443629 J_313460485 8.89 0.013 0 0
C_1417443629_1417443633_0 J_1417443629 J_1417443633 23.48 0.013 0 0
C_10081706680_313460485_0 J_10081706680 J_313460485 25.63 0.013 0 0
C_6528148964_1417443584_0 J_6528148964 J_1417443584 27.68 0.013 0 0
C_6528148964_6528148963_0 J_6528148964 J_6528148963 42.93 0.013 0 0
C_6528148964_313460550_0 J_6528148964 J_313460550 55.34 0.013 0 0
C_10081706678_10081706679_0 J_10081706678 J_10081706679 65.84 0.013 0 0
C_10081706678_313460550_0 J_10081706678 J_313460550 141.00 0.013 0 0
C_10081706678_6528148966_0 J_10081706678 J_6528148966 47.25 0.013 0 0
C_313460551_2450399408_0 J_313460551 J_2450399408 37.21 0.013 0 0
C_313460551_2450399406_0 J_313460551 J_2450399406 121.53 0.013 0 0
C_313460551_747660349_0 J_313460551 J_747660349 61.66 0.013 0 0
C_2450399408_313460551_0 J_2450399408 J_313460551 37.21 0.013 0 0
C_2450399408_2450399416_0 J_2450399408 J_2450399416 36.35 0.013 0 0
C_2450399408_2450399435_0 J_2450399408 J_2450399435 112.72 0.013 0 0
C_2450399406_313460551_0 J_2450399406 J_313460551 121.53 0.013 0 0
C_2450399406_13152778980_0 J_2450399406 J_13152778980 16.57 0.013 0 0
C_2450399406_2450399417_0 J_2450399406 J_2450399417 53.93 0.013 0 0
C_2450399406_2450399435_0 J_2450399406 J_2450399435 37.55 0.013 0 0
C_348036183_3149541717_0 J_348036183 J_3149541717 17.31 0.013 0 0
C_348036183_3149541720_0 J_348036183 J_3149541720 32.88 0.013 0 0
C_348036183_7327251302_0 J_348036183 J_7327251302 74.33 0.013 0 0
C_3149541717_348036183_0 J_3149541717 J_348036183 17.31 0.013 0 0
C_3149541720_7327251302_0 J_3149541720 J_7327251302 46.48 0.013 0 0
C_3149541720_348036183_0 J_3149541720 J_348036183 32.88 0.013 0 0
C_3149541720_1473826428_0 J_3149541720 J_1473826428 157.48 0.013 0 0
C_7327251302_1481354885_0 J_7327251302 J_1481354885 38.09 0.013 0 0
C_7327251302_3149541720_0 J_7327251302 J_3149541720 46.48 0.013 0 0
C_7327251302_348036183_0 J_7327251302 J_348036183 74.33 0.013 0 0
C_417298245_4918203529_0 J_417298245 J_4918203529 66.62 0.013 0 0
C_417298245_1471714437_0 J_417298245 J_1471714437 34.98 0.013 0 0
C_417298245_1481366487_0 J_417298245 J_1481366487 43.36 0.013 0 0
C_4918203529_417298245_0 J_4918203529 J_417298245 66.62 0.013 0 0
C_4918203529_4918188101_0 J_4918203529 J_4918188101 45.99 0.013 0 0
C_4918203529_4918203528_0 J_4918203529 J_4918203528 178.66 0.013 0 0
C_1471714437_6518859320_0 J_1471714437 J_6518859320 6.61 0.013 0 0
C_1471714437_4918188103_0 J_1471714437 J_4918188103 108.03 0.013 0 0
C_1471714437_417298245_0 J_1471714437 J_417298245 34.98 0.013 0 0
C_1481366487_417298245_0 J_1481366487 J_417298245 43.36 0.013 0 0
C_1481366487_6130764691_0 J_1481366487 J_6130764691 147.96 0.013 0 0
C_650140575_650141428_0 J_650140575 J_650141428 10.59 0.013 0 0
C_650140575_2400167287_0 J_650140575 J_2400167287 7.68 0.013 0 0
C_650140575_650141087_0 J_650140575 J_650141087 353.31 0.013 0 0
C_650141428_650140575_0 J_650141428 J_650140575 10.59 0.013 0 0
C_650141428_2385141385_0 J_650141428 J_2385141385 318.94 0.013 0 0
C_2400167287_650140575_0 J_2400167287 J_650140575 7.68 0.013 0 0
C_2400167287_2400167301_0 J_2400167287 J_2400167301 356.06 0.013 0 0
C_2400167287_2406084997_0 J_2400167287 J_2406084997 200.48 0.013 0 0
C_650141087_2400167301_0 J_650141087 J_2400167301 6.73 0.013 0 0
C_650141087_1653906408_0 J_650141087 J_1653906408 45.42 0.013 0 0
C_650141020_2385141385_0 J_650141020 J_2385141385 9.01 0.013 0 0
C_650141020_2387017507_0 J_650141020 J_2387017507 13.11 0.013 0 0
C_650141020_650140575_0 J_650141020 J_650140575 317.43 0.013 0 0
C_2385141385_650141020_0 J_2385141385 J_650141020 9.01 0.013 0 0
C_2385141385_1645178560_0 J_2385141385 J_1645178560 344.55 0.013 0 0
C_2387017507_650141020_0 J_2387017507 J_650141020 13.11 0.013 0 0
C_2387017507_2400167287_0 J_2387017507 J_2400167287 311.73 0.013 0 0
C_2387017507_6130226927_0 J_2387017507 J_6130226927 109.98 0.013 0 0
C_1653906408_1608973468_0 J_1653906408 J_1608973468 303.14 0.013 0 0
C_1653906408_1653906433_0 J_1653906408 J_1653906433 621.36 0.013 0 0
C_747660340_3235639712_0 J_747660340 J_3235639712 231.02 0.013 0 0
C_747660340_2389119100_0 J_747660340 J_2389119100 12.68 0.013 0 0
C_3235639712_1417443557_0 J_3235639712 J_1417443557 113.45 0.013 0 0
C_3235639712_10081671392_0 J_3235639712 J_10081671392 94.15 0.013 0 0
C_2389119100_3235639716_0 J_2389119100 J_3235639716 151.84 0.013 0 0
C_2389119100_10081671376_0 J_2389119100 J_10081671376 185.45 0.013 0 0
C_2389119100_747660340_0 J_2389119100 J_747660340 12.68 0.013 0 0
C_747660344_3149523801_0 J_747660344 J_3149523801 19.78 0.013 0 0
C_747660344_13152778980_0 J_747660344 J_13152778980 114.80 0.013 0 0
C_747660344_1417443691_0 J_747660344 J_1417443691 28.94 0.013 0 0
C_747660344_2450399422_0 J_747660344 J_2450399422 122.28 0.013 0 0
C_3149523801_747660344_0 J_3149523801 J_747660344 19.78 0.013 0 0
C_3149523801_3149523798_0 J_3149523801 J_3149523798 94.36 0.013 0 0
C_3149523801_9792476719_0 J_3149523801 J_9792476719 47.37 0.013 0 0
C_13152778980_2450399406_0 J_13152778980 J_2450399406 16.57 0.013 0 0
C_13152778980_747660344_0 J_13152778980 J_747660344 114.80 0.013 0 0
C_13152778980_13152778981_0 J_13152778980 J_13152778981 19.91 0.013 0 0
C_1417443691_747660344_0 J_1417443691 J_747660344 28.94 0.013 0 0
C_1417443691_3235639719_0 J_1417443691 J_3235639719 33.40 0.013 0 0
C_1417443691_3235639720_0 J_1417443691 J_3235639720 78.27 0.013 0 0
C_2450399422_6528148976_0 J_2450399422 J_6528148976 32.53 0.013 0 0
C_2450399422_2450399435_0 J_2450399422 J_2450399435 36.54 0.013 0 0
C_2450399422_747660344_0 J_2450399422 J_747660344 122.28 0.013 0 0
C_11259448973_11259448962_0 J_11259448973 J_11259448962 41.29 0.013 0 0
C_11259448973_747660349_0 J_11259448973 J_747660349 14.47 0.013 0 0
C_3549123747_836238553_0 J_3549123747 J_836238553 95.48 0.013 0 0
C_3549123747_5267369429_0 J_3549123747 J_5267369429 42.78 0.013 0 0
C_3549123747_836238509_0 J_3549123747 J_836238509 55.90 0.013 0 0
C_836238551_836238553_0 J_836238551 J_836238553 36.49 0.013 0 0
C_836238551_3549124811_0 J_836238551 J_3549124811 52.66 0.013 0 0
C_836238551_3549123780_0 J_836238551 J_3549123780 47.07 0.013 0 0
C_836238551_836238514_0 J_836238551 J_836238514 155.30 0.013 0 0
C_10001905133_3549124811_0 J_10001905133 J_3549124811 57.18 0.013 0 0
C_10001905133_836238547_0 J_10001905133 J_836238547 141.52 0.013 0 0
C_10001905133_10001905132_0 J_10001905133 J_10001905132 46.32 0.013 0 0
C_3549124910_3549124909_0 J_3549124910 J_3549124909 38.96 0.013 0 0
C_3549124910_836238547_0 J_3549124910 J_836238547 33.93 0.013 0 0
C_3549124910_3549124813_0 J_3549124910 J_3549124813 194.96 0.013 0 0
C_10001905132_3549123780_0 J_10001905132 J_3549123780 109.78 0.013 0 0
C_10001905132_10001905133_0 J_10001905132 J_10001905133 46.32 0.013 0 0
C_10001905132_836238547_0 J_10001905132 J_836238547 188.07 0.013 0 0
C_836238553_5267369428_0 J_836238553 J_5267369428 45.72 0.013 0 0
C_836238553_836238551_0 J_836238553 J_836238551 36.49 0.013 0 0
C_836238553_3549123747_0 J_836238553 J_3549123747 95.48 0.013 0 0
C_3549124811_836238551_0 J_3549124811 J_836238551 52.66 0.013 0 0
C_3549124811_10001905133_0 J_3549124811 J_10001905133 57.18 0.013 0 0
C_3549124811_3549124813_0 J_3549124811 J_3549124813 32.81 0.013 0 0
C_3549123780_836238551_0 J_3549123780 J_836238551 47.07 0.013 0 0
C_3549123780_10001905132_0 J_3549123780 J_10001905132 109.78 0.013 0 0
C_3549123780_5267369424_0 J_3549123780 J_5267369424 227.05 0.013 0 0
C_5267369428_5267369426_0 J_5267369428 J_5267369426 33.74 0.013 0 0
C_5267369428_836238553_0 J_5267369428 J_836238553 45.72 0.013 0 0
C_5267369428_5267369429_0 J_5267369428 J_5267369429 96.23 0.013 0 0
C_3549123729_3549123725_0 J_3549123729 J_3549123725 100.42 0.013 0 0
C_3549123729_836238561_0 J_3549123729 J_836238561 34.55 0.013 0 0
C_3549123729_5267369427_0 J_3549123729 J_5267369427 27.95 0.013 0 0
C_5267369424_3549123725_0 J_5267369424 J_3549123725 35.70 0.013 0 0
C_5267369424_836238561_0 J_5267369424 J_836238561 205.52 0.013 0 0
C_5267369424_836238561_1 J_5267369424 J_836238561 105.60 0.013 0 0
C_5267369424_3549123780_0 J_5267369424 J_3549123780 227.05 0.013 0 0
C_1278162234_1278162335_0 J_1278162234 J_1278162335 140.43 0.013 0 0
C_1278162234_10153868763_0 J_1278162234 J_10153868763 34.93 0.013 0 0
C_1278162234_3158788597_0 J_1278162234 J_3158788597 131.29 0.013 0 0
C_1278162335_1278162234_0 J_1278162335 J_1278162234 140.43 0.013 0 0
C_1278162335_13279121428_0 J_1278162335 J_13279121428 4.44 0.013 0 0
C_1278162335_1278162239_0 J_1278162335 J_1278162239 31.47 0.013 0 0
C_10153868763_1278162234_0 J_10153868763 J_1278162234 34.93 0.013 0 0
C_10153868763_5388479540_0 J_10153868763 J_5388479540 45.10 0.013 0 0
C_10153868763_10153868765_0 J_10153868763 J_10153868765 65.83 0.013 0 0
C_3158788597_1278162311_0 J_3158788597 J_1278162311 30.17 0.013 0 0
C_3158788597_1278162234_0 J_3158788597 J_1278162234 131.29 0.013 0 0
C_1278162239_1278162335_0 J_1278162239 J_1278162335 31.47 0.013 0 0
C_1278162239_10839366478_0 J_1278162239 J_10839366478 3.11 0.013 0 0
C_1278162239_11385670152_0 J_1278162239 J_11385670152 51.64 0.013 0 0
C_10839366478_1278162239_0 J_10839366478 J_1278162239 3.11 0.013 0 0
C_10839366478_6144301681_0 J_10839366478 J_6144301681 26.01 0.013 0 0
C_11385670152_1278162239_0 J_11385670152 J_1278162239 51.64 0.013 0 0
C_11385670152_3158788112_0 J_11385670152 J_3158788112 31.76 0.013 0 0
C_11385670152_9189234403_0 J_11385670152 J_9189234403 47.02 0.013 0 0
C_1278162252_3158788604_0 J_1278162252 J_3158788604 34.71 0.013 0 0
C_1278162252_1278162290_0 J_1278162252 J_1278162290 111.72 0.013 0 0
C_1278162252_6454862032_0 J_1278162252 J_6454862032 25.61 0.013 0 0
C_3158788604_3158788600_0 J_3158788604 J_3158788600 105.61 0.013 0 0
C_3158788604_11385626668_0 J_3158788604 J_11385626668 5.26 0.013 0 0
C_3158788604_1278162252_0 J_3158788604 J_1278162252 34.71 0.013 0 0
C_1278162290_6454862031_0 J_1278162290 J_6454862031 28.86 0.013 0 0
C_1278162290_1278162252_0 J_1278162290 J_1278162252 111.72 0.013 0 0
C_1278162290_3158788134_0 J_1278162290 J_3158788134 32.76 0.013 0 0
C_6454862032_6454862031_0 J_6454862032 J_6454862031 83.14 0.013 0 0
C_6454862032_6531845897_0 J_6454862032 J_6531845897 31.00 0.013 0 0
C_6454862032_1278162252_0 J_6454862032 J_1278162252 25.61 0.013 0 0
C_1278162256_7432244834_0 J_1278162256 J_7432244834 33.87 0.013 0 0
C_1278162256_1377861068_0 J_1278162256 J_1377861068 148.80 0.013 0 0
C_7432244834_7432244835_0 J_7432244834 J_7432244835 95.38 0.013 0 0
C_7432244834_7429952391_0 J_7432244834 J_7429952391 70.36 0.013 0 0
C_1377861068_3158788633_0 J_1377861068 J_3158788633 29.84 0.013 0 0
C_1377861068_11012063564_0 J_1377861068 J_11012063564 21.47 0.013 0 0
C_1377861068_1278162357_0 J_1377861068 J_1278162357 130.65 0.013 0 0
C_1377861068_1278162256_0 J_1377861068 J_1278162256 148.80 0.013 0 0
C_1278162270_3149542145_0 J_1278162270 J_3149542145 27.69 0.013 0 0
C_1278162270_7432244840_0 J_1278162270 J_7432244840 94.02 0.013 0 0
C_1278162270_3158788133_0 J_1278162270 J_3158788133 24.29 0.013 0 0
C_1278162270_1278162293_0 J_1278162270 J_1278162293 68.24 0.013 0 0
C_3149542145_1278162270_0 J_3149542145 J_1278162270 27.69 0.013 0 0
C_3149542145_9840710126_0 J_3149542145 J_9840710126 26.74 0.013 0 0
C_3149542145_3158788131_0 J_3149542145 J_3158788131 141.38 0.013 0 0
C_7432244840_1278162270_0 J_7432244840 J_1278162270 94.02 0.013 0 0
C_3158788133_10153868766_0 J_3158788133 J_10153868766 85.59 0.013 0 0
C_3158788133_3158788134_0 J_3158788133 J_3158788134 29.73 0.013 0 0
C_3158788133_1278162270_0 J_3158788133 J_1278162270 24.29 0.013 0 0
C_1278162293_1278162270_0 J_1278162293 J_1278162270 68.24 0.013 0 0
C_1278162293_1377861139_0 J_1278162293 J_1377861139 98.77 0.013 0 0
C_1278162286_3158788120_0 J_1278162286 J_3158788120 115.05 0.013 0 0
C_1278162286_3149542147_0 J_1278162286 J_3149542147 32.36 0.013 0 0
C_1278162286_11385626668_0 J_1278162286 J_11385626668 32.71 0.013 0 0
C_3158788120_3149542146_0 J_3158788120 J_3149542146 29.60 0.013 0 0
C_3158788120_3158788124_0 J_3158788120 J_3158788124 31.05 0.013 0 0
C_3158788120_1278162286_0 J_3158788120 J_1278162286 115.05 0.013 0 0
C_3149542147_5389382766_0 J_3149542147 J_5389382766 35.20 0.013 0 0
C_3149542147_3149542146_0 J_3149542147 J_3149542146 115.15 0.013 0 0
C_3149542147_3158788115_0 J_3149542147 J_3158788115 29.52 0.013 0 0
C_3149542147_1278162286_0 J_3149542147 J_1278162286 32.36 0.013 0 0
C_11385626668_1278162286_0 J_11385626668 J_1278162286 32.71 0.013 0 0
C_11385626668_3158788604_0 J_11385626668 J_3158788604 5.26 0.013 0 0
C_11385626668_4579649727_0 J_11385626668 J_4579649727 25.10 0.013 0 0
C_6454862031_6454862032_0 J_6454862031 J_6454862032 83.14 0.013 0 0
C_6454862031_2407764622_0 J_6454862031 J_2407764622 32.39 0.013 0 0
C_6454862031_1278162290_0 J_6454862031 J_1278162290 28.86 0.013 0 0
C_3158788134_10153868767_0 J_3158788134 J_10153868767 80.10 0.013 0 0
C_3158788134_3158788133_0 J_3158788134 J_3158788133 29.73 0.013 0 0
C_3158788134_1278162290_0 J_3158788134 J_1278162290 32.76 0.013 0 0
C_1377861139_3158788135_0 J_1377861139 J_3158788135 41.20 0.013 0 0
C_1377861139_2406072874_0 J_1377861139 J_2406072874 8.17 0.013 0 0
C_1377861139_3158788624_0 J_1377861139 J_3158788624 31.46 0.013 0 0
C_1278162311_3158788597_0 J_1278162311 J_3158788597 30.17 0.013 0 0
C_1278162311_1278162357_0 J_1278162311 J_1278162357 33.07 0.013 0 0
C_1278162311_3158788574_0 J_1278162311 J_3158788574 70.82 0.013 0 0
C_1278162311_3158788139_0 J_1278162311 J_3158788139 73.27 0.013 0 0
C_1278162357_13415110849_0 J_1278162357 J_13415110849 15.70 0.013 0 0
C_1278162357_1278162311_0 J_1278162357 J_1278162311 33.07 0.013 0 0
C_1278162357_1377861068_0 J_1278162357 J_1377861068 130.65 0.013 0 0
C_3158788574_1278162311_0 J_3158788574 J_1278162311 70.82 0.013 0 0
C_3158788574_10153862358_0 J_3158788574 J_10153862358 28.47 0.013 0 0
C_3158788139_1278162311_0 J_3158788139 J_1278162311 73.27 0.013 0 0
C_13279121428_3158788641_0 J_13279121428 J_3158788641 23.68 0.013 0 0
C_13279121428_1278162335_0 J_13279121428 J_1278162335 4.44 0.013 0 0
C_13415110849_1278162357_0 J_13415110849 J_1278162357 15.70 0.013 0 0
C_1377861052_1377861085_0 J_1377861052 J_1377861085 175.05 0.013 0 0
C_1377861052_6531845899_0 J_1377861052 J_6531845899 32.05 0.013 0 0
C_1377861052_6142604397_0 J_1377861052 J_6142604397 58.48 0.013 0 0
C_1377861085_1377861114_0 J_1377861085 J_1377861114 50.07 0.013 0 0
C_1377861085_2407764624_0 J_1377861085 J_2407764624 43.69 0.013 0 0
C_1377861085_1377861052_0 J_1377861085 J_1377861052 175.05 0.013 0 0
C_6531845899_2407764625_0 J_6531845899 J_2407764625 25.38 0.013 0 0
C_6531845899_1377861052_0 J_6531845899 J_1377861052 32.05 0.013 0 0
C_6531845899_10081671279_0 J_6531845899 J_10081671279 59.25 0.013 0 0
C_6142604397_1377861052_0 J_6142604397 J_1377861052 58.48 0.013 0 0
C_1377861055_10081671262_0 J_1377861055 J_10081671262 31.51 0.013 0 0
C_1377861055_3149541686_0 J_1377861055 J_3149541686 24.92 0.013 0 0
C_1377861055_3158788600_0 J_1377861055 J_3158788600 108.46 0.013 0 0
C_10081671262_1377861055_0 J_10081671262 J_1377861055 31.51 0.013 0 0
C_10081671262_10081671263_0 J_10081671262 J_10081671263 36.46 0.013 0 0
C_10081671262_3149541696_0 J_10081671262 J_3149541696 42.89 0.013 0 0
C_3149541686_3149541689_0 J_3149541686 J_3149541689 29.68 0.013 0 0
C_3149541686_1377861055_0 J_3149541686 J_1377861055 24.92 0.013 0 0
C_3149541686_5389382766_0 J_3149541686 J_5389382766 82.21 0.013 0 0
C_3158788600_3158788604_0 J_3158788600 J_3158788604 105.61 0.013 0 0
C_3158788600_1377861055_0 J_3158788600 J_1377861055 108.46 0.013 0 0
C_3158788600_1377861078_0 J_3158788600 J_1377861078 135.00 0.013 0 0
C_3158788633_3158788629_0 J_3158788633 J_3158788629 29.20 0.013 0 0
C_3158788633_1377861068_0 J_3158788633 J_1377861068 29.84 0.013 0 0
C_3158788633_3158788635_0 J_3158788633 J_3158788635 55.61 0.013 0 0
C_11012063564_1377861068_0 J_11012063564 J_1377861068 21.47 0.013 0 0
C_11012063564_3158788110_0 J_11012063564 J_3158788110 4.05 0.013 0 0
C_11012063564_11012063565_0 J_11012063564 J_11012063565 60.95 0.013 0 0
C_1377861070_3761074302_0 J_1377861070 J_3761074302 115.88 0.013 0 0
C_3761074302_2407764624_0 J_3761074302 J_2407764624 41.32 0.013 0 0
C_3761074302_1377861070_0 J_3761074302 J_1377861070 115.88 0.013 0 0
C_3761074302_4582754028_0 J_3761074302 J_4582754028 36.27 0.013 0 0
C_3761074302_4415687414_0 J_3761074302 J_4415687414 50.19 0.013 0 0
C_1377861078_1377861121_0 J_1377861078 J_1377861121 25.85 0.013 0 0
C_1377861078_3158788600_0 J_1377861078 J_3158788600 135.00 0.013 0 0
C_1377861078_3149541700_0 J_1377861078 J_3149541700 47.43 0.013 0 0
C_1377861121_1377861078_0 J_1377861121 J_1377861078 25.85 0.013 0 0
C_1377861121_4582754028_0 J_1377861121 J_4582754028 60.53 0.013 0 0
C_1377861121_11387496338_0 J_1377861121 J_11387496338 25.36 0.013 0 0
C_3149541700_13410465942_0 J_3149541700 J_13410465942 17.26 0.013 0 0
C_3149541700_1377861078_0 J_3149541700 J_1377861078 47.43 0.013 0 0
C_3149541700_10081671278_0 J_3149541700 J_10081671278 119.53 0.013 0 0
C_1377861114_1377861085_0 J_1377861114 J_1377861085 50.07 0.013 0 0
C_1377861114_1377861123_0 J_1377861114 J_1377861123 49.69 0.013 0 0
C_1377861114_1377861104_0 J_1377861114 J_1377861104 369.70 0.013 0 0
C_2407764624_1377861085_0 J_2407764624 J_1377861085 43.69 0.013 0 0
C_2407764624_3761074302_0 J_2407764624 J_3761074302 41.32 0.013 0 0
C_2407764624_2407764625_0 J_2407764624 J_2407764625 147.77 0.013 0 0
C_1377861103_13410465942_0 J_1377861103 J_13410465942 13.29 0.013 0 0
C_1377861103_2407764625_0 J_1377861103 J_2407764625 45.41 0.013 0 0
C_1377861103_4582754028_0 J_1377861103 J_4582754028 79.09 0.013 0 0
C_13410465942_3149541700_0 J_13410465942 J_3149541700 17.26 0.013 0 0
C_13410465942_1377861103_0 J_13410465942 J_1377861103 13.29 0.013 0 0
C_13410465942_13410465941_0 J_13410465942 J_13410465941 25.40 0.013 0 0
C_2407764625_1377861103_0 J_2407764625 J_1377861103 45.41 0.013 0 0
C_2407764625_6531845899_0 J_2407764625 J_6531845899 25.38 0.013 0 0
C_2407764625_2407764624_0 J_2407764625 J_2407764624 147.77 0.013 0 0
C_4582754028_3761074302_0 J_4582754028 J_3761074302 36.27 0.013 0 0
C_4582754028_1377861121_0 J_4582754028 J_1377861121 60.53 0.013 0 0
C_4582754028_1377861103_0 J_4582754028 J_1377861103 79.09 0.013 0 0
C_1377861104_6518859305_0 J_1377861104 J_6518859305 23.58 0.013 0 0
C_1377861104_6518859320_0 J_1377861104 J_6518859320 27.11 0.013 0 0
C_1377861104_4918188102_0 J_1377861104 J_4918188102 104.54 0.013 0 0
C_1377861104_1377861114_0 J_1377861104 J_1377861114 369.70 0.013 0 0
C_6518859305_1481354884_0 J_6518859305 J_1481354884 11.68 0.013 0 0
C_6518859305_1377861104_0 J_6518859305 J_1377861104 23.58 0.013 0 0
C_6518859305_6518859304_0 J_6518859305 J_6518859304 104.24 0.013 0 0
C_6518859320_1377861104_0 J_6518859320 J_1377861104 27.11 0.013 0 0
C_6518859320_1471714437_0 J_6518859320 J_1471714437 6.61 0.013 0 0
C_6518859320_10839341172_0 J_6518859320 J_10839341172 105.00 0.013 0 0
C_4918188102_1377861104_0 J_4918188102 J_1377861104 104.54 0.013 0 0
C_4918188102_1471714099_0 J_4918188102 J_1471714099 103.40 0.013 0 0
C_4918188102_4918188103_0 J_4918188102 J_4918188103 33.90 0.013 0 0
C_4918188102_4918188104_0 J_4918188102 J_4918188104 35.22 0.013 0 0
C_1377861123_4415687414_0 J_1377861123 J_4415687414 137.45 0.013 0 0
C_1377861123_1377861114_0 J_1377861123 J_1377861114 49.69 0.013 0 0
C_1377861123_2110371291_0 J_1377861123 J_2110371291 67.41 0.013 0 0
C_11387496338_1377861121_0 J_11387496338 J_1377861121 25.36 0.013 0 0
C_11387496338_6531845895_0 J_11387496338 J_6531845895 10.61 0.013 0 0
C_11387496338_11006990856_0 J_11387496338 J_11006990856 70.46 0.013 0 0
C_4415687414_1377861123_0 J_4415687414 J_1377861123 137.45 0.013 0 0
C_4415687414_3761074302_0 J_4415687414 J_3761074302 50.19 0.013 0 0
C_4415687414_3761074303_0 J_4415687414 J_3761074303 61.05 0.013 0 0
C_4415687414_2407763129_0 J_4415687414 J_2407763129 156.09 0.013 0 0
C_2110371291_1377861123_0 J_2110371291 J_1377861123 67.41 0.013 0 0
C_2110371291_2110371293_0 J_2110371291 J_2110371293 63.01 0.013 0 0
C_1377861129_3149541689_0 J_1377861129 J_3149541689 37.98 0.013 0 0
C_1377861129_7478257546_0 J_1377861129 J_7478257546 12.66 0.013 0 0
C_1377861129_3158788115_0 J_1377861129 J_3158788115 23.44 0.013 0 0
C_3149541689_1377861129_0 J_3149541689 J_1377861129 37.98 0.013 0 0
C_3149541689_3149541686_0 J_3149541689 J_3149541686 29.68 0.013 0 0
C_3149541689_5389382766_0 J_3149541689 J_5389382766 52.99 0.013 0 0
C_7478257546_3158788113_0 J_7478257546 J_3158788113 22.26 0.013 0 0
C_7478257546_1377861129_0 J_7478257546 J_1377861129 12.66 0.013 0 0
C_7478257546_7478257545_0 J_7478257546 J_7478257545 42.49 0.013 0 0
C_3158788115_3158788114_0 J_3158788115 J_3158788114 114.03 0.013 0 0
C_3158788115_1377861129_0 J_3158788115 J_1377861129 23.44 0.013 0 0
C_3158788115_3149542147_0 J_3158788115 J_3149542147 29.52 0.013 0 0
C_3158788135_1377861139_0 J_3158788135 J_1377861139 41.20 0.013 0 0
C_3158788135_3158788612_0 J_3158788135 J_3158788612 110.18 0.013 0 0
C_3158788135_9840710126_0 J_3158788135 J_9840710126 48.47 0.013 0 0
C_2406072874_1377861139_0 J_2406072874 J_1377861139 8.17 0.013 0 0
C_2406072874_2387173529_0 J_2406072874 J_2387173529 342.49 0.013 0 0
C_3158788624_3158788620_0 J_3158788624 J_3158788620 22.03 0.013 0 0
C_3158788624_3158788621_0 J_3158788624 J_3158788621 74.45 0.013 0 0
C_1417443438_2057491159_0 J_1417443438 J_2057491159 22.18 0.013 0 0
C_1417443438_1488526915_0 J_1417443438 J_1488526915 165.06 0.013 0 0
C_1417443438_4377707475_0 J_1417443438 J_4377707475 40.00 0.013 0 0
C_2057491159_1417443438_0 J_2057491159 J_1417443438 22.18 0.013 0 0
C_2057491159_6141722658_0 J_2057491159 J_6141722658 40.42 0.013 0 0
C_1488526915_1417443438_0 J_1488526915 J_1417443438 165.06 0.013 0 0
C_1488526915_1417443496_0 J_1488526915 J_1417443496 64.15 0.013 0 0
C_1488526915_4377707480_0 J_1488526915 J_4377707480 36.26 0.013 0 0
C_4377707475_1417443438_0 J_4377707475 J_1417443438 40.00 0.013 0 0
C_4377707475_4377707469_0 J_4377707475 J_4377707469 29.00 0.013 0 0
C_4377707475_4377707480_0 J_4377707475 J_4377707480 154.94 0.013 0 0
C_1417443496_5493854958_0 J_1417443496 J_5493854958 46.94 0.013 0 0
C_1417443496_1488526915_0 J_1417443496 J_1488526915 64.15 0.013 0 0
C_1417443496_1488526892_0 J_1417443496 J_1488526892 103.28 0.013 0 0
C_5493854958_1417443496_0 J_5493854958 J_1417443496 46.94 0.013 0 0
C_5493854958_1488526866_0 J_5493854958 J_1488526866 18.74 0.013 0 0
C_5493854958_5493854959_0 J_5493854958 J_5493854959 106.30 0.013 0 0
C_1488526892_1417443496_0 J_1488526892 J_1417443496 103.28 0.013 0 0
C_1488526892_5493844924_0 J_1488526892 J_5493844924 104.08 0.013 0 0
C_1488526892_5493854959_0 J_1488526892 J_5493854959 47.43 0.013 0 0
C_1488526892_6567100315_0 J_1488526892 J_6567100315 21.94 0.013 0 0
C_1417443503_7432244850_0 J_1417443503 J_7432244850 34.91 0.013 0 0
C_1417443503_1488526889_0 J_1417443503 J_1488526889 10.05 0.013 0 0
C_1417443503_1488526909_0 J_1417443503 J_1488526909 25.66 0.013 0 0
C_7432244850_3538106723_0 J_7432244850 J_3538106723 28.12 0.013 0 0
C_7432244850_1417443503_0 J_7432244850 J_1417443503 34.91 0.013 0 0
C_7432244850_7432244851_0 J_7432244850 J_7432244851 144.95 0.013 0 0
C_1488526889_5267823528_0 J_1488526889 J_5267823528 18.64 0.013 0 0
C_1488526889_1417443503_0 J_1488526889 J_1417443503 10.05 0.013 0 0
C_1488526889_1488526923_0 J_1488526889 J_1488526923 70.91 0.013 0 0
C_1488526909_1417443503_0 J_1488526909 J_1417443503 25.66 0.013 0 0
C_1488526909_1488526851_0 J_1488526909 J_1488526851 28.03 0.013 0 0
C_1488526909_1488526919_0 J_1488526909 J_1488526919 73.99 0.013 0 0
C_1417443508_3161269164_0 J_1417443508 J_3161269164 46.91 0.013 0 0
C_1417443508_6180287627_0 J_1417443508 J_6180287627 16.34 0.013 0 0
C_3161269164_3221362713_0 J_3161269164 J_3221362713 62.95 0.013 0 0
C_3161269164_1417443508_0 J_3161269164 J_1417443508 46.91 0.013 0 0
C_3504342593_1417443563_0 J_3504342593 J_1417443563 36.81 0.013 0 0
C_3504342593_5267835373_0 J_3504342593 J_5267835373 135.44 0.013 0 0
C_3504342593_1417443517_0 J_3504342593 J_1417443517 153.76 0.013 0 0
C_1417443542_1417443612_0 J_1417443542 J_1417443612 78.36 0.013 0 0
C_1417443542_6528148952_0 J_1417443542 J_6528148952 62.37 0.013 0 0
C_1417443542_10989273453_0 J_1417443542 J_10989273453 42.47 0.013 0 0
C_1417443612_10081671394_0 J_1417443612 J_10081671394 30.17 0.013 0 0
C_1417443612_1417443542_0 J_1417443612 J_1417443542 78.36 0.013 0 0
C_1417443612_6528148966_0 J_1417443612 J_6528148966 44.35 0.013 0 0
C_1417443612_6528148967_0 J_1417443612 J_6528148967 36.18 0.013 0 0
C_6528148952_1417443542_0 J_6528148952 J_1417443542 62.37 0.013 0 0
C_6528148952_6528148954_0 J_6528148952 J_6528148954 26.80 0.013 0 0
C_6528148952_6528148951_0 J_6528148952 J_6528148951 75.58 0.013 0 0
C_10989273453_6528148955_0 J_10989273453 J_6528148955 38.12 0.013 0 0
C_10989273453_1417443542_0 J_10989273453 J_1417443542 42.47 0.013 0 0
C_10989273453_10989273452_0 J_10989273453 J_10989273452 42.33 0.013 0 0
C_10989273453_10989273454_0 J_10989273453 J_10989273454 26.72 0.013 0 0
C_1417443557_6528148954_0 J_1417443557 J_6528148954 24.72 0.013 0 0
C_1417443557_6528148957_0 J_1417443557 J_6528148957 64.98 0.013 0 0
C_6528148954_6528148952_0 J_6528148954 J_6528148952 26.80 0.013 0 0
C_6528148954_1417443557_0 J_6528148954 J_1417443557 24.72 0.013 0 0
C_6528148954_6528148953_0 J_6528148954 J_6528148953 73.45 0.013 0 0
C_6528148957_10081706681_0 J_6528148957 J_10081706681 23.02 0.013 0 0
C_6528148957_6528148956_0 J_6528148957 J_6528148956 107.83 0.013 0 0
C_1417443563_3504342593_0 J_1417443563 J_3504342593 36.81 0.013 0 0
C_1417443563_1417443584_0 J_1417443563 J_1417443584 131.41 0.013 0 0
C_1417443563_1417443584_1 J_1417443563 J_1417443584 144.50 0.013 0 0
C_1417443584_6528148964_0 J_1417443584 J_6528148964 27.68 0.013 0 0
C_1417443584_1417443563_0 J_1417443584 J_1417443563 131.41 0.013 0 0
C_1417443584_1417443563_1 J_1417443584 J_1417443563 144.50 0.013 0 0
C_10081725588_1417443578_0 J_10081725588 J_1417443578 37.43 0.013 0 0
C_10081725588_10081725589_0 J_10081725588 J_10081725589 28.64 0.013 0 0
C_10081671394_1417443628_0 J_10081671394 J_1417443628 21.96 0.013 0 0
C_10081671394_1417443612_0 J_10081671394 J_1417443612 30.17 0.013 0 0
C_10081671394_10081671393_0 J_10081671394 J_10081671393 30.91 0.013 0 0
C_6528148966_1417443612_0 J_6528148966 J_1417443612 44.35 0.013 0 0
C_6528148966_6528148965_0 J_6528148966 J_6528148965 34.93 0.013 0 0
C_6528148966_10081706678_0 J_6528148966 J_10081706678 47.25 0.013 0 0
C_6528148967_1417443612_0 J_6528148967 J_1417443612 36.18 0.013 0 0
C_1417443628_1417443629_0 J_1417443628 J_1417443629 112.39 0.013 0 0
C_1417443628_6528148968_0 J_1417443628 J_6528148968 26.12 0.013 0 0
C_1417443628_10081671394_0 J_1417443628 J_10081671394 21.96 0.013 0 0
C_6528148968_1417443628_0 J_6528148968 J_1417443628 26.12 0.013 0 0
C_6528148968_6528148969_0 J_6528148968 J_6528148969 101.48 0.013 0 0
C_6528148968_3235639720_0 J_6528148968 J_3235639720 162.08 0.013 0 0
C_1417443633_1417443629_0 J_1417443633 J_1417443629 23.48 0.013 0 0
C_1417443633_6528148969_0 J_1417443633 J_6528148969 4.87 0.013 0 0
C_1417443633_1417443652_0 J_1417443633 J_1417443652 139.59 0.013 0 0
C_6528148969_1417443633_0 J_6528148969 J_1417443633 4.87 0.013 0 0
C_6528148969_6528148968_0 J_6528148969 J_6528148968 101.48 0.013 0 0
C_6528148969_6528148973_0 J_6528148969 J_6528148973 31.45 0.013 0 0
C_5493844924_1488526892_0 J_5493844924 J_1488526892 104.08 0.013 0 0
C_5493844924_1417443641_0 J_5493844924 J_1417443641 44.12 0.013 0 0
C_5493844924_3168039448_0 J_5493844924 J_3168039448 47.12 0.013 0 0
C_1488526924_1417443647_0 J_1488526924 J_1417443647 42.16 0.013 0 0
C_1488526924_3168039449_0 J_1488526924 J_3168039449 30.59 0.013 0 0
C_1488526924_3096683824_0 J_1488526924 J_3096683824 135.15 0.013 0 0
C_1488526924_3168039448_0 J_1488526924 J_3168039448 87.48 0.013 0 0
C_6528148971_1417443666_0 J_6528148971 J_1417443666 58.95 0.013 0 0
C_6528148971_1417443652_0 J_6528148971 J_1417443652 23.26 0.013 0 0
C_6528148971_6528148973_0 J_6528148971 J_6528148973 147.03 0.013 0 0
C_1417443659_6528148973_0 J_1417443659 J_6528148973 45.25 0.013 0 0
C_1417443659_9743339252_0 J_1417443659 J_9743339252 77.57 0.013 0 0
C_1417443659_1417443666_0 J_1417443659 J_1417443666 159.29 0.013 0 0
C_6528148973_1417443659_0 J_6528148973 J_1417443659 45.25 0.013 0 0
C_6528148973_6528148970_0 J_6528148973 J_6528148970 74.33 0.013 0 0
C_6528148973_6528148969_0 J_6528148973 J_6528148969 31.45 0.013 0 0
C_6528148973_6528148971_0 J_6528148973 J_6528148971 147.03 0.013 0 0
C_9743339252_1417443659_0 J_9743339252 J_1417443659 77.57 0.013 0 0
C_1417443666_2450399430_0 J_1417443666 J_2450399430 48.61 0.013 0 0
C_1417443666_6528148971_0 J_1417443666 J_6528148971 58.95 0.013 0 0
C_1417443666_2447849296_0 J_1417443666 J_2447849296 58.90 0.013 0 0
C_1417443666_1417443659_0 J_1417443666 J_1417443659 159.29 0.013 0 0
C_2450399430_2450399416_0 J_2450399430 J_2450399416 74.45 0.013 0 0
C_2450399430_1417443666_0 J_2450399430 J_1417443666 48.61 0.013 0 0
C_2450399430_2450399415_0 J_2450399430 J_2450399415 88.94 0.013 0 0
C_3235639719_1417443691_0 J_3235639719 J_1417443691 33.40 0.013 0 0
C_3235639719_2389119097_0 J_3235639719 J_2389119097 32.66 0.013 0 0
C_3235639719_3235639718_0 J_3235639719 J_3235639718 77.32 0.013 0 0
C_3235639720_1417443691_0 J_3235639720 J_1417443691 78.27 0.013 0 0
C_3235639720_3235639718_0 J_3235639720 J_3235639718 30.51 0.013 0 0
C_3235639720_6528148968_0 J_3235639720 J_6528148968 162.08 0.013 0 0
C_3235639720_10172729085_0 J_3235639720 J_10172729085 30.63 0.013 0 0
C_1417443716_6142327790_0 J_1417443716 J_6142327790 9.82 0.013 0 0
C_1417443716_10081671376_0 J_1417443716 J_10081671376 56.38 0.013 0 0
C_6142327790_5267822911_0 J_6142327790 J_5267822911 36.32 0.013 0 0
C_6142327790_1417443716_0 J_6142327790 J_1417443716 9.82 0.013 0 0
C_6142327790_6142327787_0 J_6142327790 J_6142327787 152.44 0.013 0 0
C_10081671376_1417443716_0 J_10081671376 J_1417443716 56.38 0.013 0 0
C_10081671376_2389119100_0 J_10081671376 J_2389119100 185.45 0.013 0 0
C_10081671376_6528148940_0 J_10081671376 J_6528148940 82.81 0.013 0 0
C_1417443726_6180272976_0 J_1417443726 J_6180272976 89.95 0.013 0 0
C_1417443726_1417443734_0 J_1417443726 J_1417443734 38.02 0.013 0 0
C_1417443726_5267822911_0 J_1417443726 J_5267822911 28.17 0.013 0 0
C_6180272976_1417443726_0 J_6180272976 J_1417443726 89.95 0.013 0 0
C_6180272976_1417443736_0 J_6180272976 J_1417443736 115.94 0.013 0 0
C_6180272976_1417443740_0 J_6180272976 J_1417443740 38.94 0.013 0 0
C_1417443734_1417443726_0 J_1417443734 J_1417443726 38.02 0.013 0 0
C_1417443734_10081671363_0 J_1417443734 J_10081671363 31.90 0.013 0 0
C_1417443734_1417443754_0 J_1417443734 J_1417443754 64.93 0.013 0 0
C_10081671363_10081671364_0 J_10081671363 J_10081671364 59.53 0.013 0 0
C_10081671363_1417443734_0 J_10081671363 J_1417443734 31.90 0.013 0 0
C_10081671363_1417443741_0 J_10081671363 J_1417443741 36.02 0.013 0 0
C_1417443736_6180272976_0 J_1417443736 J_6180272976 115.94 0.013 0 0
C_1417443736_12196455086_0 J_1417443736 J_12196455086 27.65 0.013 0 0
C_12196455086_2399992907_0 J_12196455086 J_2399992907 4.39 0.013 0 0
C_1417443740_6180272976_0 J_1417443740 J_6180272976 38.94 0.013 0 0
C_1417443740_1417443736_0 J_1417443740 J_1417443736 153.50 0.013 0 0
C_10081671364_306611415_0 J_10081671364 J_306611415 33.41 0.013 0 0
C_10081671364_10081671363_0 J_10081671364 J_10081671363 59.53 0.013 0 0
C_6193921850_1468908333_0 J_6193921850 J_1468908333 40.47 0.013 0 0
C_6193921850_10094529581_0 J_6193921850 J_10094529581 36.90 0.013 0 0
C_6193921850_6193921851_0 J_6193921850 J_6193921851 77.97 0.013 0 0
C_1471714099_4918188102_0 J_1471714099 J_4918188102 103.40 0.013 0 0
C_1471714099_1481354885_0 J_1471714099 J_1481354885 38.22 0.013 0 0
C_1481354885_1471714099_0 J_1481354885 J_1471714099 38.22 0.013 0 0
C_1481354885_7327251302_0 J_1481354885 J_7327251302 38.09 0.013 0 0
C_1481354885_4918188104_0 J_1481354885 J_4918188104 103.13 0.013 0 0
C_4918188103_1471714437_0 J_4918188103 J_1471714437 108.03 0.013 0 0
C_4918188103_4918188101_0 J_4918188103 J_4918188101 34.68 0.013 0 0
C_4918188103_4918188102_0 J_4918188103 J_4918188102 33.90 0.013 0 0
C_1473826426_1473826428_0 J_1473826426 J_1473826428 134.86 0.013 0 0
C_1473826428_1473826426_0 J_1473826428 J_1473826426 134.86 0.013 0 0
C_1473826428_1481366489_0 J_1473826428 J_1481366489 38.75 0.013 0 0
C_1473826428_5388494824_0 J_1473826428 J_5388494824 30.95 0.013 0 0
C_1473826428_3149541720_0 J_1473826428 J_3149541720 157.48 0.013 0 0
C_1481366489_1473826436_0 J_1481366489 J_1473826436 139.99 0.013 0 0
C_1481366489_1473826428_0 J_1481366489 J_1473826428 38.75 0.013 0 0
C_1481366489_11387517314_0 J_1481366489 J_11387517314 53.37 0.013 0 0
C_5388494824_1473826428_0 J_5388494824 J_1473826428 30.95 0.013 0 0
C_5388494824_1481354884_0 J_5388494824 J_1481354884 12.27 0.013 0 0
C_5388494824_5388494831_0 J_5388494824 J_5388494831 111.25 0.013 0 0
C_1473826436_1481366489_0 J_1473826436 J_1481366489 139.99 0.013 0 0
C_1473871923_7432244843_0 J_1473871923 J_7432244843 26.08 0.013 0 0
C_1473871923_1473871926_0 J_1473871923 J_1473871926 80.42 0.013 0 0
C_1473871923_1473871955_0 J_1473871923 J_1473871955 34.44 0.013 0 0
C_7432244843_1473871923_0 J_7432244843 J_1473871923 26.08 0.013 0 0
C_7432244843_1473871947_0 J_7432244843 J_1473871947 29.33 0.013 0 0
C_7432244843_7432244844_0 J_7432244843 J_7432244844 79.69 0.013 0 0
C_1473871926_1473871954_0 J_1473871926 J_1473871954 33.13 0.013 0 0
C_1473871926_7432244844_0 J_1473871926 J_7432244844 31.86 0.013 0 0
C_1473871926_1473871923_0 J_1473871926 J_1473871923 80.42 0.013 0 0
C_1473871955_1473871937_0 J_1473871955 J_1473871937 107.87 0.013 0 0
C_1473871955_1473871923_0 J_1473871955 J_1473871923 34.44 0.013 0 0
C_1473871955_1473871958_0 J_1473871955 J_1473871958 46.23 0.013 0 0
C_1488526920_3096683821_0 J_1488526920 J_3096683821 14.51 0.013 0 0
C_1488526920_1473871924_0 J_1488526920 J_1473871924 25.61 0.013 0 0
C_1488526920_1488526911_0 J_1488526920 J_1488526911 51.02 0.013 0 0
C_1473871954_1473871926_0 J_1473871954 J_1473871926 33.13 0.013 0 0
C_1473871954_1473871924_0 J_1473871954 J_1473871924 43.06 0.013 0 0
C_1473871954_1473871941_0 J_1473871954 J_1473871941 174.30 0.013 0 0
C_7432244844_1473871936_0 J_7432244844 J_1473871936 30.55 0.013 0 0
C_7432244844_1473871926_0 J_7432244844 J_1473871926 31.86 0.013 0 0
C_7432244844_7432244843_0 J_7432244844 J_7432244843 79.69 0.013 0 0
C_1473871927_1488556131_0 J_1473871927 J_1488556131 55.25 0.013 0 0
C_1473871927_1473871937_0 J_1473871927 J_1473871937 46.62 0.013 0 0
C_1473871927_1473871929_0 J_1473871927 J_1473871929 51.85 0.013 0 0
C_1473871927_10094580864_0 J_1473871927 J_10094580864 69.91 0.013 0 0
C_1473871937_1473871957_0 J_1473871937 J_1473871957 36.07 0.013 0 0
C_1473871937_1473871927_0 J_1473871937 J_1473871927 46.62 0.013 0 0
C_1473871937_1473871955_0 J_1473871937 J_1473871955 107.87 0.013 0 0
C_1473871937_1473871959_0 J_1473871937 J_1473871959 154.86 0.013 0 0
C_10094580864_1473871958_0 J_10094580864 J_1473871958 29.68 0.013 0 0
C_10094580864_10094580865_0 J_10094580864 J_10094580865 35.15 0.013 0 0
C_10094580864_1473871927_0 J_10094580864 J_1473871927 69.91 0.013 0 0
C_5267823521_1473871929_0 J_5267823521 J_1473871929 13.89 0.013 0 0
C_5267823521_5267823523_0 J_5267823521 J_5267823523 35.36 0.013 0 0
C_5267823521_5267823522_0 J_5267823521 J_5267823522 50.76 0.013 0 0
C_1473871942_7432244847_0 J_1473871942 J_7432244847 32.53 0.013 0 0
C_1473871942_1473871938_0 J_1473871942 J_1473871938 76.01 0.013 0 0
C_1473871942_1473871931_0 J_1473871942 J_1473871931 42.14 0.013 0 0
C_3096683824_1473871931_0 J_3096683824 J_1473871931 50.99 0.013 0 0
C_3096683824_1488526924_0 J_3096683824 J_1488526924 135.15 0.013 0 0
C_3096683824_7086183227_0 J_3096683824 J_7086183227 26.43 0.013 0 0
C_1473871936_1473871947_0 J_1473871936 J_1473871947 76.85 0.013 0 0
C_1473871936_7432244844_0 J_1473871936 J_7432244844 30.55 0.013 0 0
C_1473871936_1473871956_0 J_1473871936 J_1473871956 59.53 0.013 0 0
C_1473871947_1473871936_0 J_1473871947 J_1473871936 76.85 0.013 0 0
C_1473871947_7432244843_0 J_1473871947 J_7432244843 29.33 0.013 0 0
C_1473871947_1473871957_0 J_1473871947 J_1473871957 57.54 0.013 0 0
C_1473871956_1473871945_0 J_1473871956 J_1473871945 43.04 0.013 0 0
C_1473871956_1473871957_0 J_1473871956 J_1473871957 76.87 0.013 0 0
C_1473871956_7432244845_0 J_1473871956 J_7432244845 45.83 0.013 0 0
C_1473871956_1473871936_0 J_1473871956 J_1473871936 59.53 0.013 0 0
C_1473871957_1473871937_0 J_1473871957 J_1473871937 36.07 0.013 0 0
C_1473871957_1473871947_0 J_1473871957 J_1473871947 57.54 0.013 0 0
C_1473871957_7432244846_0 J_1473871957 J_7432244846 45.22 0.013 0 0
C_1473871957_1473871956_0 J_1473871957 J_1473871956 76.87 0.013 0 0
C_1473871959_1473871937_0 J_1473871959 J_1473871937 154.86 0.013 0 0
C_1473871959_1488556150_0 J_1473871959 J_1488556150 42.28 0.013 0 0
C_1473871959_1473871940_0 J_1473871959 J_1473871940 38.98 0.013 0 0
C_1473871938_1473871942_0 J_1473871938 J_1473871942 76.01 0.013 0 0
C_1473871938_7432244848_0 J_1473871938 J_7432244848 32.70 0.013 0 0
C_1473871938_1473871940_0 J_1473871938 J_1473871940 43.07 0.013 0 0
C_7432244848_7432244846_0 J_7432244848 J_7432244846 34.23 0.013 0 0
C_7432244848_1473871938_0 J_7432244848 J_1473871938 32.70 0.013 0 0
C_7432244848_7432244847_0 J_7432244848 J_7432244847 76.96 0.013 0 0
C_1473871941_1473871961_0 J_1473871941 J_1473871961 40.53 0.013 0 0
C_1473871941_1473871958_0 J_1473871941 J_1473871958 38.40 0.013 0 0
C_1473871941_3096683823_0 J_1473871941 J_3096683823 66.41 0.013 0 0
C_1473871941_1473871954_0 J_1473871941 J_1473871954 174.30 0.013 0 0
C_1473871958_1473871941_0 J_1473871958 J_1473871941 38.40 0.013 0 0
C_1473871958_10094580864_0 J_1473871958 J_10094580864 29.68 0.013 0 0
C_1473871958_1473871955_0 J_1473871958 J_1473871955 46.23 0.013 0 0
C_7432244847_1473871942_0 J_7432244847 J_1473871942 32.53 0.013 0 0
C_7432244847_7432244845_0 J_7432244847 J_7432244845 34.71 0.013 0 0
C_7432244847_7432244848_0 J_7432244847 J_7432244848 76.96 0.013 0 0
C_7432244845_7432244847_0 J_7432244845 J_7432244847 34.71 0.013 0 0
C_7432244845_7432244846_0 J_7432244845 J_7432244846 76.88 0.013 0 0
C_7432244845_1473871956_0 J_7432244845 J_1473871956 45.83 0.013 0 0
C_7432244846_1473871957_0 J_7432244846 J_1473871957 45.22 0.013 0 0
C_7432244846_7432244848_0 J_7432244846 J_7432244848 34.23 0.013 0 0
C_7432244846_7432244845_0 J_7432244846 J_7432244845 76.88 0.013 0 0
C_1473885237_1473885458_0 J_1473885237 J_1473885458 60.34 0.013 0 0
C_1473885237_1473885221_0 J_1473885237 J_1473885221 61.97 0.013 0 0
C_1473885237_1473885226_0 J_1473885237 J_1473885226 380.68 0.013 0 0
C_1473885223_7432244854_0 J_1473885223 J_7432244854 42.41 0.013 0 0
C_1473885223_1473885221_0 J_1473885223 J_1473885221 386.10 0.013 0 0
C_1473885223_6141732622_0 J_1473885223 J_6141732622 77.68 0.013 0 0
C_7432244854_1473885223_0 J_7432244854 J_1473885223 42.41 0.013 0 0
C_7432244854_1488556180_0 J_7432244854 J_1488556180 31.98 0.013 0 0
C_7432244854_7432244855_0 J_7432244854 J_7432244855 77.80 0.013 0 0
C_1473885226_1473885237_0 J_1473885226 J_1473885237 380.68 0.013 0 0
C_1473885458_11663050338_0 J_1473885458 J_11663050338 135.10 0.013 0 0
C_1473885458_1473885459_0 J_1473885458 J_1473885459 60.48 0.013 0 0
C_1473885458_1473885237_0 J_1473885458 J_1473885237 60.34 0.013 0 0
C_1473885439_1473885459_0 J_1473885439 J_1473885459 159.86 0.013 0 0
C_11663050338_1473885458_0 J_11663050338 J_1473885458 135.10 0.013 0 0
C_1473890785_12695945997_0 J_1473890785 J_12695945997 38.03 0.013 0 0
C_1473890785_9189927178_0 J_1473890785 J_9189927178 43.00 0.013 0 0
C_1473890785_6178041424_0 J_1473890785 J_6178041424 58.95 0.013 0 0
C_1473890785_6463519072_0 J_1473890785 J_6463519072 71.54 0.013 0 0
C_12695945997_1473890785_0 J_12695945997 J_1473890785 38.03 0.013 0 0
C_12695945997_12695946000_0 J_12695945997 J_12695946000 21.56 0.013 0 0
C_6178041424_6178041420_0 J_6178041424 J_6178041420 67.85 0.013 0 0
C_6178041424_6178041422_0 J_6178041424 J_6178041422 67.49 0.013 0 0
C_6178041424_1473890785_0 J_6178041424 J_1473890785 58.95 0.013 0 0
C_6463519072_9189927179_0 J_6463519072 J_9189927179 41.73 0.013 0 0
C_6463519072_3421682934_0 J_6463519072 J_3421682934 54.95 0.013 0 0
C_6463519072_1473890785_0 J_6463519072 J_1473890785 71.54 0.013 0 0
C_1473890791_6178041421_0 J_1473890791 J_6178041421 71.83 0.013 0 0
C_1473890791_6178041420_0 J_1473890791 J_6178041420 53.16 0.013 0 0
C_1473890791_12151399348_0 J_1473890791 J_12151399348 57.90 0.013 0 0
C_6178041420_1473890791_0 J_6178041420 J_1473890791 53.16 0.013 0 0
C_6178041420_6178041424_0 J_6178041420 J_6178041424 67.85 0.013 0 0
C_6178041420_6178041419_0 J_6178041420 J_6178041419 68.79 0.013 0 0
C_12151399348_6633301856_0 J_12151399348 J_6633301856 58.90 0.013 0 0
C_12151399348_1473890791_0 J_12151399348 J_1473890791 57.90 0.013 0 0
C_1477138900_1481366487_0 J_1477138900 J_1481366487 223.45 0.013 0 0
C_1481354884_5388494824_0 J_1481354884 J_5388494824 12.27 0.013 0 0
C_1481354884_6518859305_0 J_1481354884 J_6518859305 11.68 0.013 0 0
C_1481354884_4918188104_0 J_1481354884 J_4918188104 102.62 0.013 0 0
C_4918188104_1481354885_0 J_4918188104 J_1481354885 103.13 0.013 0 0
C_4918188104_1481354884_0 J_4918188104 J_1481354884 102.62 0.013 0 0
C_4918188104_4918188102_0 J_4918188104 J_4918188102 35.22 0.013 0 0
C_6130764691_11977577698_0 J_6130764691 J_11977577698 11.89 0.013 0 0
C_6130764691_2110371291_0 J_6130764691 J_2110371291 273.13 0.013 0 0
C_11387517314_1481366489_0 J_11387517314 J_1481366489 53.37 0.013 0 0
C_11387517314_10081671268_0 J_11387517314 J_10081671268 37.48 0.013 0 0
C_1488526851_1488526909_0 J_1488526851 J_1488526909 28.03 0.013 0 0
C_1488526851_1488526884_0 J_1488526851 J_1488526884 39.76 0.013 0 0
C_1488526851_1488526859_0 J_1488526851 J_1488526859 74.65 0.013 0 0
C_1488526884_1488526851_0 J_1488526884 J_1488526851 39.76 0.013 0 0
C_1488526884_1488526913_0 J_1488526884 J_1488526913 52.02 0.013 0 0
C_1488526884_1488526883_0 J_1488526884 J_1488526883 78.83 0.013 0 0
C_1488526859_1488526883_0 J_1488526859 J_1488526883 42.52 0.013 0 0
C_1488526859_1488526869_0 J_1488526859 J_1488526869 9.71 0.013 0 0
C_1488526859_1488526851_0 J_1488526859 J_1488526851 74.65 0.013 0 0
C_1488526883_1488526911_0 J_1488526883 J_1488526911 49.63 0.013 0 0
C_1488526883_1488526859_0 J_1488526883 J_1488526859 42.52 0.013 0 0
C_1488526883_1488526884_0 J_1488526883 J_1488526884 78.83 0.013 0 0
C_1488526869_1488526859_0 J_1488526869 J_1488526859 9.71 0.013 0 0
C_1488526869_1488526919_0 J_1488526869 J_1488526919 14.41 0.013 0 0
C_1488526869_6152326682_0 J_1488526869 J_6152326682 111.63 0.013 0 0
C_1488526866_5493854958_0 J_1488526866 J_5493854958 18.74 0.013 0 0
C_1488526866_11665987959_0 J_1488526866 J_11665987959 6.00 0.013 0 0
C_1488526866_1488526894_0 J_1488526866 J_1488526894 67.18 0.013 0 0
C_11665987959_1488526866_0 J_11665987959 J_1488526866 6.00 0.013 0 0
C_11665987959_5267823528_0 J_11665987959 J_5267823528 24.37 0.013 0 0
C_11665987959_5267823530_0 J_11665987959 J_5267823530 108.56 0.013 0 0
C_1488526894_1488526866_0 J_1488526894 J_1488526866 67.18 0.013 0 0
C_1488526894_1488526923_0 J_1488526894 J_1488526923 48.66 0.013 0 0
C_1488526894_4377707474_0 J_1488526894 J_4377707474 5.19 0.013 0 0
C_1488526919_1488526869_0 J_1488526919 J_1488526869 14.41 0.013 0 0
C_1488526919_1488526923_0 J_1488526919 J_1488526923 38.12 0.013 0 0
C_1488526919_1488526909_0 J_1488526919 J_1488526909 73.99 0.013 0 0
C_6152326682_2387012139_0 J_6152326682 J_2387012139 3.61 0.013 0 0
C_6152326682_1488526869_0 J_6152326682 J_1488526869 111.63 0.013 0 0
C_6152326682_4377707444_0 J_6152326682 J_4377707444 148.91 0.013 0 0
C_1488526911_1488526920_0 J_1488526911 J_1488526920 51.02 0.013 0 0
C_1488526911_1488526883_0 J_1488526911 J_1488526883 49.63 0.013 0 0
C_1488526911_1488526913_0 J_1488526911 J_1488526913 83.80 0.013 0 0
C_5267823528_11665987959_0 J_5267823528 J_11665987959 24.37 0.013 0 0
C_5267823528_1488526889_0 J_5267823528 J_1488526889 18.64 0.013 0 0
C_5267823528_5267823527_0 J_5267823528 J_5267823527 111.44 0.013 0 0
C_5493854959_1488526892_0 J_5493854959 J_1488526892 47.43 0.013 0 0
C_5493854959_5493854958_0 J_5493854959 J_5493854958 106.30 0.013 0 0
C_5493854959_3168039450_0 J_5493854959 J_3168039450 74.77 0.013 0 0
C_5493854959_5267823530_0 J_5493854959 J_5267823530 23.37 0.013 0 0
C_6567100315_2414635978_0 J_6567100315 J_2414635978 28.40 0.013 0 0
C_6567100315_6130692320_0 J_6567100315 J_6130692320 96.10 0.013 0 0
C_6567100315_1488526892_0 J_6567100315 J_1488526892 21.94 0.013 0 0
C_4377707474_1488526894_0 J_4377707474 J_1488526894 5.19 0.013 0 0
C_4377707474_4377707480_0 J_4377707474 J_4377707480 26.04 0.013 0 0
C_4377707474_4377707469_0 J_4377707474 J_4377707469 147.51 0.013 0 0
C_1488526896_3168039449_0 J_1488526896 J_3168039449 68.84 0.013 0 0
C_1488526896_3538106723_0 J_1488526896 J_3538106723 51.52 0.013 0 0
C_1488526896_5267823527_0 J_1488526896 J_5267823527 32.02 0.013 0 0
C_3168039449_1488526924_0 J_3168039449 J_1488526924 30.59 0.013 0 0
C_3168039449_1488526896_0 J_3168039449 J_1488526896 68.84 0.013 0 0
C_3168039449_5493868902_0 J_3168039449 J_5493868902 35.83 0.013 0 0
C_3168039449_7086183227_0 J_3168039449 J_7086183227 139.22 0.013 0 0
C_3538106723_1488526896_0 J_3538106723 J_1488526896 51.52 0.013 0 0
C_3538106723_7432244850_0 J_3538106723 J_7432244850 28.12 0.013 0 0
C_3538106723_7432283509_0 J_3538106723 J_7432283509 91.58 0.013 0 0
C_5267823527_5267823530_0 J_5267823527 J_5267823530 24.68 0.013 0 0
C_5267823527_1488526896_0 J_5267823527 J_1488526896 32.02 0.013 0 0
C_5267823527_5267823528_0 J_5267823527 J_5267823528 111.44 0.013 0 0
C_5267823527_5493868902_0 J_5267823527 J_5493868902 72.78 0.013 0 0
C_7432244851_1488526913_0 J_7432244851 J_1488526913 29.16 0.013 0 0
C_7432244851_3538106692_0 J_7432244851 J_3538106692 26.75 0.013 0 0
C_7432244851_7432244850_0 J_7432244851 J_7432244850 144.95 0.013 0 0
C_4377707480_4377707474_0 J_4377707480 J_4377707474 26.04 0.013 0 0
C_4377707480_1488526915_0 J_4377707480 J_1488526915 36.26 0.013 0 0
C_4377707480_4377707475_0 J_4377707480 J_4377707475 154.94 0.013 0 0
C_3168039448_1488526924_0 J_3168039448 J_1488526924 87.48 0.013 0 0
C_3168039448_5493844924_0 J_3168039448 J_5493844924 47.12 0.013 0 0
C_3168039448_3168039450_0 J_3168039448 J_3168039450 27.49 0.013 0 0
C_10094580887_1488556131_0 J_10094580887 J_1488556131 30.38 0.013 0 0
C_10094580887_10094580889_0 J_10094580887 J_10094580889 30.10 0.013 0 0
C_10094580887_10094580888_0 J_10094580887 J_10094580888 26.76 0.013 0 0
C_10094580889_10094580887_0 J_10094580889 J_10094580887 30.10 0.013 0 0
C_10094580889_1488556150_0 J_10094580889 J_1488556150 38.76 0.013 0 0
C_10094580889_10094580890_0 J_10094580889 J_10094580890 24.75 0.013 0 0
C_1608973468_12067305544_0 J_1608973468 J_12067305544 17.86 0.013 0 0
C_12067305544_12067305543_0 J_12067305544 J_12067305543 11.02 0.013 0 0
C_12067305544_3421682934_0 J_12067305544 J_3421682934 73.94 0.013 0 0
C_1645178560_6463569335_0 J_1645178560 J_6463569335 289.93 0.013 0 0
C_1645178560_650141496_0 J_1645178560 J_650141496 25.08 0.013 0 0
C_6463569335_3826045400_0 J_6463569335 J_3826045400 53.23 0.013 0 0
C_1653906433_2389125034_0 J_1653906433 J_2389125034 7.62 0.013 0 0
C_1653906433_2407745357_0 J_1653906433 J_2407745357 48.05 0.013 0 0
C_2389125034_1653906433_0 J_2389125034 J_1653906433 7.62 0.013 0 0
C_2389125034_11977577699_0 J_2389125034 J_11977577699 62.84 0.013 0 0
C_2389125034_3287849054_0 J_2389125034 J_3287849054 25.03 0.013 0 0
C_2407745357_11977577699_0 J_2407745357 J_11977577699 16.82 0.013 0 0
C_2407745357_11374930009_0 J_2407745357 J_11374930009 282.77 0.013 0 0
C_1653906436_11977577698_0 J_1653906436 J_11977577698 15.08 0.013 0 0
C_1653906436_11260122965_0 J_1653906436 J_11260122965 353.97 0.013 0 0
C_11977577698_6130764691_0 J_11977577698 J_6130764691 11.89 0.013 0 0
C_11977577698_11892824102_0 J_11977577698 J_11892824102 696.57 0.013 0 0
C_11260122965_2110371293_0 J_11260122965 J_2110371293 18.76 0.013 0 0
C_2019288831_6141722653_0 J_2019288831 J_6141722653 23.38 0.013 0 0
C_2019288831_6141722656_0 J_2019288831 J_6141722656 106.37 0.013 0 0
C_6141722653_2019288831_0 J_6141722653 J_2019288831 23.38 0.013 0 0
C_6141722653_2019288832_0 J_6141722653 J_2019288832 48.10 0.013 0 0
C_6141722653_6141722654_0 J_6141722653 J_6141722654 96.73 0.013 0 0
C_6141722653_9189927159_0 J_6141722653 J_9189927159 54.56 0.013 0 0
C_6141722656_10094580906_0 J_6141722656 J_10094580906 10.20 0.013 0 0
C_6141722656_2019288831_0 J_6141722656 J_2019288831 106.37 0.013 0 0
C_6141722656_6141722654_0 J_6141722656 J_6141722654 42.80 0.013 0 0
C_2019288832_6141722653_0 J_2019288832 J_6141722653 48.10 0.013 0 0
C_2019288832_6141722658_0 J_2019288832 J_6141722658 93.13 0.013 0 0
C_2019288832_2273437034_0 J_2019288832 J_2273437034 137.27 0.013 0 0
C_6141722658_6141722654_0 J_6141722658 J_6141722654 46.51 0.013 0 0
C_6141722658_2057491159_0 J_6141722658 J_2057491159 40.42 0.013 0 0
C_6141722658_2019288832_0 J_6141722658 J_2019288832 93.13 0.013 0 0
C_2110371293_11260122968_0 J_2110371293 J_11260122968 10.53 0.013 0 0
C_2110371293_3761074303_0 J_2110371293 J_3761074303 206.50 0.013 0 0
C_11260122968_1608973468_0 J_11260122968 J_1608973468 19.94 0.013 0 0
C_11260122968_11892824101_0 J_11260122968 J_11892824101 322.70 0.013 0 0
C_3761074303_4415687414_0 J_3761074303 J_4415687414 61.05 0.013 0 0
C_3761074303_2387173529_0 J_3761074303 J_2387173529 8.56 0.013 0 0
C_3761074303_2387173530_0 J_3761074303 J_2387173530 159.20 0.013 0 0
C_2127279448_6884276685_0 J_2127279448 J_6884276685 10.50 0.013 0 0
C_6884276685_6884276686_0 J_6884276685 J_6884276686 3.51 0.013 0 0
C_2414635978_2414635979_0 J_2414635978 J_2414635979 53.93 0.013 0 0
C_2414635978_6567100315_0 J_2414635978 J_6567100315 28.40 0.013 0 0
C_2414635978_2273437034_0 J_2414635978 J_2273437034 38.33 0.013 0 0
C_2385141390_650141496_0 J_2385141390 J_650141496 20.21 0.013 0 0
C_2385141390_3826045400_0 J_2385141390 J_3826045400 243.88 0.013 0 0
C_3826045400_2387385680_0 J_3826045400 J_2387385680 38.44 0.013 0 0
C_3826045400_12186005569_0 J_3826045400 J_12186005569 700.77 0.013 0 0
C_2387017402_306614045_0 J_2387017402 J_306614045 49.60 0.013 0 0
C_2387017402_3304204552_0 J_2387017402 J_3304204552 390.31 0.013 0 0
C_6130226927_2406084997_0 J_6130226927 J_2406084997 148.37 0.013 0 0
C_6130226927_6130226929_0 J_6130226927 J_6130226929 49.90 0.013 0 0
C_6130226927_2387017507_0 J_6130226927 J_2387017507 109.98 0.013 0 0
C_6131800547_6131800546_0 J_6131800547 J_6131800546 52.77 0.013 0 0
C_6131800547_2387017507_0 J_6131800547 J_2387017507 75.88 0.013 0 0
C_2387173529_3761074303_0 J_2387173529 J_3761074303 8.56 0.013 0 0
C_2387173529_11260122968_0 J_2387173529 J_11260122968 204.56 0.013 0 0
C_2387173530_2407763129_0 J_2387173530 J_2407763129 60.52 0.013 0 0
C_2387173530_1278162293_0 J_2387173530 J_1278162293 86.56 0.013 0 0
C_2407763129_10081671286_0 J_2407763129 J_10081671286 11.26 0.013 0 0
C_2407763129_2387173530_0 J_2407763129 J_2387173530 60.52 0.013 0 0
C_2407763129_4415687414_0 J_2407763129 J_4415687414 156.09 0.013 0 0
C_2388266803_2388266830_0 J_2388266803 J_2388266830 32.83 0.013 0 0
C_2388266803_2509419434_0 J_2388266803 J_2509419434 72.92 0.013 0 0
C_2388266803_4146210958_0 J_2388266803 J_4146210958 72.05 0.013 0 0
C_2388266830_3543166934_0 J_2388266830 J_3543166934 45.82 0.013 0 0
C_2388266830_2388266803_0 J_2388266830 J_2388266803 32.83 0.013 0 0
C_2388266830_7429952410_0 J_2388266830 J_7429952410 79.14 0.013 0 0
C_2509419434_2509419432_0 J_2509419434 J_2509419432 40.80 0.013 0 0
C_2509419434_7432244857_0 J_2509419434 J_7432244857 83.90 0.013 0 0
C_2509419434_2388266803_0 J_2509419434 J_2388266803 72.92 0.013 0 0
C_4146210958_2388266836_0 J_4146210958 J_2388266836 52.74 0.013 0 0
C_4146210958_7429952410_0 J_4146210958 J_7429952410 53.86 0.013 0 0
C_4146210958_2388266803_0 J_4146210958 J_2388266803 72.05 0.013 0 0
C_2388266812_2388266816_0 J_2388266812 J_2388266816 110.49 0.013 0 0
C_2388266812_7432244869_0 J_2388266812 J_7432244869 57.51 0.013 0 0
C_2388266812_11007263820_0 J_2388266812 J_11007263820 36.34 0.013 0 0
C_7432244869_4146210931_0 J_7432244869 J_4146210931 12.75 0.013 0 0
C_7432244869_7432244868_0 J_7432244869 J_7432244868 101.92 0.013 0 0
C_7432244869_2388266812_0 J_7432244869 J_2388266812 57.51 0.013 0 0
C_11007263820_2388266833_0 J_11007263820 J_2388266833 35.90 0.013 0 0
C_11007263820_11007263821_0 J_11007263820 J_11007263821 37.49 0.013 0 0
C_11007263820_2388266812_0 J_11007263820 J_2388266812 36.34 0.013 0 0
C_4146211277_4146211273_0 J_4146211277 J_4146211273 15.71 0.013 0 0
C_4146211277_2388266816_0 J_4146211277 J_2388266816 26.12 0.013 0 0
C_4146211277_7432244868_0 J_4146211277 J_7432244868 46.56 0.013 0 0
C_3543166934_2388266830_0 J_3543166934 J_2388266830 45.82 0.013 0 0
C_3543166934_2388266833_0 J_3543166934 J_2388266833 25.20 0.013 0 0
C_3543166934_4146210945_0 J_3543166934 J_4146210945 75.37 0.013 0 0
C_7429952410_4146210951_0 J_7429952410 J_4146210951 10.08 0.013 0 0
C_7429952410_4146210958_0 J_7429952410 J_4146210958 53.86 0.013 0 0
C_7429952410_2388266830_0 J_7429952410 J_2388266830 79.14 0.013 0 0
C_2388266833_11007263820_0 J_2388266833 J_11007263820 35.90 0.013 0 0
C_2388266833_3543166934_0 J_2388266833 J_3543166934 25.20 0.013 0 0
C_2388266833_2509419436_0 J_2388266833 J_2509419436 40.52 0.013 0 0
C_2509419436_7432244857_0 J_2509419436 J_7432244857 9.71 0.013 0 0
C_2509419436_2509419435_0 J_2509419436 J_2509419435 51.56 0.013 0 0
C_2509419436_2388266833_0 J_2509419436 J_2388266833 40.52 0.013 0 0
C_2388266836_5267402566_0 J_2388266836 J_5267402566 41.18 0.013 0 0
C_2388266836_6462301371_0 J_2388266836 J_6462301371 8.51 0.013 0 0
C_2388266836_4146210958_0 J_2388266836 J_4146210958 52.74 0.013 0 0
C_5267402566_2388266836_0 J_5267402566 J_2388266836 41.18 0.013 0 0
C_5267402566_5267402567_0 J_5267402566 J_5267402567 17.38 0.013 0 0
C_5267402566_4146210953_0 J_5267402566 J_4146210953 39.41 0.013 0 0
C_11903564939_12203527486_0 J_11903564939 J_12203527486 14.64 0.013 0 0
C_11903564939_6462301370_0 J_11903564939 J_6462301370 83.21 0.013 0 0
C_2389119097_3235639719_0 J_2389119097 J_3235639719 32.66 0.013 0 0
C_2389119097_3235639716_0 J_2389119097 J_3235639716 35.05 0.013 0 0
C_2389119097_3149523797_0 J_2389119097 J_3149523797 12.69 0.013 0 0
C_3235639716_2389119097_0 J_3235639716 J_2389119097 35.05 0.013 0 0
C_3235639716_12197618359_0 J_3235639716 J_12197618359 41.89 0.013 0 0
C_3235639716_2389119100_0 J_3235639716 J_2389119100 151.84 0.013 0 0
C_3149523797_3149523798_0 J_3149523797 J_3149523798 32.33 0.013 0 0
C_3149523797_2389119097_0 J_3149523797 J_2389119097 12.69 0.013 0 0
C_3149523797_3149523799_0 J_3149523797 J_3149523799 89.84 0.013 0 0
C_11977577699_11374930007_0 J_11977577699 J_11374930007 267.48 0.013 0 0
C_2399992907_12196455086_0 J_2399992907 J_12196455086 4.39 0.013 0 0
C_10094504108_4146211261_0 J_10094504108 J_4146211261 29.46 0.013 0 0
C_10094504108_10094504110_0 J_10094504108 J_10094504110 157.95 0.013 0 0
C_10094504108_2406084993_0 J_10094504108 J_2406084993 143.03 0.013 0 0
C_10094504105_2406084995_0 J_10094504105 J_2406084995 33.39 0.013 0 0
C_10094504105_4146211263_0 J_10094504105 J_4146211263 21.48 0.013 0 0
C_10094504105_10094504106_0 J_10094504105 J_10094504106 56.63 0.013 0 0
C_3298857094_3298857093_0 J_3298857094 J_3298857093 62.60 0.013 0 0
C_3298857094_2406084997_0 J_3298857094 J_2406084997 68.76 0.013 0 0
C_3298857094_2414635984_0 J_3298857094 J_2414635984 201.41 0.013 0 0
C_3287849051_2407745349_0 J_3287849051 J_2407745349 138.30 0.013 0 0
C_3287849051_12067305543_0 J_3287849051 J_12067305543 31.33 0.013 0 0
C_11374930009_11374930007_0 J_11374930009 J_11374930007 10.65 0.013 0 0
C_11374930009_11374930008_0 J_11374930009 J_11374930008 8.23 0.013 0 0
C_10081671286_2407763129_0 J_10081671286 J_2407763129 11.26 0.013 0 0
C_2407764622_6454862031_0 J_2407764622 J_6454862031 32.39 0.013 0 0
C_2407764622_6531845897_0 J_2407764622 J_6531845897 83.62 0.013 0 0
C_2407764622_6531845895_0 J_2407764622 J_6531845895 39.75 0.013 0 0
C_6531845897_13410465225_0 J_6531845897 J_13410465225 15.00 0.013 0 0
C_6531845897_2407764622_0 J_6531845897 J_2407764622 83.62 0.013 0 0
C_6531845897_6454862032_0 J_6531845897 J_6454862032 31.00 0.013 0 0
C_6531845895_11387496338_0 J_6531845895 J_11387496338 10.61 0.013 0 0
C_6531845895_13410465225_0 J_6531845895 J_13410465225 116.07 0.013 0 0
C_6531845895_2407764622_0 J_6531845895 J_2407764622 39.75 0.013 0 0
C_2414626606_6887565739_0 J_2414626606 J_6887565739 12.47 0.013 0 0
C_2414626606_11178931799_0 J_2414626606 J_11178931799 81.66 0.013 0 0
C_6887565739_11178931802_0 J_6887565739 J_11178931802 8.67 0.013 0 0
C_6887565739_12680448312_0 J_6887565739 J_12680448312 152.10 0.013 0 0
C_2447310402_13475843621_0 J_2447310402 J_13475843621 15.15 0.013 0 0
C_2447310402_2447310404_0 J_2447310402 J_2447310404 37.75 0.013 0 0
C_2447310402_7432244856_0 J_2447310402 J_7432244856 145.22 0.013 0 0
C_2447310404_2447310402_0 J_2447310404 J_2447310402 37.75 0.013 0 0
C_2447310404_2447310403_0 J_2447310404 J_2447310403 111.97 0.013 0 0
C_2447310404_6130226931_0 J_2447310404 J_6130226931 29.94 0.013 0 0
C_2447310404_2447310406_0 J_2447310404 J_2447310406 108.57 0.013 0 0
C_2447310403_6130226930_0 J_2447310403 J_6130226930 33.03 0.013 0 0
C_2447310403_2447310404_0 J_2447310403 J_2447310404 111.97 0.013 0 0
C_2447310403_2447310406_0 J_2447310403 J_2447310406 135.02 0.013 0 0
C_6130226930_2447310403_0 J_6130226930 J_2447310403 33.03 0.013 0 0
C_6130226930_6130226928_0 J_6130226930 J_6130226928 40.35 0.013 0 0
C_6130226930_11063510865_0 J_6130226930 J_11063510865 44.33 0.013 0 0
C_6130226930_9189234398_0 J_6130226930 J_9189234398 103.77 0.013 0 0
C_2447310406_2447310404_0 J_2447310406 J_2447310404 108.57 0.013 0 0
C_2447310406_2447310407_0 J_2447310406 J_2447310407 47.17 0.013 0 0
C_2447310406_2447310403_0 J_2447310406 J_2447310403 135.02 0.013 0 0
C_6130226931_2447310404_0 J_6130226931 J_2447310404 29.94 0.013 0 0
C_6130226931_6196261538_0 J_6130226931 J_6196261538 43.89 0.013 0 0
C_6130226931_11063510865_0 J_6130226931 J_11063510865 68.29 0.013 0 0
C_6131800546_2447310407_0 J_6131800546 J_2447310407 118.81 0.013 0 0
C_6131800546_6131800547_0 J_6131800546 J_6131800547 52.77 0.013 0 0
C_6131800546_6130226928_0 J_6131800546 J_6130226928 101.26 0.013 0 0
C_2450399417_9792476719_0 J_2450399417 J_9792476719 104.11 0.013 0 0
C_2450399417_2450399406_0 J_2450399417 J_2450399406 53.93 0.013 0 0
C_2450399417_11259448953_0 J_2450399417 J_11259448953 195.89 0.013 0 0
C_2450399435_2450399406_0 J_2450399435 J_2450399406 37.55 0.013 0 0
C_2450399435_2450399433_0 J_2450399435 J_2450399433 38.79 0.013 0 0
C_2450399435_2450399408_0 J_2450399435 J_2450399408 112.72 0.013 0 0
C_2450399435_2450399422_0 J_2450399435 J_2450399422 36.54 0.013 0 0
C_2450399416_2450399408_0 J_2450399416 J_2450399408 36.35 0.013 0 0
C_2450399416_2450399430_0 J_2450399416 J_2450399430 74.45 0.013 0 0
C_2450399416_2450399433_0 J_2450399416 J_2450399433 104.17 0.013 0 0
C_2450399415_2450399433_0 J_2450399415 J_2450399433 47.63 0.013 0 0
C_2450399415_2450399430_0 J_2450399415 J_2450399430 88.94 0.013 0 0
C_2450399415_2450399429_0 J_2450399415 J_2450399429 42.33 0.013 0 0
C_2450399433_2450399416_0 J_2450399433 J_2450399416 104.17 0.013 0 0
C_2450399433_2450399435_0 J_2450399433 J_2450399435 38.79 0.013 0 0
C_2450399433_2450399415_0 J_2450399433 J_2450399415 47.63 0.013 0 0
C_2450399429_6528148976_0 J_2450399429 J_6528148976 47.82 0.013 0 0
C_2450399429_2450399415_0 J_2450399429 J_2450399415 42.33 0.013 0 0
C_2450399429_10172729085_0 J_2450399429 J_10172729085 116.35 0.013 0 0
C_11259448953_11259448961_0 J_11259448953 J_11259448961 6.23 0.013 0 0
C_11259448953_2450399417_0 J_11259448953 J_2450399417 195.89 0.013 0 0
C_6528148976_2450399422_0 J_6528148976 J_2450399422 32.53 0.013 0 0
C_6528148976_2450399429_0 J_6528148976 J_2450399429 47.82 0.013 0 0
C_6528148976_6528148975_0 J_6528148976 J_6528148975 106.52 0.013 0 0
C_3149523809_2450399427_0 J_3149523809 J_2450399427 12.77 0.013 0 0
C_3149523809_3149523808_0 J_3149523809 J_3149523808 107.55 0.013 0 0
C_3149523809_3149523804_0 J_3149523809 J_3149523804 47.30 0.013 0 0
C_3149523807_2450399427_0 J_3149523807 J_2450399427 15.12 0.013 0 0
C_3149523807_3149523802_0 J_3149523807 J_3149523802 8.98 0.013 0 0
C_3149523807_3149523806_0 J_3149523807 J_3149523806 61.93 0.013 0 0
C_10172729085_2450399429_0 J_10172729085 J_2450399429 116.35 0.013 0 0
C_10172729085_10081671389_0 J_10172729085 J_10081671389 29.27 0.013 0 0
C_10172729085_3235639720_0 J_10172729085 J_3235639720 30.63 0.013 0 0
C_2509419432_2509419434_0 J_2509419432 J_2509419434 40.80 0.013 0 0
C_2509419432_12073866974_0 J_2509419432 J_12073866974 8.61 0.013 0 0
C_2509419432_2387017508_0 J_2509419432 J_2387017508 89.48 0.013 0 0
C_12073866974_2509419432_0 J_12073866974 J_2509419432 8.61 0.013 0 0
C_12073866974_650141020_0 J_12073866974 J_650141020 325.82 0.013 0 0
C_7432244857_2509419436_0 J_7432244857 J_2509419436 9.71 0.013 0 0
C_7432244857_7432244856_0 J_7432244857 J_7432244856 54.65 0.013 0 0
C_7432244857_2509419434_0 J_7432244857 J_2509419434 83.90 0.013 0 0
C_2509419435_2509419436_0 J_2509419435 J_2509419436 51.56 0.013 0 0
C_3161269196_3096683823_0 J_3161269196 J_3096683823 31.99 0.013 0 0
C_3161269196_3504751071_0 J_3161269196 J_3504751071 63.55 0.013 0 0
C_3161269196_11353404310_0 J_3161269196 J_11353404310 2.61 0.013 0 0
C_6901563123_3096683823_0 J_6901563123 J_3096683823 53.35 0.013 0 0
C_7086183227_7086183230_0 J_7086183227 J_7086183230 30.18 0.013 0 0
C_7086183227_3096683824_0 J_7086183227 J_3096683824 26.43 0.013 0 0
C_7086183227_3168039449_0 J_7086183227 J_3168039449 139.22 0.013 0 0
C_3149523798_3149523802_0 J_3149523798 J_3149523802 21.30 0.013 0 0
C_3149523798_3149523797_0 J_3149523798 J_3149523797 32.33 0.013 0 0
C_3149523798_3149523801_0 J_3149523798 J_3149523801 94.36 0.013 0 0
C_3149523798_3149523800_0 J_3149523798 J_3149523800 90.50 0.013 0 0
C_3149523799_3149523797_0 J_3149523799 J_3149523797 89.84 0.013 0 0
C_3149523802_3149523807_0 J_3149523802 J_3149523807 8.98 0.013 0 0
C_3149523802_3149523798_0 J_3149523802 J_3149523798 21.30 0.013 0 0
C_3149523802_3149523803_0 J_3149523802 J_3149523803 63.11 0.013 0 0
C_3149523800_3149523798_0 J_3149523800 J_3149523798 90.50 0.013 0 0
C_3149523803_3149523802_0 J_3149523803 J_3149523802 63.11 0.013 0 0
C_3149523804_3149523809_0 J_3149523804 J_3149523809 47.30 0.013 0 0
C_3149523806_3149523807_0 J_3149523806 J_3149523807 61.93 0.013 0 0
C_5389382766_3149542147_0 J_5389382766 J_3149542147 35.20 0.013 0 0
C_5389382766_3149541686_0 J_5389382766 J_3149541686 82.21 0.013 0 0
C_5389382766_3149541689_0 J_5389382766 J_3149541689 52.99 0.013 0 0
C_3149541696_3149541706_0 J_3149541696 J_3149541706 2.15 0.013 0 0
C_3149541696_3149541705_0 J_3149541696 J_3149541705 27.41 0.013 0 0
C_3149541696_10081671262_0 J_3149541696 J_10081671262 42.89 0.013 0 0
C_3149541706_3149541707_0 J_3149541706 J_3149541707 60.77 0.013 0 0
C_3149541706_10081671274_0 J_3149541706 J_10081671274 23.13 0.013 0 0
C_3149541706_3149541696_0 J_3149541706 J_3149541696 2.15 0.013 0 0
C_3149541705_3149541704_0 J_3149541705 J_3149541704 56.44 0.013 0 0
C_3149541705_3149541696_0 J_3149541705 J_3149541696 27.41 0.013 0 0
C_10081671278_10081671276_0 J_10081671278 J_10081671276 17.40 0.013 0 0
C_10081671278_10081671277_0 J_10081671278 J_10081671277 45.37 0.013 0 0
C_10081671278_3149541700_0 J_10081671278 J_3149541700 119.53 0.013 0 0
C_3149541704_3149541705_0 J_3149541704 J_3149541705 56.44 0.013 0 0
C_3149541707_3149541706_0 J_3149541707 J_3149541706 60.77 0.013 0 0
C_10081671274_3149541708_0 J_10081671274 J_3149541708 25.89 0.013 0 0
C_10081671274_3149541706_0 J_10081671274 J_3149541706 23.13 0.013 0 0
C_10081671274_10081671273_0 J_10081671274 J_10081671273 58.50 0.013 0 0
C_3149541708_10081671276_0 J_3149541708 J_10081671276 22.97 0.013 0 0
C_3149541708_10081671274_0 J_3149541708 J_10081671274 25.89 0.013 0 0
C_3149541708_10081671275_0 J_3149541708 J_10081671275 71.72 0.013 0 0
C_10081671276_10081671278_0 J_10081671276 J_10081671278 17.40 0.013 0 0
C_10081671276_3149541708_0 J_10081671276 J_3149541708 22.97 0.013 0 0
C_10081671276_10081671275_0 J_10081671276 J_10081671275 46.82 0.013 0 0
C_10081671275_10081671277_0 J_10081671275 J_10081671277 18.19 0.013 0 0
C_10081671275_10081671276_0 J_10081671275 J_10081671276 46.82 0.013 0 0
C_10081671275_3149541708_0 J_10081671275 J_3149541708 71.72 0.013 0 0
C_3149541710_10081671277_0 J_3149541710 J_10081671277 32.26 0.013 0 0
C_10081671277_3149541710_0 J_10081671277 J_3149541710 32.26 0.013 0 0
C_10081671277_10081671275_0 J_10081671277 J_10081671275 18.19 0.013 0 0
C_10081671277_10081671278_0 J_10081671277 J_10081671278 45.37 0.013 0 0
C_3149542132_3158788637_0 J_3149542132 J_3158788637 14.15 0.013 0 0
C_3149542132_3158788638_0 J_3149542132 J_3158788638 77.78 0.013 0 0
C_3149542132_6137799426_0 J_3149542132 J_6137799426 27.24 0.013 0 0
C_3158788637_3149542132_0 J_3158788637 J_3149542132 14.15 0.013 0 0
C_3158788637_3158788639_0 J_3158788637 J_3158788639 12.03 0.013 0 0
C_3158788637_3158788636_0 J_3158788637 J_3158788636 48.86 0.013 0 0
C_3158788638_3149542132_0 J_3158788638 J_3149542132 77.78 0.013 0 0
C_6137799426_3149542132_0 J_6137799426 J_3149542132 27.24 0.013 0 0
C_3149542136_3158788639_0 J_3149542136 J_3158788639 18.28 0.013 0 0
C_3149542136_3158788641_0 J_3149542136 J_3158788641 10.33 0.013 0 0
C_3158788639_3158788637_0 J_3158788639 J_3158788637 12.03 0.013 0 0
C_3158788639_3149542136_0 J_3158788639 J_3149542136 18.28 0.013 0 0
C_3158788639_3158788640_0 J_3158788639 J_3158788640 76.58 0.013 0 0
C_3158788641_3149542136_0 J_3158788641 J_3149542136 10.33 0.013 0 0
C_3158788641_13279121428_0 J_3158788641 J_13279121428 23.68 0.013 0 0
C_3158788641_3158788642_0 J_3158788641 J_3158788642 82.78 0.013 0 0
C_9840710126_3149542145_0 J_9840710126 J_3149542145 26.74 0.013 0 0
C_9840710126_9813619345_0 J_9840710126 J_9813619345 111.49 0.013 0 0
C_9840710126_3158788135_0 J_9840710126 J_3158788135 48.47 0.013 0 0
C_3158788131_3158788124_0 J_3158788131 J_3158788124 33.12 0.013 0 0
C_3158788131_3158788132_0 J_3158788131 J_3158788132 58.51 0.013 0 0
C_3158788131_3149542145_0 J_3158788131 J_3149542145 141.38 0.013 0 0
C_3149542146_3158788114_0 J_3149542146 J_3158788114 31.52 0.013 0 0
C_3149542146_3158788120_0 J_3149542146 J_3158788120 29.60 0.013 0 0
C_3149542146_3149542147_0 J_3149542146 J_3149542147 115.15 0.013 0 0
C_3158788114_3158788112_0 J_3158788114 J_3158788112 56.28 0.013 0 0
C_3158788114_3149542146_0 J_3158788114 J_3149542146 31.52 0.013 0 0
C_3158788114_3158788115_0 J_3158788114 J_3158788115 114.03 0.013 0 0
C_3158788105_3158788145_0 J_3158788105 J_3158788145 9.05 0.013 0 0
C_3158788105_3158788662_0 J_3158788105 J_3158788662 57.58 0.013 0 0
C_3158788105_13415111434_0 J_3158788105 J_13415111434 23.51 0.013 0 0
C_3158788145_7432244830_0 J_3158788145 J_7432244830 12.57 0.013 0 0
C_3158788145_3158788105_0 J_3158788145 J_3158788105 9.05 0.013 0 0
C_3158788145_3158788571_0 J_3158788145 J_3158788571 40.60 0.013 0 0
C_3158788662_3158788105_0 J_3158788662 J_3158788105 57.58 0.013 0 0
C_13415111434_3158788105_0 J_13415111434 J_3158788105 23.51 0.013 0 0
C_13415111434_7429952388_0 J_13415111434 J_7429952388 14.55 0.013 0 0
C_13415111434_13415111431_0 J_13415111434 J_13415111431 23.83 0.013 0 0
C_3158788107_3158788108_0 J_3158788107 J_3158788108 27.34 0.013 0 0
C_3158788107_7432244830_0 J_3158788107 J_7432244830 19.18 0.013 0 0
C_3158788107_5388494832_0 J_3158788107 J_5388494832 47.20 0.013 0 0
C_3158788108_3158788608_0 J_3158788108 J_3158788608 14.57 0.013 0 0
C_3158788108_3158788107_0 J_3158788108 J_3158788107 27.34 0.013 0 0
C_3158788108_3158788144_0 J_3158788108 J_3158788144 51.89 0.013 0 0
C_3158788108_13410902781_0 J_3158788108 J_13410902781 61.63 0.013 0 0
C_7432244830_3158788107_0 J_7432244830 J_3158788107 19.18 0.013 0 0
C_7432244830_3158788145_0 J_7432244830 J_3158788145 12.57 0.013 0 0
C_7432244830_7432244831_0 J_7432244830 J_7432244831 72.09 0.013 0 0
C_5388494832_3158788107_0 J_5388494832 J_3158788107 47.20 0.013 0 0
C_3158788608_3158788141_0 J_3158788608 J_3158788141 3.47 0.013 0 0
C_3158788608_3158788108_0 J_3158788608 J_3158788108 14.57 0.013 0 0
C_3158788608_3158788611_0 J_3158788608 J_3158788611 116.58 0.013 0 0
C_3158788144_3158788108_0 J_3158788144 J_3158788108 51.89 0.013 0 0
C_13410902781_3158788108_0 J_13410902781 J_3158788108 61.63 0.013 0 0
C_3158788110_11012063564_0 J_3158788110 J_11012063564 4.05 0.013 0 0
C_3158788110_7432244839_0 J_3158788110 J_7432244839 10.83 0.013 0 0
C_3158788110_3158788140_0 J_3158788110 J_3158788140 50.72 0.013 0 0
C_7432244839_3158788110_0 J_7432244839 J_3158788110 10.83 0.013 0 0
C_7432244839_3158788141_0 J_7432244839 J_3158788141 18.49 0.013 0 0
C_7432244839_7432244838_0 J_7432244839 J_7432244838 60.83 0.013 0 0
C_3158788140_3158788110_0 J_3158788140 J_3158788110 50.72 0.013 0 0
C_3158788112_11385670152_0 J_3158788112 J_11385670152 31.76 0.013 0 0
C_3158788112_3158788114_0 J_3158788112 J_3158788114 56.28 0.013 0 0
C_3158788112_3158788116_0 J_3158788112 J_3158788116 30.04 0.013 0 0
C_3158788116_3158788118_0 J_3158788116 J_3158788118 23.10 0.013 0 0
C_3158788116_3158788112_0 J_3158788116 J_3158788112 30.04 0.013 0 0
C_3158788116_3158788117_0 J_3158788116 J_3158788117 39.37 0.013 0 0
C_3158788113_3158788118_0 J_3158788113 J_3158788118 63.37 0.013 0 0
C_3158788113_7478257546_0 J_3158788113 J_7478257546 22.26 0.013 0 0
C_3158788113_11385670151_0 J_3158788113 J_11385670151 20.42 0.013 0 0
C_3158788118_3158788113_0 J_3158788118 J_3158788113 63.37 0.013 0 0
C_3158788118_3158788116_0 J_3158788118 J_3158788116 23.10 0.013 0 0
C_3158788118_3158788119_0 J_3158788118 J_3158788119 39.43 0.013 0 0
C_11385670151_10081671261_0 J_11385670151 J_10081671261 15.61 0.013 0 0
C_11385670151_6531845894_0 J_11385670151 J_6531845894 65.48 0.013 0 0
C_11385670151_3158788113_0 J_11385670151 J_3158788113 20.42 0.013 0 0
C_3158788117_3158788116_0 J_3158788117 J_3158788116 39.37 0.013 0 0
C_3158788119_3158788118_0 J_3158788119 J_3158788118 39.43 0.013 0 0
C_3158788124_3158788120_0 J_3158788124 J_3158788120 31.05 0.013 0 0
C_3158788124_3158788131_0 J_3158788124 J_3158788131 33.12 0.013 0 0
C_3158788124_4579649727_0 J_3158788124 J_4579649727 90.50 0.013 0 0
C_4579649727_3158788124_0 J_4579649727 J_3158788124 90.50 0.013 0 0
C_4579649727_11385626668_0 J_4579649727 J_11385626668 25.10 0.013 0 0
C_4579649727_3158788129_0 J_4579649727 J_3158788129 26.68 0.013 0 0
C_3158788129_4579649727_0 J_3158788129 J_4579649727 26.68 0.013 0 0
C_3158788132_10153868766_0 J_3158788132 J_10153868766 35.99 0.013 0 0
C_3158788132_3158788131_0 J_3158788132 J_3158788131 58.51 0.013 0 0
C_3158788132_10153868767_0 J_3158788132 J_10153868767 58.51 0.013 0 0
C_10153868766_3158788133_0 J_10153868766 J_3158788133 85.59 0.013 0 0
C_10153868766_3158788132_0 J_10153868766 J_3158788132 35.99 0.013 0 0
C_10153868766_10153868767_0 J_10153868766 J_10153868767 24.34 0.013 0 0
C_10153868767_3158788134_0 J_10153868767 J_3158788134 80.10 0.013 0 0
C_10153868767_10153868766_0 J_10153868767 J_10153868766 24.34 0.013 0 0
C_10153868767_3158788132_0 J_10153868767 J_3158788132 58.51 0.013 0 0
C_3158788612_3158788629_0 J_3158788612 J_3158788629 21.93 0.013 0 0
C_3158788612_3158788615_0 J_3158788612 J_3158788615 58.81 0.013 0 0
C_3158788612_3158788135_0 J_3158788612 J_3158788135 110.18 0.013 0 0
C_3158788141_7432244839_0 J_3158788141 J_7432244839 18.49 0.013 0 0
C_3158788141_3158788608_0 J_3158788141 J_3158788608 3.47 0.013 0 0
C_3158788141_3158788142_0 J_3158788141 J_3158788142 51.59 0.013 0 0
C_3158788142_3158788141_0 J_3158788142 J_3158788141 51.59 0.013 0 0
C_3158788571_3158788145_0 J_3158788571 J_3158788145 40.60 0.013 0 0
C_3158788565_7429952388_0 J_3158788565 J_7429952388 6.44 0.013 0 0
C_7429952388_3158788565_0 J_7429952388 J_3158788565 6.44 0.013 0 0
C_7429952388_13415111434_0 J_7429952388 J_13415111434 14.55 0.013 0 0
C_7429952388_7429952389_0 J_7429952388 J_7429952389 132.66 0.013 0 0
C_10153862358_3158788574_0 J_10153862358 J_3158788574 28.47 0.013 0 0
C_10153862358_10153862359_0 J_10153862358 J_10153862359 55.11 0.013 0 0
C_10153862358_7432244829_0 J_10153862358 J_7432244829 83.75 0.013 0 0
C_3158788611_3158788608_0 J_3158788611 J_3158788608 116.58 0.013 0 0
C_3158788629_3158788612_0 J_3158788629 J_3158788612 21.93 0.013 0 0
C_3158788629_3158788633_0 J_3158788629 J_3158788633 29.20 0.013 0 0
C_3158788629_3158788632_0 J_3158788629 J_3158788632 55.11 0.013 0 0
C_3158788615_3158788612_0 J_3158788615 J_3158788612 58.81 0.013 0 0
C_3158788616_3158788620_0 J_3158788616 J_3158788620 77.91 0.013 0 0
C_3158788620_3158788616_0 J_3158788620 J_3158788616 77.91 0.013 0 0
C_3158788620_7432244836_0 J_3158788620 J_7432244836 27.03 0.013 0 0
C_7432244836_1278162256_0 J_7432244836 J_1278162256 25.30 0.013 0 0
C_7432244836_7432244837_0 J_7432244836 J_7432244837 59.28 0.013 0 0
C_3158788621_3158788624_0 J_3158788621 J_3158788624 74.45 0.013 0 0
C_3158788632_3158788629_0 J_3158788632 J_3158788629 55.11 0.013 0 0
C_3158788635_3158788633_0 J_3158788635 J_3158788633 55.61 0.013 0 0
C_3158788636_3158788637_0 J_3158788636 J_3158788637 48.86 0.013 0 0
C_3158788640_3158788639_0 J_3158788640 J_3158788639 76.58 0.013 0 0
C_3158788642_3158788641_0 J_3158788642 J_3158788641 82.78 0.013 0 0
C_3161118525_6131076159_0 J_3161118525 J_6131076159 53.67 0.013 0 0
C_6131076159_12067305554_0 J_6131076159 J_12067305554 8.56 0.013 0 0
C_10081725549_3161268847_0 J_10081725549 J_3161268847 29.37 0.013 0 0
C_10081725549_3161269161_0 J_10081725549 J_3161269161 61.01 0.013 0 0
C_3161269161_10081725549_0 J_3161269161 J_10081725549 61.01 0.013 0 0
C_3161269161_3161269162_0 J_3161269161 J_3161269162 63.98 0.013 0 0
C_3161269162_3161269161_0 J_3161269162 J_3161269161 63.98 0.013 0 0
C_3161269162_3221362713_0 J_3161269162 J_3221362713 45.86 0.013 0 0
C_3221362713_3161269162_0 J_3221362713 J_3161269162 45.86 0.013 0 0
C_3221362713_3161269164_0 J_3221362713 J_3161269164 62.95 0.013 0 0
C_3221362713_3965281000_0 J_3221362713 J_3965281000 126.47 0.013 0 0
C_3504751071_3161269196_0 J_3504751071 J_3161269196 63.55 0.013 0 0
C_11353404310_5267823525_0 J_11353404310 J_5267823525 21.23 0.013 0 0
C_11353404310_3161269196_0 J_11353404310 J_3161269196 2.61 0.013 0 0
C_11353404310_7432244842_0 J_11353404310 J_7432244842 48.40 0.013 0 0
C_3161269197_3161269199_0 J_3161269197 J_3161269199 69.14 0.013 0 0
C_8979004920_3965280999_0 J_8979004920 J_3965280999 28.40 0.013 0 0
C_8979004920_3161269200_0 J_8979004920 J_3161269200 27.90 0.013 0 0
C_8979004920_8979004921_0 J_8979004920 J_8979004921 47.17 0.013 0 0
C_8979004919_3161269200_0 J_8979004919 J_3161269200 39.11 0.013 0 0
C_3168039450_5493868901_0 J_3168039450 J_5493868901 25.17 0.013 0 0
C_3168039450_3168039448_0 J_3168039450 J_3168039448 27.49 0.013 0 0
C_3168039450_5493854959_0 J_3168039450 J_5493854959 74.77 0.013 0 0
C_5493868902_5493868901_0 J_5493868902 J_5493868901 23.53 0.013 0 0
C_5493868902_3168039449_0 J_5493868902 J_3168039449 35.83 0.013 0 0
C_5493868902_5267823527_0 J_5493868902 J_5267823527 72.78 0.013 0 0
C_5493868901_3168039450_0 J_5493868901 J_3168039450 25.17 0.013 0 0
C_5493868901_5493868902_0 J_5493868901 J_5493868902 23.53 0.013 0 0
C_5493868901_5267823530_0 J_5493868901 J_5267823530 73.93 0.013 0 0
C_3965281000_3965280999_0 J_3965281000 J_3965280999 30.74 0.013 0 0
C_3965281000_3965280995_0 J_3965281000 J_3965280995 52.93 0.013 0 0
C_3965281000_3221362713_0 J_3965281000 J_3221362713 126.47 0.013 0 0
C_10081671392_10081671391_0 J_10081671392 J_10081671391 59.63 0.013 0 0
C_10081671392_3235639721_0 J_10081671392 J_3235639721 136.18 0.013 0 0
C_10081671392_3235639712_0 J_10081671392 J_3235639712 94.15 0.013 0 0
C_12197618359_3235639716_0 J_12197618359 J_3235639716 41.89 0.013 0 0
C_12197618359_12197618361_0 J_12197618359 J_12197618361 14.58 0.013 0 0
C_12197618359_12197618360_0 J_12197618359 J_12197618360 25.83 0.013 0 0
C_3235639717_3235639718_0 J_3235639717 J_3235639718 126.36 0.013 0 0
C_3235639718_3235639719_0 J_3235639718 J_3235639719 77.32 0.013 0 0
C_3235639718_3235639721_0 J_3235639718 J_3235639721 66.22 0.013 0 0
C_3235639718_3235639720_0 J_3235639718 J_3235639720 30.51 0.013 0 0
C_3235639718_3235639717_0 J_3235639718 J_3235639717 126.36 0.013 0 0
C_3235639721_12197618361_0 J_3235639721 J_12197618361 9.38 0.013 0 0
C_3235639721_3235639718_0 J_3235639721 J_3235639718 66.22 0.013 0 0
C_3235639721_10081671392_0 J_3235639721 J_10081671392 136.18 0.013 0 0
C_12197618361_12197618359_0 J_12197618361 J_12197618359 14.58 0.013 0 0
C_12197618361_3235639721_0 J_12197618361 J_3235639721 9.38 0.013 0 0
C_12197618361_12197618362_0 J_12197618361 J_12197618362 26.56 0.013 0 0
C_12067305543_11260122965_0 J_12067305543 J_11260122965 19.03 0.013 0 0
C_12067305543_2389125034_0 J_12067305543 J_2389125034 301.75 0.013 0 0
C_3298864776_5961715635_0 J_3298864776 J_5961715635 5.72 0.013 0 0
C_11865527609_6567395226_0 J_11865527609 J_6567395226 58.63 0.013 0 0
C_11865527609_6143210301_0 J_11865527609 J_6143210301 32.15 0.013 0 0
C_11865527609_3298878307_0 J_11865527609 J_3298878307 2.84 0.013 0 0
C_5780852347_3298878325_0 J_5780852347 J_3298878325 11.25 0.013 0 0
C_3421682934_12695960102_0 J_3421682934 J_12695960102 69.01 0.013 0 0
C_3421682934_6463519072_0 J_3421682934 J_6463519072 54.95 0.013 0 0
C_12695960102_12695946000_0 J_12695960102 J_12695946000 5.99 0.013 0 0
C_12695960102_12695945997_0 J_12695960102 J_12695945997 20.40 0.013 0 0
C_3538106692_7432244851_0 J_3538106692 J_7432244851 26.75 0.013 0 0
C_3538106692_7086183230_0 J_3538106692 J_7086183230 102.53 0.013 0 0
C_3538106692_7086183228_0 J_3538106692 J_7086183228 25.90 0.013 0 0
C_7086183230_3538106692_0 J_7086183230 J_3538106692 102.53 0.013 0 0
C_7086183230_7086183227_0 J_7086183230 J_7086183227 30.18 0.013 0 0
C_7086183230_7086183229_0 J_7086183230 J_7086183229 24.36 0.013 0 0
C_7086183228_7432283509_0 J_7086183228 J_7432283509 27.39 0.013 0 0
C_7086183228_3538106692_0 J_7086183228 J_3538106692 25.90 0.013 0 0
C_7086183228_7086183229_0 J_7086183228 J_7086183229 101.45 0.013 0 0
C_7432283509_3538106723_0 J_7432283509 J_3538106723 91.58 0.013 0 0
C_7432283509_7086183228_0 J_7432283509 J_7086183228 27.39 0.013 0 0
C_7432283509_7086183229_0 J_7432283509 J_7086183229 120.88 0.013 0 0
C_4146210945_6457067893_0 J_4146210945 J_6457067893 7.47 0.013 0 0
C_4146210945_4146210951_0 J_4146210945 J_4146210951 37.81 0.013 0 0
C_4146210945_3543166934_0 J_4146210945 J_3543166934 75.37 0.013 0 0
C_3549123725_5267369424_0 J_3549123725 J_5267369424 35.70 0.013 0 0
C_3549123725_5267369426_0 J_3549123725 J_5267369426 29.39 0.013 0 0
C_3549123725_3549123729_0 J_3549123725 J_3549123729 100.42 0.013 0 0
C_5267369426_3549123725_0 J_5267369426 J_3549123725 29.39 0.013 0 0
C_5267369426_5267369428_0 J_5267369426 J_5267369428 33.74 0.013 0 0
C_5267369426_5267369427_0 J_5267369426 J_5267369427 98.68 0.013 0 0
C_5267369427_3549123729_0 J_5267369427 J_3549123729 27.95 0.013 0 0
C_5267369427_5267369429_0 J_5267369427 J_5267369429 33.51 0.013 0 0
C_5267369427_5267369426_0 J_5267369427 J_5267369426 98.68 0.013 0 0
C_5267369429_5267369427_0 J_5267369429 J_5267369427 33.51 0.013 0 0
C_5267369429_3549123747_0 J_5267369429 J_3549123747 42.78 0.013 0 0
C_5267369429_5267369428_0 J_5267369429 J_5267369428 96.23 0.013 0 0
C_3549124813_3549124910_0 J_3549124813 J_3549124910 194.96 0.013 0 0
C_3549124813_3549124811_0 J_3549124813 J_3549124811 32.81 0.013 0 0
C_3549124813_3549124818_0 J_3549124813 J_3549124818 35.11 0.013 0 0
C_3549124818_3549124909_0 J_3549124818 J_3549124909 190.65 0.013 0 0
C_3549124818_3549124813_0 J_3549124818 J_3549124813 35.11 0.013 0 0
C_3549124818_3549124822_0 J_3549124818 J_3549124822 34.58 0.013 0 0
C_3549124909_3549124908_0 J_3549124909 J_3549124908 50.47 0.013 0 0
C_3549124909_3549124910_0 J_3549124909 J_3549124910 38.96 0.013 0 0
C_3549124909_3549124818_0 J_3549124909 J_3549124818 190.65 0.013 0 0
C_3549124822_3549124908_0 J_3549124822 J_3549124908 185.78 0.013 0 0
C_3549124822_3549124818_0 J_3549124822 J_3549124818 34.58 0.013 0 0
C_3549124822_3549124825_0 J_3549124822 J_3549124825 58.16 0.013 0 0
C_12186005569_12186005568_0 J_12186005569 J_12186005568 7.71 0.013 0 0
C_12186005569_6017833807_0 J_12186005569 J_6017833807 363.52 0.013 0 0
C_3965280993_3965280999_0 J_3965280993 J_3965280999 49.68 0.013 0 0
C_3965280999_3965281000_0 J_3965280999 J_3965281000 30.74 0.013 0 0
C_3965280999_8979004920_0 J_3965280999 J_8979004920 28.40 0.013 0 0
C_3965280999_3965280993_0 J_3965280999 J_3965280993 49.68 0.013 0 0
C_3965280995_3965281000_0 J_3965280995 J_3965281000 52.93 0.013 0 0
C_4146210931_7432244869_0 J_4146210931 J_7432244869 12.75 0.013 0 0
C_4146210931_6457067893_0 J_4146210931 J_6457067893 78.29 0.013 0 0
C_4146210931_4146210932_0 J_4146210931 J_4146210932 21.99 0.013 0 0
C_6457067893_4146210945_0 J_6457067893 J_4146210945 7.47 0.013 0 0
C_6457067893_4146210931_0 J_6457067893 J_4146210931 78.29 0.013 0 0
C_6457067893_6457067894_0 J_6457067893 J_6457067894 51.27 0.013 0 0
C_4146210932_6458176794_0 J_4146210932 J_6458176794 22.00 0.013 0 0
C_4146210932_6458176792_0 J_4146210932 J_6458176792 99.97 0.013 0 0
C_4146210932_4146210931_0 J_4146210932 J_4146210931 21.99 0.013 0 0
C_6458176794_4146210932_0 J_6458176794 J_4146210932 22.00 0.013 0 0
C_6458176794_4146210944_0 J_6458176794 J_4146210944 70.97 0.013 0 0
C_6458176794_11007259534_0 J_6458176794 J_11007259534 26.69 0.013 0 0
C_6458176792_6504556325_0 J_6458176792 J_6504556325 20.78 0.013 0 0
C_6458176792_7432244868_0 J_6458176792 J_7432244868 43.10 0.013 0 0
C_6458176792_4146211275_0 J_6458176792 J_4146211275 19.40 0.013 0 0
C_6458176792_4146210932_0 J_6458176792 J_4146210932 99.97 0.013 0 0
C_4146210944_6457067894_0 J_4146210944 J_6457067894 5.15 0.013 0 0
C_4146210944_6196907479_0 J_4146210944 J_6196907479 68.78 0.013 0 0
C_4146210944_6458176794_0 J_4146210944 J_6458176794 70.97 0.013 0 0
C_6457067894_11007254971_0 J_6457067894 J_11007254971 21.86 0.013 0 0
C_6457067894_4146210944_0 J_6457067894 J_4146210944 5.15 0.013 0 0
C_6457067894_6457067893_0 J_6457067894 J_6457067893 51.27 0.013 0 0
C_4146210951_4146210945_0 J_4146210951 J_4146210945 37.81 0.013 0 0
C_4146210951_7429952410_0 J_4146210951 J_7429952410 10.08 0.013 0 0
C_4146210951_4146210953_0 J_4146210951 J_4146210953 47.46 0.013 0 0
C_4146210953_4146210951_0 J_4146210953 J_4146210951 47.46 0.013 0 0
C_4146210953_5267402566_0 J_4146210953 J_5267402566 39.41 0.013 0 0
C_4146210953_11007254971_0 J_4146210953 J_11007254971 17.47 0.013 0 0
C_11007254971_6457067894_0 J_11007254971 J_6457067894 21.86 0.013 0 0
C_11007254971_4146210953_0 J_11007254971 J_4146210953 17.47 0.013 0 0
C_11007254971_11007254966_0 J_11007254971 J_11007254966 74.24 0.013 0 0
C_4146211263_7432244870_0 J_4146211263 J_7432244870 39.93 0.013 0 0
C_4146211263_4146211262_0 J_4146211263 J_4146211262 132.97 0.013 0 0
C_4146211263_10094504105_0 J_4146211263 J_10094504105 21.48 0.013 0 0
C_4146211263_4146211266_0 J_4146211263 J_4146211266 41.16 0.013 0 0
C_4146211265_4146211266_0 J_4146211265 J_4146211266 137.11 0.013 0 0
C_4146211265_4146211268_0 J_4146211265 J_4146211268 43.19 0.013 0 0
C_4146211265_4146211262_0 J_4146211265 J_4146211262 38.90 0.013 0 0
C_4146211266_4146211265_0 J_4146211266 J_4146211265 137.11 0.013 0 0
C_4146211266_4146211263_0 J_4146211266 J_4146211263 41.16 0.013 0 0
C_4146211266_4146211267_0 J_4146211266 J_4146211267 27.17 0.013 0 0
C_6196261541_6130226929_0 J_6196261541 J_6130226929 65.71 0.013 0 0
C_6196261541_4146211264_0 J_6196261541 J_4146211264 29.84 0.013 0 0
C_6196261541_9189234398_0 J_6196261541 J_9189234398 24.97 0.013 0 0
C_4146211267_4146211269_0 J_4146211267 J_4146211269 51.77 0.013 0 0
C_4146211267_4146211266_0 J_4146211267 J_4146211266 27.17 0.013 0 0
C_4146211267_4146211270_0 J_4146211267 J_4146211270 12.82 0.013 0 0
C_4146211269_4146211267_0 J_4146211269 J_4146211267 51.77 0.013 0 0
C_4146211270_4146211268_0 J_4146211270 J_4146211268 139.72 0.013 0 0
C_4146211270_4146211267_0 J_4146211270 J_4146211267 12.82 0.013 0 0
C_4146211270_7429952406_0 J_4146211270 J_7429952406 19.16 0.013 0 0
C_7429952406_4146211270_0 J_7429952406 J_4146211270 19.16 0.013 0 0
C_7429952406_4146211273_0 J_7429952406 J_4146211273 18.21 0.013 0 0
C_7429952406_7429952405_0 J_7429952406 J_7429952405 56.25 0.013 0 0
C_6504556325_6458176792_0 J_6504556325 J_6458176792 20.78 0.013 0 0
C_6504556325_4146211273_0 J_6504556325 J_4146211273 89.98 0.013 0 0
C_6504556325_4146211272_0 J_6504556325 J_4146211272 53.69 0.013 0 0
C_4146211279_5267402569_0 J_4146211279 J_5267402569 44.39 0.013 0 0
C_4146211279_4146211272_0 J_4146211279 J_4146211272 45.92 0.013 0 0
C_4146211279_4146211283_0 J_4146211279 J_4146211283 29.01 0.013 0 0
C_4146211273_6504556325_0 J_4146211273 J_6504556325 89.98 0.013 0 0
C_4146211273_7429952406_0 J_4146211273 J_7429952406 18.21 0.013 0 0
C_4146211273_4146211277_0 J_4146211273 J_4146211277 15.71 0.013 0 0
C_4146211275_6458176792_0 J_4146211275 J_6458176792 19.40 0.013 0 0
C_7432244868_4146211277_0 J_7432244868 J_4146211277 46.56 0.013 0 0
C_7432244868_6458176792_0 J_7432244868 J_6458176792 43.10 0.013 0 0
C_7432244868_7432244869_0 J_7432244868 J_7432244869 101.92 0.013 0 0
C_4146211283_4146211281_0 J_4146211283 J_4146211281 47.27 0.013 0 0
C_4146211283_4146211279_0 J_4146211283 J_4146211279 29.01 0.013 0 0
C_4146211283_4146211288_0 J_4146211283 J_4146211288 27.07 0.013 0 0
C_7432244867_4146211280_0 J_7432244867 J_4146211280 27.60 0.013 0 0
C_7432244867_7432244865_0 J_7432244867 J_7432244865 29.60 0.013 0 0
C_7432244867_4146211286_0 J_7432244867 J_4146211286 59.72 0.013 0 0
C_4146211281_4146211280_0 J_4146211281 J_4146211280 67.16 0.013 0 0
C_4146211281_4146211283_0 J_4146211281 J_4146211283 47.27 0.013 0 0
C_4146211281_4146211286_0 J_4146211281 J_4146211286 26.91 0.013 0 0
C_4146211286_4146211288_0 J_4146211286 J_4146211288 46.08 0.013 0 0
C_4146211286_7432244867_0 J_4146211286 J_7432244867 59.72 0.013 0 0
C_4146211286_4146211281_0 J_4146211286 J_4146211281 26.91 0.013 0 0
C_4146211286_10211111398_0 J_4146211286 J_10211111398 22.87 0.013 0 0
C_4918188101_4918203529_0 J_4918188101 J_4918203529 45.99 0.013 0 0
C_4918188101_4918203528_0 J_4918188101 J_4918203528 54.80 0.013 0 0
C_4918188101_4918188103_0 J_4918188101 J_4918188103 34.68 0.013 0 0
C_4918203528_4918188101_0 J_4918203528 J_4918188101 54.80 0.013 0 0
C_4918203528_4918203529_0 J_4918203528 J_4918203529 178.66 0.013 0 0
C_5267402562_5267402561_0 J_5267402562 J_5267402561 34.02 0.013 0 0
C_5267402562_6567395226_0 J_5267402562 J_6567395226 30.17 0.013 0 0
C_5267402562_7432244881_0 J_5267402562 J_7432244881 71.83 0.013 0 0
C_5267402562_7432244880_0 J_5267402562 J_7432244880 59.45 0.013 0 0
C_10049434084_5267402564_0 J_10049434084 J_5267402564 171.02 0.013 0 0
C_5267402567_5267402566_0 J_5267402567 J_5267402566 17.38 0.013 0 0
C_5267822919_5267823525_0 J_5267822919 J_5267823525 20.39 0.013 0 0
C_5267822919_5267822920_0 J_5267822919 J_5267822920 19.52 0.013 0 0
C_5267822919_5267823523_0 J_5267822919 J_5267823523 16.81 0.013 0 0
C_5267823525_5267822919_0 J_5267823525 J_5267822919 20.39 0.013 0 0
C_5267823525_11353404310_0 J_5267823525 J_11353404310 21.23 0.013 0 0
C_5267823525_5267823526_0 J_5267823525 J_5267823526 30.20 0.013 0 0
C_5267822920_5267822919_0 J_5267822920 J_5267822919 19.52 0.013 0 0
C_5267823523_5267823521_0 J_5267823523 J_5267823521 35.36 0.013 0 0
C_5267823523_5267823524_0 J_5267823523 J_5267823524 44.34 0.013 0 0
C_5267823523_5267822919_0 J_5267823523 J_5267822919 16.81 0.013 0 0
C_5267823522_5267823521_0 J_5267823522 J_5267823521 50.76 0.013 0 0
C_5267823524_5267823523_0 J_5267823524 J_5267823523 44.34 0.013 0 0
C_5267823526_5267823525_0 J_5267823526 J_5267823525 30.20 0.013 0 0
C_5267823530_5267823527_0 J_5267823530 J_5267823527 24.68 0.013 0 0
C_5267823530_5493854959_0 J_5267823530 J_5493854959 23.37 0.013 0 0
C_5267823530_11665987959_0 J_5267823530 J_11665987959 108.56 0.013 0 0
C_5267823530_5493868901_0 J_5267823530 J_5493868901 73.93 0.013 0 0
C_5292923939_5292923940_0 J_5292923939 J_5292923940 130.80 0.013 0 0
C_5388479540_10153868763_0 J_5388479540 J_10153868763 45.10 0.013 0 0
C_5388494831_5388494824_0 J_5388494831 J_5388494824 111.25 0.013 0 0
C_6884276481_2127279448_0 J_6884276481 J_2127279448 6.94 0.013 0 0
C_12181798460_266302974_0 J_12181798460 J_266302974 27.32 0.013 0 0
C_6017833806_6131076159_0 J_6017833806 J_6131076159 7.72 0.013 0 0
C_6017833807_6017833806_0 J_6017833807 J_6017833806 8.35 0.013 0 0
C_6017833807_2406072874_0 J_6017833807 J_2406072874 343.01 0.013 0 0
C_6130226929_6130226928_0 J_6130226929 J_6130226928 37.05 0.013 0 0
C_6130226929_6196261541_0 J_6130226929 J_6196261541 65.71 0.013 0 0
C_6130226929_6130226927_0 J_6130226929 J_6130226927 49.90 0.013 0 0
C_6130226928_6130226929_0 J_6130226928 J_6130226929 37.05 0.013 0 0
C_6130226928_6130226930_0 J_6130226928 J_6130226930 40.35 0.013 0 0
C_6130226928_6131800546_0 J_6130226928 J_6131800546 101.26 0.013 0 0
C_11063510865_11063510864_0 J_11063510865 J_11063510864 32.48 0.013 0 0
C_11063510865_6130226930_0 J_11063510865 J_6130226930 44.33 0.013 0 0
C_11063510865_6130226931_0 J_11063510865 J_6130226931 68.29 0.013 0 0
C_9189234398_6196261541_0 J_9189234398 J_6196261541 24.97 0.013 0 0
C_9189234398_6196261542_0 J_9189234398 J_6196261542 125.82 0.013 0 0
C_9189234398_6130226930_0 J_9189234398 J_6130226930 103.77 0.013 0 0
C_6196261538_6196261537_0 J_6196261538 J_6196261537 54.68 0.013 0 0
C_6196261538_6196261540_0 J_6196261538 J_6196261540 26.82 0.013 0 0
C_6196261538_6130226931_0 J_6196261538 J_6130226931 43.89 0.013 0 0
C_12067305554_6017833807_0 J_12067305554 J_6017833807 7.81 0.013 0 0
C_12067305554_12186005568_0 J_12067305554 J_12186005568 358.11 0.013 0 0
C_6132603450_6131903446_0 J_6132603450 J_6131903446 41.21 0.013 0 0
C_11476594021_6132249479_0 J_11476594021 J_6132249479 5.44 0.013 0 0
C_6141722654_6141722653_0 J_6141722654 J_6141722653 96.73 0.013 0 0
C_6141722654_6141722658_0 J_6141722654 J_6141722658 46.51 0.013 0 0
C_6141722654_6141722656_0 J_6141722654 J_6141722656 42.80 0.013 0 0
C_9189927159_6141722653_0 J_9189927159 J_6141722653 54.56 0.013 0 0
C_10094580906_6141722656_0 J_10094580906 J_6141722656 10.20 0.013 0 0
C_7432244855_6141732621_0 J_7432244855 J_6141732621 32.96 0.013 0 0
C_7432244855_6141732622_0 J_7432244855 J_6141732622 40.27 0.013 0 0
C_7432244855_7432244854_0 J_7432244855 J_7432244854 77.80 0.013 0 0
C_7432244855_7432244853_0 J_7432244855 J_7432244853 109.93 0.013 0 0
C_6567395238_6567395235_0 J_6567395238 J_6567395235 28.62 0.013 0 0
C_6567395238_6143210298_0 J_6567395238 J_6143210298 33.67 0.013 0 0
C_6567395238_6567395228_0 J_6567395238 J_6567395228 73.30 0.013 0 0
C_6567395227_6567395226_0 J_6567395227 J_6567395226 32.16 0.013 0 0
C_6567395227_6567395228_0 J_6567395227 J_6567395228 34.02 0.013 0 0
C_6567395227_6143210298_0 J_6567395227 J_6143210298 72.15 0.013 0 0
C_6567395227_6143210301_0 J_6567395227 J_6143210301 56.44 0.013 0 0
C_6144301681_10839366478_0 J_6144301681 J_10839366478 26.01 0.013 0 0
C_6178041419_6178041420_0 J_6178041419 J_6178041420 68.79 0.013 0 0
C_6178041419_6178041421_0 J_6178041419 J_6178041421 55.57 0.013 0 0
C_6178041419_6178041422_0 J_6178041419 J_6178041422 67.17 0.013 0 0
C_6178041422_6178041423_0 J_6178041422 J_6178041423 52.34 0.013 0 0
C_6178041422_6178041424_0 J_6178041422 J_6178041424 67.49 0.013 0 0
C_6178041422_6178041419_0 J_6178041422 J_6178041419 67.17 0.013 0 0
C_10094529581_6193921850_0 J_10094529581 J_6193921850 36.90 0.013 0 0
C_10094529581_6193921852_0 J_10094529581 J_6193921852 51.66 0.013 0 0
C_10094529581_10094529582_0 J_10094529581 J_10094529582 31.62 0.013 0 0
C_6196261537_6196261538_0 J_6196261537 J_6196261538 54.68 0.013 0 0
C_6196261540_6196261539_0 J_6196261540 J_6196261539 95.66 0.013 0 0
C_6196261540_6196261542_0 J_6196261540 J_6196261542 24.70 0.013 0 0
C_6196261540_6196261538_0 J_6196261540 J_6196261538 26.82 0.013 0 0
C_6196261539_6196261540_0 J_6196261539 J_6196261540 95.66 0.013 0 0
C_6196261542_9189234398_0 J_6196261542 J_9189234398 125.82 0.013 0 0
C_6196261542_6196261543_0 J_6196261542 J_6196261543 32.77 0.013 0 0
C_6196261542_6196261540_0 J_6196261542 J_6196261540 24.70 0.013 0 0
C_11007259534_6458176794_0 J_11007259534 J_6458176794 26.69 0.013 0 0
C_6462301370_6462301371_0 J_6462301370 J_6462301371 51.86 0.013 0 0
C_6462301370_2509419432_0 J_6462301370 J_2509419432 210.39 0.013 0 0
C_6518859304_6518859305_0 J_6518859304 J_6518859305 104.24 0.013 0 0
C_10839341172_6518859320_0 J_10839341172 J_6518859320 105.00 0.013 0 0
C_6528148940_10081671376_0 J_6528148940 J_10081671376 82.81 0.013 0 0
C_6528148951_6528148952_0 J_6528148951 J_6528148952 75.58 0.013 0 0
C_6528148953_6528148954_0 J_6528148953 J_6528148954 73.45 0.013 0 0
C_6528148955_10989273453_0 J_6528148955 J_10989273453 38.12 0.013 0 0
C_6528148956_6528148957_0 J_6528148956 J_6528148957 107.83 0.013 0 0
C_10081706681_10081706684_0 J_10081706681 J_10081706684 19.43 0.013 0 0
C_10081706681_10081706683_0 J_10081706681 J_10081706683 73.15 0.013 0 0
C_6528148963_6528148964_0 J_6528148963 J_6528148964 42.93 0.013 0 0
C_6528148965_6528148966_0 J_6528148965 J_6528148966 34.93 0.013 0 0
C_6528148970_6528148973_0 J_6528148970 J_6528148973 74.33 0.013 0 0
C_6528148975_6528148976_0 J_6528148975 J_6528148976 106.52 0.013 0 0
C_6529626685_6529626686_0 J_6529626685 J_6529626686 63.27 0.013 0 0
C_6531845894_11385670151_0 J_6531845894 J_11385670151 65.48 0.013 0 0
C_13410465225_6531845897_0 J_13410465225 J_6531845897 15.00 0.013 0 0
C_13410465225_13410465226_0 J_13410465225 J_13410465226 25.90 0.013 0 0
C_13410465225_6531845895_0 J_13410465225 J_6531845895 116.07 0.013 0 0
C_10081671279_6531845899_0 J_10081671279 J_6531845899 59.25 0.013 0 0
C_7432359269_7432359284_0 J_7432359269 J_7432359284 7.79 0.013 0 0
C_7432359269_2387017402_0 J_7432359269 J_2387017402 22.08 0.013 0 0
C_6567395228_6567395227_0 J_6567395228 J_6567395227 34.02 0.013 0 0
C_6567395228_6567395229_0 J_6567395228 J_6567395229 28.75 0.013 0 0
C_6567395228_6567395238_0 J_6567395228 J_6567395238 73.30 0.013 0 0
C_6567395228_6567395240_0 J_6567395228 J_6567395240 54.20 0.013 0 0
C_6567395229_6567395228_0 J_6567395229 J_6567395228 28.75 0.013 0 0
C_6567395229_12174205245_0 J_6567395229 J_12174205245 34.40 0.013 0 0
C_6567395229_6567395235_0 J_6567395229 J_6567395235 73.01 0.013 0 0
C_6567395229_6567395237_0 J_6567395229 J_6567395237 52.49 0.013 0 0
C_12174205245_6567395229_0 J_12174205245 J_6567395229 34.40 0.013 0 0
C_12174205245_6567395231_0 J_12174205245 J_6567395231 71.56 0.013 0 0
C_12174205245_6567395234_0 J_12174205245 J_6567395234 51.46 0.013 0 0
C_6567395235_6567395231_0 J_6567395235 J_6567395231 34.28 0.013 0 0
C_6567395235_6567395238_0 J_6567395235 J_6567395238 28.62 0.013 0 0
C_6567395235_6567395229_0 J_6567395235 J_6567395229 73.01 0.013 0 0
C_6567395237_6567395229_0 J_6567395237 J_6567395229 52.49 0.013 0 0
C_6567395237_6567395234_0 J_6567395237 J_6567395234 33.32 0.013 0 0
C_6567395237_6567395240_0 J_6567395237 J_6567395240 30.09 0.013 0 0
C_6633301856_7432359269_0 J_6633301856 J_7432359269 7.82 0.013 0 0
C_6633301856_11982570360_0 J_6633301856 J_11982570360 196.24 0.013 0 0
C_6884276477_5780852321_0 J_6884276477 J_5780852321 42.93 0.013 0 0
C_6884276477_6884276481_0 J_6884276477 J_6884276481 12.36 0.013 0 0
C_6884276686_266268380_0 J_6884276686 J_266268380 21.60 0.013 0 0
C_6884276686_6884276690_0 J_6884276686 J_6884276690 11.05 0.013 0 0
C_11374930012_11374930008_0 J_11374930012 J_11374930008 10.80 0.013 0 0
C_11374930012_306611195_0 J_11374930012 J_306611195 335.04 0.013 0 0
C_11178931802_11178931803_0 J_11178931802 J_11178931803 15.16 0.013 0 0
C_11178931802_6887565743_0 J_11178931802 J_6887565743 34.48 0.013 0 0
C_6887565743_11178931798_0 J_6887565743 J_11178931798 10.77 0.013 0 0
C_6887565743_266177660_0 J_6887565743 J_266177660 172.71 0.013 0 0
C_11178931798_6887565743_0 J_11178931798 J_6887565743 10.77 0.013 0 0
C_11178931798_11178931803_0 J_11178931798 J_11178931803 33.71 0.013 0 0
C_7086183229_7086183228_0 J_7086183229 J_7086183228 101.45 0.013 0 0
C_7086183229_7086183230_0 J_7086183229 J_7086183230 24.36 0.013 0 0
C_7086183229_7432283509_0 J_7086183229 J_7432283509 120.88 0.013 0 0
C_7429952389_7429952388_0 J_7429952389 J_7429952388 132.66 0.013 0 0
C_7429952390_7429952391_0 J_7429952390 J_7429952391 113.30 0.013 0 0
C_7429952391_10153862361_0 J_7429952391 J_10153862361 19.19 0.013 0 0
C_7429952391_7429952390_0 J_7429952391 J_7429952390 113.30 0.013 0 0
C_10153862361_7429952393_0 J_10153862361 J_7429952393 45.56 0.013 0 0
C_10153862361_13410902898_0 J_10153862361 J_13410902898 114.77 0.013 0 0
C_7429952393_6017833806_0 J_7429952393 J_6017833806 68.71 0.013 0 0
C_7429952393_7429952399_0 J_7429952393 J_7429952399 141.01 0.013 0 0
C_7429952399_7429952393_0 J_7429952399 J_7429952393 141.01 0.013 0 0
C_7429952405_7429952406_0 J_7429952405 J_7429952406 56.25 0.013 0 0
C_7432244829_10153862358_0 J_7432244829 J_10153862358 83.75 0.013 0 0
C_7432244831_7432244830_0 J_7432244831 J_7432244830 72.09 0.013 0 0
C_7432244835_7432244834_0 J_7432244835 J_7432244834 95.38 0.013 0 0
C_7432244837_7432244836_0 J_7432244837 J_7432244836 59.28 0.013 0 0
C_7432244838_7432244839_0 J_7432244838 J_7432244839 60.83 0.013 0 0
C_7432244842_11353404310_0 J_7432244842 J_11353404310 48.40 0.013 0 0
C_7432244862_7432244864_0 J_7432244862 J_7432244864 22.80 0.013 0 0
C_7432244864_7432244866_0 J_7432244864 J_7432244866 22.54 0.013 0 0
C_7432244864_7432244863_0 J_7432244864 J_7432244863 44.80 0.013 0 0
C_7432244864_7432244862_0 J_7432244864 J_7432244862 22.80 0.013 0 0
C_7432244864_11431805314_0 J_7432244864 J_11431805314 42.72 0.013 0 0
C_7432244865_7432244867_0 J_7432244865 J_7432244867 29.60 0.013 0 0
C_7432244865_7432244863_0 J_7432244865 J_7432244863 23.86 0.013 0 0
C_7432244865_7432244866_0 J_7432244865 J_7432244866 50.00 0.013 0 0
C_7432244866_10211111398_0 J_7432244866 J_10211111398 6.23 0.013 0 0
C_7432244866_7432244864_0 J_7432244866 J_7432244864 22.54 0.013 0 0
C_7432244866_7432244865_0 J_7432244866 J_7432244865 50.00 0.013 0 0
C_7432244871_7432244870_0 J_7432244871 J_7432244870 58.70 0.013 0 0
C_7432244873_7432244872_0 J_7432244873 J_7432244872 54.37 0.013 0 0
C_7432359284_7432359283_0 J_7432359284 J_7432359283 7.61 0.013 0 0
C_7432359284_7432382393_0 J_7432359284 J_7432382393 49.24 0.013 0 0
C_7432359283_6633301856_0 J_7432359283 J_6633301856 7.73 0.013 0 0
C_7432359283_12695960101_0 J_7432359283 J_12695960101 234.29 0.013 0 0
C_12695960101_12695960103_0 J_12695960101 J_12695960103 6.32 0.013 0 0
C_7432382398_266163778_0 J_7432382398 J_266163778 72.42 0.013 0 0
C_7432382398_11663109186_0 J_7432382398 J_11663109186 54.43 0.013 0 0
C_7478115637_7478115641_0 J_7478115637 J_7478115641 66.86 0.013 0 0
C_7478257545_7478257546_0 J_7478257545 J_7478257546 42.49 0.013 0 0
C_8979004921_8979004920_0 J_8979004921 J_8979004920 47.17 0.013 0 0
C_8984867007_8984867006_0 J_8984867007 J_8984867006 37.09 0.013 0 0
C_9189234403_11385670152_0 J_9189234403 J_11385670152 47.02 0.013 0 0
C_9813619345_9840710126_0 J_9813619345 J_9840710126 111.49 0.013 0 0
C_9918817333_10081671362_0 J_9918817333 J_10081671362 123.51 0.013 0 0
C_10081671261_11385670151_0 J_10081671261 J_11385670151 15.61 0.013 0 0
C_10081671263_10081671262_0 J_10081671263 J_10081671262 36.46 0.013 0 0
C_10081671268_11387517314_0 J_10081671268 J_11387517314 37.48 0.013 0 0
C_10081671273_10081671274_0 J_10081671273 J_10081671274 58.50 0.013 0 0
C_10081671388_10081671389_0 J_10081671388 J_10081671389 16.27 0.013 0 0
C_10081671389_10081671388_0 J_10081671389 J_10081671388 16.27 0.013 0 0
C_10081671389_10081671390_0 J_10081671389 J_10081671390 63.72 0.013 0 0
C_10081671389_10172729085_0 J_10081671389 J_10172729085 29.27 0.013 0 0
C_10081671390_10081671389_0 J_10081671390 J_10081671389 63.72 0.013 0 0
C_10081671391_10081671392_0 J_10081671391 J_10081671392 59.63 0.013 0 0
C_10081671393_10081671394_0 J_10081671393 J_10081671394 30.91 0.013 0 0
C_10081706679_10081706678_0 J_10081706679 J_10081706678 65.84 0.013 0 0
C_10081706684_10081706686_0 J_10081706684 J_10081706686 76.89 0.013 0 0
C_10081706683_10081706681_0 J_10081706683 J_10081706681 73.15 0.013 0 0
C_10081706686_10081706684_0 J_10081706686 J_10081706684 76.89 0.013 0 0
C_10081725589_10081725588_0 J_10081725589 J_10081725588 28.64 0.013 0 0
C_10081725590_10081725592_0 J_10081725590 J_10081725592 20.95 0.013 0 0
C_10081725592_10081725591_0 J_10081725592 J_10081725591 20.69 0.013 0 0
C_10081725592_10081725590_0 J_10081725592 J_10081725590 20.95 0.013 0 0
C_10081725592_12196366168_0 J_10081725592 J_12196366168 59.61 0.013 0 0
C_10848086334_10081725591_0 J_10848086334 J_10081725591 50.35 0.013 0 0
C_12196366168_10081725592_0 J_12196366168 J_10081725592 59.61 0.013 0 0
C_10094504106_10094504105_0 J_10094504106 J_10094504105 56.63 0.013 0 0
C_10094529582_10094529581_0 J_10094529582 J_10094529581 31.62 0.013 0 0
C_10094580865_10094580864_0 J_10094580865 J_10094580864 35.15 0.013 0 0
C_10094580888_10094580887_0 J_10094580888 J_10094580887 26.76 0.013 0 0
C_10094580890_10094580889_0 J_10094580890 J_10094580889 24.75 0.013 0 0
C_10094586220_10094586219_0 J_10094586220 J_10094586219 56.23 0.013 0 0
C_10153862359_10153862358_0 J_10153862359 J_10153862358 55.11 0.013 0 0
C_13410902898_10153862361_0 J_13410902898 J_10153862361 114.77 0.013 0 0
C_10153868765_10153868763_0 J_10153868765 J_10153868763 65.83 0.013 0 0
C_10989273452_10989273453_0 J_10989273452 J_10989273453 42.33 0.013 0 0
C_10989273454_10989273453_0 J_10989273454 J_10989273453 26.72 0.013 0 0
C_10994556963_10994556964_0 J_10994556963 J_10994556964 19.06 0.013 0 0
C_11006990856_11387496338_0 J_11006990856 J_11387496338 70.46 0.013 0 0
C_11007263821_11007263820_0 J_11007263821 J_11007263820 37.49 0.013 0 0
C_11007435039_11007435038_0 J_11007435039 J_11007435038 39.55 0.013 0 0
C_11012063565_11012063564_0 J_11012063565 J_11012063564 60.95 0.013 0 0
C_11063510864_11063510865_0 J_11063510864 J_11063510865 32.48 0.013 0 0
C_11178931803_2414626606_0 J_11178931803 J_2414626606 8.36 0.013 0 0
C_11178931803_12181798460_0 J_11178931803 J_12181798460 131.47 0.013 0 0
C_11259448961_11259448960_0 J_11259448961 J_11259448960 5.02 0.013 0 0
C_11259448961_11259448969_0 J_11259448961 J_11259448969 11.75 0.013 0 0
C_11259448963_11259448962_0 J_11259448963 J_11259448962 5.10 0.013 0 0
C_11259448963_11259448973_0 J_11259448963 J_11259448973 41.51 0.013 0 0
C_11259448962_11259448953_0 J_11259448962 J_11259448953 2.89 0.013 0 0
C_11892824101_11892824102_0 J_11892824101 J_11892824102 22.88 0.013 0 0
C_11892824101_2385141390_0 J_11892824101 J_2385141390 1040.18 0.013 0 0
C_11374930007_11374930012_0 J_11374930007 J_11374930012 7.83 0.013 0 0
C_11374930007_306612914_0 J_11374930007 J_306612914 26.94 0.013 0 0
C_11374930008_11374930010_0 J_11374930008 J_11374930010 10.91 0.013 0 0
C_11374930008_2619300330_0 J_11374930008 J_2619300330 334.16 0.013 0 0
C_11374930010_11374930011_0 J_11374930010 J_11374930011 8.53 0.013 0 0
C_11374930011_11374930009_0 J_11374930011 J_11374930009 10.91 0.013 0 0
C_11374930011_1653906436_0 J_11374930011 J_1653906436 278.58 0.013 0 0
C_11663109187_11663109186_0 J_11663109187 J_11663109186 12.99 0.013 0 0
C_11892824102_650141428_0 J_11892824102 J_650141428 341.92 0.013 0 0
C_12203527486_6463569335_0 J_12203527486 J_6463569335 6.07 0.013 0 0
C_12186005568_12186005569_0 J_12186005568 J_12186005569 7.71 0.013 0 0
C_12186005568_2387385680_0 J_12186005568 J_2387385680 741.37 0.013 0 0
C_12197618360_12197618359_0 J_12197618360 J_12197618359 25.83 0.013 0 0
C_12197618362_12197618361_0 J_12197618362 J_12197618361 26.56 0.013 0 0
C_12695946000_12695960101_0 J_12695946000 J_12695960101 8.94 0.013 0 0
C_12695946000_12151399348_0 J_12695946000 J_12151399348 175.83 0.013 0 0
C_12695960103_12695960102_0 J_12695960103 J_12695960102 9.00 0.013 0 0
C_12695960103_3287849051_0 J_12695960103 J_3287849051 110.19 0.013 0 0
C_13152778981_13152778980_0 J_13152778981 J_13152778980 19.91 0.013 0 0
C_13410465226_13410465225_0 J_13410465226 J_13410465225 25.90 0.013 0 0
C_13410465941_13410465942_0 J_13410465941 J_13410465942 25.40 0.013 0 0
C_13415111431_13415111434_0 J_13415111431 J_13415111434 23.83 0.013 0 0
C_13475843622_13475843621_0 J_13475843622 J_13475843621 17.56 0.013 0 0
C_outfall J_11977577699 Outfall_1 10.00 0.013 0 0

[XSECTIONS]
;;Link Shape Geom1 Geom2 Geom3 Geom4 Barrels
C_263386428_306622120_0 RECT_OPEN 1.0 1.5 0 0 1
C_263386428_306621809_0 RECT_OPEN 1.0 1.5 0 0 1
C_263386428_11533595484_0 RECT_OPEN 1.0 1.5 0 0 1
C_306622120_263386428_0 RECT_OPEN 1.0 1.5 0 0 1
C_306622120_306621654_0 RECT_OPEN 1.0 1.5 0 0 1
C_306622120_6505392518_0 RECT_OPEN 1.0 1.5 0 0 1
C_306621809_306621778_0 RECT_OPEN 1.0 1.5 0 0 1
C_306621809_263386428_0 RECT_OPEN 1.0 1.5 0 0 1
C_306621809_306621760_0 RECT_OPEN 1.0 1.5 0 0 1
C_11533595484_2387127863_0 RECT_OPEN 1.0 1.5 0 0 1
C_11533595484_263386428_0 RECT_OPEN 1.0 1.5 0 0 1
C_263386438_7432382412_0 RECT_OPEN 1.0 1.5 0 0 1
C_263386438_306615032_0 RECT_OPEN 1.0 1.5 0 0 1
C_263386438_7432382410_0 RECT_OPEN 1.0 1.5 0 0 1
C_7432382412_263386438_0 RECT_OPEN 1.0 1.5 0 0 1
C_7432382412_7432382415_0 RECT_OPEN 1.0 1.5 0 0 1
C_7432382412_5961715635_0 RECT_OPEN 1.0 1.5 0 0 1
C_306615032_266318626_0 RECT_OPEN 1.0 1.5 0 0 1
C_306615032_306615155_0 RECT_OPEN 1.0 1.5 0 0 1
C_306615032_263386438_0 RECT_OPEN 1.0 1.5 0 0 1
C_7432382410_306616029_0 RECT_OPEN 1.0 1.5 0 0 1
C_7432382410_7432382412_0 RECT_OPEN 1.0 1.5 0 0 1
C_263386445_7432382420_0 RECT_OPEN 1.0 1.5 0 0 1
C_263386445_306623098_0 RECT_OPEN 1.0 1.5 0 0 1
C_7432382420_263386445_0 RECT_OPEN 1.0 1.5 0 0 1
C_7432382420_7432382418_0 RECT_OPEN 1.0 1.5 0 0 1
C_7432382420_2407671508_0 RECT_OPEN 1.0 1.5 0 0 1
C_306623098_3549124825_0 RECT_OPEN 1.0 1.5 0 0 1
C_306623098_306623144_0 RECT_OPEN 1.0 1.5 0 0 1
C_306623098_3549124908_0 RECT_OPEN 1.0 1.5 0 0 1
C_306623098_7432382420_0 RECT_OPEN 1.0 1.5 0 0 1
C_263386457_306623631_0 RECT_OPEN 1.0 1.5 0 0 1
C_263386457_836238509_0 RECT_OPEN 1.0 1.5 0 0 1
C_263386457_306623149_0 RECT_OPEN 1.0 1.5 0 0 1
C_306623631_306623633_0 RECT_OPEN 1.0 1.5 0 0 1
C_306623631_306623614_0 RECT_OPEN 1.0 1.5 0 0 1
C_306623631_263386457_0 RECT_OPEN 1.0 1.5 0 0 1
C_836238509_836238514_0 RECT_OPEN 1.0 1.5 0 0 1
C_836238509_3549123747_0 RECT_OPEN 1.0 1.5 0 0 1
C_836238509_263386457_0 RECT_OPEN 1.0 1.5 0 0 1
C_306623149_306623366_0 RECT_OPEN 1.0 1.5 0 0 1
C_306623149_263386457_0 RECT_OPEN 1.0 1.5 0 0 1
C_306623149_306623545_0 RECT_OPEN 1.0 1.5 0 0 1
C_263394718_266268086_0 RECT_OPEN 1.0 1.5 0 0 1
C_263394718_263400205_0 RECT_OPEN 1.0 1.5 0 0 1
C_263394718_11178931799_0 RECT_OPEN 1.0 1.5 0 0 1
C_266268086_263394718_0 RECT_OPEN 1.0 1.5 0 0 1
C_266268086_266268085_0 RECT_OPEN 1.0 1.5 0 0 1
C_266268086_2407671508_0 RECT_OPEN 1.0 1.5 0 0 1
C_263400205_5267402564_0 RECT_OPEN 1.0 1.5 0 0 1
C_263400205_263394718_0 RECT_OPEN 1.0 1.5 0 0 1
C_263400205_266275087_0 RECT_OPEN 1.0 1.5 0 0 1
C_11178931799_263394718_0 RECT_OPEN 1.0 1.5 0 0 1
C_11178931799_6887565739_0 RECT_OPEN 1.0 1.5 0 0 1
C_263400148_266271044_0 RECT_OPEN 1.0 1.5 0 0 1
C_263400148_266271204_0 RECT_OPEN 1.0 1.5 0 0 1
C_263400148_650089427_0 RECT_OPEN 1.0 1.5 0 0 1
C_266271044_263400148_0 RECT_OPEN 1.0 1.5 0 0 1
C_266271044_4467082413_0 RECT_OPEN 1.0 1.5 0 0 1
C_266271044_266271046_0 RECT_OPEN 1.0 1.5 0 0 1
C_266271204_263400148_0 RECT_OPEN 1.0 1.5 0 0 1
C_266271204_306620177_0 RECT_OPEN 1.0 1.5 0 0 1
C_266271204_10094586221_0 RECT_OPEN 1.0 1.5 0 0 1
C_650089427_263400148_0 RECT_OPEN 1.0 1.5 0 0 1
C_650089427_263415776_0 RECT_OPEN 1.0 1.5 0 0 1
C_650089427_10094586221_0 RECT_OPEN 1.0 1.5 0 0 1
C_263400179_10094586219_0 RECT_OPEN 1.0 1.5 0 0 1
C_263400179_4467082413_0 RECT_OPEN 1.0 1.5 0 0 1
C_263400179_306620123_0 RECT_OPEN 1.0 1.5 0 0 1
C_10094586219_263400192_0 RECT_OPEN 1.0 1.5 0 0 1
C_10094586219_263400179_0 RECT_OPEN 1.0 1.5 0 0 1
C_10094586219_10094586220_0 RECT_OPEN 1.0 1.5 0 0 1
C_4467082413_263400179_0 RECT_OPEN 1.0 1.5 0 0 1
C_4467082413_266271044_0 RECT_OPEN 1.0 1.5 0 0 1
C_4467082413_6887795923_0 RECT_OPEN 1.0 1.5 0 0 1
C_306620123_263400179_0 RECT_OPEN 1.0 1.5 0 0 1
C_306620123_306620088_0 RECT_OPEN 1.0 1.5 0 0 1
C_306620123_306620124_0 RECT_OPEN 1.0 1.5 0 0 1
C_263400192_5267402564_0 RECT_OPEN 1.0 1.5 0 0 1
C_263400192_10094586219_0 RECT_OPEN 1.0 1.5 0 0 1
C_263400192_306620053_0 RECT_OPEN 1.0 1.5 0 0 1
C_5267402564_263400205_0 RECT_OPEN 1.0 1.5 0 0 1
C_5267402564_263400192_0 RECT_OPEN 1.0 1.5 0 0 1
C_5267402564_10049434084_0 RECT_OPEN 1.0 1.5 0 0 1
C_306620053_266275087_0 RECT_OPEN 1.0 1.5 0 0 1
C_306620053_306620088_0 RECT_OPEN 1.0 1.5 0 0 1
C_306620053_263400192_0 RECT_OPEN 1.0 1.5 0 0 1
C_266275087_266275088_0 RECT_OPEN 1.0 1.5 0 0 1
C_266275087_306620053_0 RECT_OPEN 1.0 1.5 0 0 1
C_266275087_263400205_0 RECT_OPEN 1.0 1.5 0 0 1
C_263415776_650089427_0 RECT_OPEN 1.0 1.5 0 0 1
C_263415776_263415826_0 RECT_OPEN 1.0 1.5 0 0 1
C_263415776_306620181_0 RECT_OPEN 1.0 1.5 0 0 1
C_263415826_306620007_0 RECT_OPEN 1.0 1.5 0 0 1
C_263415826_266271046_0 RECT_OPEN 1.0 1.5 0 0 1
C_263415826_263415776_0 RECT_OPEN 1.0 1.5 0 0 1
C_306620181_595767079_0 RECT_OPEN 1.0 1.5 0 0 1
C_306620181_306620173_0 RECT_OPEN 1.0 1.5 0 0 1
C_306620181_263415776_0 RECT_OPEN 1.0 1.5 0 0 1
C_306620007_306619953_0 RECT_OPEN 1.0 1.5 0 0 1
C_306620007_263415826_0 RECT_OPEN 1.0 1.5 0 0 1
C_306620007_306620148_0 RECT_OPEN 1.0 1.5 0 0 1
C_306620007_306620173_0 RECT_OPEN 1.0 1.5 0 0 1
C_266271046_263415826_0 RECT_OPEN 1.0 1.5 0 0 1
C_266271046_306620124_0 RECT_OPEN 1.0 1.5 0 0 1
C_266271046_266271044_0 RECT_OPEN 1.0 1.5 0 0 1
C_263415839_306615019_0 RECT_OPEN 1.0 1.5 0 0 1
C_263415839_306615476_0 RECT_OPEN 1.0 1.5 0 0 1
C_263415839_306615164_0 RECT_OPEN 1.0 1.5 0 0 1
C_306615019_263415839_0 RECT_OPEN 1.0 1.5 0 0 1
C_306615019_306619953_0 RECT_OPEN 1.0 1.5 0 0 1
C_306615019_266275089_0 RECT_OPEN 1.0 1.5 0 0 1
C_306615019_306619786_0 RECT_OPEN 1.0 1.5 0 0 1
C_306615476_263415839_0 RECT_OPEN 1.0 1.5 0 0 1
C_306615476_266274986_0 RECT_OPEN 1.0 1.5 0 0 1
C_306615476_306615608_0 RECT_OPEN 1.0 1.5 0 0 1
C_306615164_306615597_0 RECT_OPEN 1.0 1.5 0 0 1
C_306615164_263415852_0 RECT_OPEN 1.0 1.5 0 0 1
C_306615164_263415839_0 RECT_OPEN 1.0 1.5 0 0 1
C_263415852_266318626_0 RECT_OPEN 1.0 1.5 0 0 1
C_263415852_306615014_0 RECT_OPEN 1.0 1.5 0 0 1
C_263415852_306615164_0 RECT_OPEN 1.0 1.5 0 0 1
C_263415852_306620859_0 RECT_OPEN 1.0 1.5 0 0 1
C_266318626_306615032_0 RECT_OPEN 1.0 1.5 0 0 1
C_266318626_263415852_0 RECT_OPEN 1.0 1.5 0 0 1
C_266318626_266318627_0 RECT_OPEN 1.0 1.5 0 0 1
C_306615014_263415852_0 RECT_OPEN 1.0 1.5 0 0 1
C_306615014_306620879_0 RECT_OPEN 1.0 1.5 0 0 1
C_306615014_306619786_0 RECT_OPEN 1.0 1.5 0 0 1
C_306620859_306620870_0 RECT_OPEN 1.0 1.5 0 0 1
C_306620859_263415852_0 RECT_OPEN 1.0 1.5 0 0 1
C_306620859_266304400_0 RECT_OPEN 1.0 1.5 0 0 1
C_263431510_4146211264_0 RECT_OPEN 1.0 1.5 0 0 1
C_263431510_266310426_0 RECT_OPEN 1.0 1.5 0 0 1
C_263431510_2406084997_0 RECT_OPEN 1.0 1.5 0 0 1
C_4146211264_6196261541_0 RECT_OPEN 1.0 1.5 0 0 1
C_4146211264_263431510_0 RECT_OPEN 1.0 1.5 0 0 1
C_4146211264_6196261543_0 RECT_OPEN 1.0 1.5 0 0 1
C_266310426_3298857091_0 RECT_OPEN 1.0 1.5 0 0 1
C_266310426_306621180_0 RECT_OPEN 1.0 1.5 0 0 1
C_266310426_263431510_0 RECT_OPEN 1.0 1.5 0 0 1
C_266310426_2406084995_0 RECT_OPEN 1.0 1.5 0 0 1
C_2406084997_6130226927_0 RECT_OPEN 1.0 1.5 0 0 1
C_2406084997_2400167287_0 RECT_OPEN 1.0 1.5 0 0 1
C_2406084997_263431510_0 RECT_OPEN 1.0 1.5 0 0 1
C_2406084997_3298857094_0 RECT_OPEN 1.0 1.5 0 0 1
C_266163778_306617302_0 RECT_OPEN 1.0 1.5 0 0 1
C_266163778_7432382401_0 RECT_OPEN 1.0 1.5 0 0 1
C_266163778_7432382395_0 RECT_OPEN 1.0 1.5 0 0 1
C_306617302_306617457_0 RECT_OPEN 1.0 1.5 0 0 1
C_306617302_266163778_0 RECT_OPEN 1.0 1.5 0 0 1
C_306617302_306617440_0 RECT_OPEN 1.0 1.5 0 0 1
C_7432382401_1417443641_0 RECT_OPEN 1.0 1.5 0 0 1
C_7432382401_266163778_0 RECT_OPEN 1.0 1.5 0 0 1
C_7432382401_7432382398_0 RECT_OPEN 1.0 1.5 0 0 1
C_7432382395_6130692320_0 RECT_OPEN 1.0 1.5 0 0 1
C_7432382395_7432382401_0 RECT_OPEN 1.0 1.5 0 0 1
C_266164910_622363164_0 RECT_OPEN 1.0 1.5 0 0 1
C_266164910_306623347_0 RECT_OPEN 1.0 1.5 0 0 1
C_266164910_306623648_0 RECT_OPEN 1.0 1.5 0 0 1
C_266164910_306626271_0 RECT_OPEN 1.0 1.5 0 0 1
C_622363164_622363165_0 RECT_OPEN 1.0 1.5 0 0 1
C_622363164_306626127_0 RECT_OPEN 1.0 1.5 0 0 1
C_622363164_266164910_0 RECT_OPEN 1.0 1.5 0 0 1
C_622363164_306616974_0 RECT_OPEN 1.0 1.5 0 0 1
C_306623347_306623366_0 RECT_OPEN 1.0 1.5 0 0 1
C_306623347_306623646_0 RECT_OPEN 1.0 1.5 0 0 1
C_306623347_306626269_0 RECT_OPEN 1.0 1.5 0 0 1
C_306623347_266164910_0 RECT_OPEN 1.0 1.5 0 0 1
C_306623648_6193921851_0 RECT_OPEN 1.0 1.5 0 0 1
C_306623648_266164910_0 RECT_OPEN 1.0 1.5 0 0 1
C_306623648_1468908333_0 RECT_OPEN 1.0 1.5 0 0 1
C_306626271_6567395234_0 RECT_OPEN 1.0 1.5 0 0 1
C_306626271_306623252_0 RECT_OPEN 1.0 1.5 0 0 1
C_306626271_266164910_0 RECT_OPEN 1.0 1.5 0 0 1
C_266164941_266318559_0 RECT_OPEN 1.0 1.5 0 0 1
C_266164941_11007435038_0 RECT_OPEN 1.0 1.5 0 0 1
C_266164941_266304400_0 RECT_OPEN 1.0 1.5 0 0 1
C_266318559_266313980_0 RECT_OPEN 1.0 1.5 0 0 1
C_266318559_266164941_0 RECT_OPEN 1.0 1.5 0 0 1
C_266318559_266314031_0 RECT_OPEN 1.0 1.5 0 0 1
C_11007435038_266164941_0 RECT_OPEN 1.0 1.5 0 0 1
C_11007435038_266164942_0 RECT_OPEN 1.0 1.5 0 0 1
C_11007435038_11007435039_0 RECT_OPEN 1.0 1.5 0 0 1
C_266304400_266304402_0 RECT_OPEN 1.0 1.5 0 0 1
C_266304400_266313958_0 RECT_OPEN 1.0 1.5 0 0 1
C_266304400_306620859_0 RECT_OPEN 1.0 1.5 0 0 1
C_266304400_266164941_0 RECT_OPEN 1.0 1.5 0 0 1
C_266164942_266314035_0 RECT_OPEN 1.0 1.5 0 0 1
C_266164942_266318994_0 RECT_OPEN 1.0 1.5 0 0 1
C_266164942_11007435038_0 RECT_OPEN 1.0 1.5 0 0 1
C_266164942_266164948_0 RECT_OPEN 1.0 1.5 0 0 1
C_266314035_266314031_0 RECT_OPEN 1.0 1.5 0 0 1
C_266314035_266164942_0 RECT_OPEN 1.0 1.5 0 0 1
C_266314035_266318996_0 RECT_OPEN 1.0 1.5 0 0 1
C_266318994_266164942_0 RECT_OPEN 1.0 1.5 0 0 1
C_266318994_2406084995_0 RECT_OPEN 1.0 1.5 0 0 1
C_266318994_10094504107_0 RECT_OPEN 1.0 1.5 0 0 1
C_266164948_2406084995_0 RECT_OPEN 1.0 1.5 0 0 1
C_266164948_266164942_0 RECT_OPEN 1.0 1.5 0 0 1
C_266164948_4146211262_0 RECT_OPEN 1.0 1.5 0 0 1
C_266164948_4146211261_0 RECT_OPEN 1.0 1.5 0 0 1
C_2406084995_266318994_0 RECT_OPEN 1.0 1.5 0 0 1
C_2406084995_266164948_0 RECT_OPEN 1.0 1.5 0 0 1
C_2406084995_10094504105_0 RECT_OPEN 1.0 1.5 0 0 1
C_2406084995_266310426_0 RECT_OPEN 1.0 1.5 0 0 1
C_4146211262_4146211263_0 RECT_OPEN 1.0 1.5 0 0 1
C_4146211262_266164948_0 RECT_OPEN 1.0 1.5 0 0 1
C_4146211262_4146211265_0 RECT_OPEN 1.0 1.5 0 0 1
C_4146211261_266164948_0 RECT_OPEN 1.0 1.5 0 0 1
C_4146211261_10094504108_0 RECT_OPEN 1.0 1.5 0 0 1
C_4146211261_4146211271_0 RECT_OPEN 1.0 1.5 0 0 1
C_266174853_266265561_0 RECT_OPEN 1.0 1.5 0 0 1
C_266174853_306625695_0 RECT_OPEN 1.0 1.5 0 0 1
C_266174853_306625759_0 RECT_OPEN 1.0 1.5 0 0 1
C_266174853_306626127_0 RECT_OPEN 1.0 1.5 0 0 1
C_266265561_266174853_0 RECT_OPEN 1.0 1.5 0 0 1
C_266265561_306616744_0 RECT_OPEN 1.0 1.5 0 0 1
C_266265561_266268082_0 RECT_OPEN 1.0 1.5 0 0 1
C_306625695_266174853_0 RECT_OPEN 1.0 1.5 0 0 1
C_306625695_2414635985_0 RECT_OPEN 1.0 1.5 0 0 1
C_306625695_306625812_0 RECT_OPEN 1.0 1.5 0 0 1
C_306625695_306626120_0 RECT_OPEN 1.0 1.5 0 0 1
C_306625759_306625818_0 RECT_OPEN 1.0 1.5 0 0 1
C_306625759_306617440_0 RECT_OPEN 1.0 1.5 0 0 1
C_306625759_266174853_0 RECT_OPEN 1.0 1.5 0 0 1
C_306626127_306626245_0 RECT_OPEN 1.0 1.5 0 0 1
C_306626127_266174853_0 RECT_OPEN 1.0 1.5 0 0 1
C_306626127_622363164_0 RECT_OPEN 1.0 1.5 0 0 1
C_266174854_266298095_0 RECT_OPEN 1.0 1.5 0 0 1
C_266174854_1417443647_0 RECT_OPEN 1.0 1.5 0 0 1
C_266174854_1417443641_0 RECT_OPEN 1.0 1.5 0 0 1
C_266298095_266174854_0 RECT_OPEN 1.0 1.5 0 0 1
C_266298095_266300742_0 RECT_OPEN 1.0 1.5 0 0 1
C_266298095_266298087_0 RECT_OPEN 1.0 1.5 0 0 1
C_1417443647_1488526924_0 RECT_OPEN 1.0 1.5 0 0 1
C_1417443647_266298088_0 RECT_OPEN 1.0 1.5 0 0 1
C_1417443647_266174854_0 RECT_OPEN 1.0 1.5 0 0 1
C_1417443641_7432382401_0 RECT_OPEN 1.0 1.5 0 0 1
C_1417443641_5493844924_0 RECT_OPEN 1.0 1.5 0 0 1
C_1417443641_266300741_0 RECT_OPEN 1.0 1.5 0 0 1
C_1417443641_266174854_0 RECT_OPEN 1.0 1.5 0 0 1
C_266174856_1473871931_0 RECT_OPEN 1.0 1.5 0 0 1
C_266174856_1473871940_0 RECT_OPEN 1.0 1.5 0 0 1
C_266174856_266272487_0 RECT_OPEN 1.0 1.5 0 0 1
C_1473871931_266174856_0 RECT_OPEN 1.0 1.5 0 0 1
C_1473871931_1473871942_0 RECT_OPEN 1.0 1.5 0 0 1
C_1473871931_3096683824_0 RECT_OPEN 1.0 1.5 0 0 1
C_1473871931_1473871945_0 RECT_OPEN 1.0 1.5 0 0 1
C_1473871940_1473871938_0 RECT_OPEN 1.0 1.5 0 0 1
C_1473871940_1473871959_0 RECT_OPEN 1.0 1.5 0 0 1
C_1473871940_266174856_0 RECT_OPEN 1.0 1.5 0 0 1
C_266272487_1488556180_0 RECT_OPEN 1.0 1.5 0 0 1
C_266272487_266174856_0 RECT_OPEN 1.0 1.5 0 0 1
C_266272487_266298088_0 RECT_OPEN 1.0 1.5 0 0 1
C_266174857_313460308_0 RECT_OPEN 1.0 1.5 0 0 1
C_266174857_1473885221_0 RECT_OPEN 1.0 1.5 0 0 1
C_266174857_266272874_0 RECT_OPEN 1.0 1.5 0 0 1
C_313460308_266174857_0 RECT_OPEN 1.0 1.5 0 0 1
C_313460308_313460313_0 RECT_OPEN 1.0 1.5 0 0 1
C_313460308_1488556150_0 RECT_OPEN 1.0 1.5 0 0 1
C_1473885221_1473885237_0 RECT_OPEN 1.0 1.5 0 0 1
C_1473885221_266174857_0 RECT_OPEN 1.0 1.5 0 0 1
C_1473885221_1473885223_0 RECT_OPEN 1.0 1.5 0 0 1
C_266272874_306618090_0 RECT_OPEN 1.0 1.5 0 0 1
C_266272874_3161269200_0 RECT_OPEN 1.0 1.5 0 0 1
C_266272874_266174857_0 RECT_OPEN 1.0 1.5 0 0 1
C_266177660_2526081636_0 RECT_OPEN 1.0 1.5 0 0 1
C_266177660_6560240052_0 RECT_OPEN 1.0 1.5 0 0 1
C_2526081636_266298084_0 RECT_OPEN 1.0 1.5 0 0 1
C_2526081636_266177660_0 RECT_OPEN 1.0 1.5 0 0 1
C_2526081636_266300661_0 RECT_OPEN 1.0 1.5 0 0 1
C_2526081636_3304204552_0 RECT_OPEN 1.0 1.5 0 0 1
C_6560240052_7432359269_0 RECT_OPEN 1.0 1.5 0 0 1
C_6560240052_3304204552_0 RECT_OPEN 1.0 1.5 0 0 1
C_306616744_306617018_0 RECT_OPEN 1.0 1.5 0 0 1
C_306616744_266265561_0 RECT_OPEN 1.0 1.5 0 0 1
C_306616744_266276756_0 RECT_OPEN 1.0 1.5 0 0 1
C_266268082_306617429_0 RECT_OPEN 1.0 1.5 0 0 1
C_266268082_266268084_0 RECT_OPEN 1.0 1.5 0 0 1
C_266268082_266265561_0 RECT_OPEN 1.0 1.5 0 0 1
C_266267494_266267499_0 RECT_OPEN 1.0 1.5 0 0 1
C_266267494_306624820_0 RECT_OPEN 1.0 1.5 0 0 1
C_266267494_266267666_0 RECT_OPEN 1.0 1.5 0 0 1
C_266267499_1469644202_0 RECT_OPEN 1.0 1.5 0 0 1
C_266267499_266267494_0 RECT_OPEN 1.0 1.5 0 0 1
C_266267499_306625528_0 RECT_OPEN 1.0 1.5 0 0 1
C_306624820_306624836_0 RECT_OPEN 1.0 1.5 0 0 1
C_306624820_306623471_0 RECT_OPEN 1.0 1.5 0 0 1
C_306624820_266267494_0 RECT_OPEN 1.0 1.5 0 0 1
C_266267666_266267494_0 RECT_OPEN 1.0 1.5 0 0 1
C_266267666_12174142491_0 RECT_OPEN 1.0 1.5 0 0 1
C_1469644202_266267499_0 RECT_OPEN 1.0 1.5 0 0 1
C_1469644202_306625751_0 RECT_OPEN 1.0 1.5 0 0 1
C_1469644202_12174142491_0 RECT_OPEN 1.0 1.5 0 0 1
C_306625528_306626042_0 RECT_OPEN 1.0 1.5 0 0 1
C_306625528_266267499_0 RECT_OPEN 1.0 1.5 0 0 1
C_306625528_306626118_0 RECT_OPEN 1.0 1.5 0 0 1
C_12174142491_1469644202_0 RECT_OPEN 1.0 1.5 0 0 1
C_12174142491_266267666_0 RECT_OPEN 1.0 1.5 0 0 1
C_306617429_306617409_0 RECT_OPEN 1.0 1.5 0 0 1
C_306617429_266268082_0 RECT_OPEN 1.0 1.5 0 0 1
C_306617429_306617444_0 RECT_OPEN 1.0 1.5 0 0 1
C_266268084_306617477_0 RECT_OPEN 1.0 1.5 0 0 1
C_266268084_266268085_0 RECT_OPEN 1.0 1.5 0 0 1
C_266268084_266268082_0 RECT_OPEN 1.0 1.5 0 0 1
C_306617477_306617463_0 RECT_OPEN 1.0 1.5 0 0 1
C_306617477_266268084_0 RECT_OPEN 1.0 1.5 0 0 1
C_306617477_306617409_0 RECT_OPEN 1.0 1.5 0 0 1
C_266268085_306616740_0 RECT_OPEN 1.0 1.5 0 0 1
C_266268085_266268084_0 RECT_OPEN 1.0 1.5 0 0 1
C_266268085_266268086_0 RECT_OPEN 1.0 1.5 0 0 1
C_306616740_266268085_0 RECT_OPEN 1.0 1.5 0 0 1
C_306616740_266276756_0 RECT_OPEN 1.0 1.5 0 0 1
C_306616740_3298878307_0 RECT_OPEN 1.0 1.5 0 0 1
C_2407671508_7432382420_0 RECT_OPEN 1.0 1.5 0 0 1
C_2407671508_266274986_0 RECT_OPEN 1.0 1.5 0 0 1
C_2407671508_266268086_0 RECT_OPEN 1.0 1.5 0 0 1
C_2407671508_306623127_0 RECT_OPEN 1.0 1.5 0 0 1
C_266268374_306623673_0 RECT_OPEN 1.0 1.5 0 0 1
C_266268374_10094529579_0 RECT_OPEN 1.0 1.5 0 0 1
C_266268374_266268375_0 RECT_OPEN 1.0 1.5 0 0 1
C_306623673_306623368_0 RECT_OPEN 1.0 1.5 0 0 1
C_306623673_306623632_0 RECT_OPEN 1.0 1.5 0 0 1
C_306623673_266268374_0 RECT_OPEN 1.0 1.5 0 0 1
C_10094529579_306623632_0 RECT_OPEN 1.0 1.5 0 0 1
C_10094529579_306623633_0 RECT_OPEN 1.0 1.5 0 0 1
C_10094529579_266268374_0 RECT_OPEN 1.0 1.5 0 0 1
C_266268375_306623367_0 RECT_OPEN 1.0 1.5 0 0 1
C_266268375_266268374_0 RECT_OPEN 1.0 1.5 0 0 1
C_266268375_306624975_0 RECT_OPEN 1.0 1.5 0 0 1
C_306623367_306623368_0 RECT_OPEN 1.0 1.5 0 0 1
C_306623367_266268375_0 RECT_OPEN 1.0 1.5 0 0 1
C_306623367_306624836_0 RECT_OPEN 1.0 1.5 0 0 1
C_306624975_306624988_0 RECT_OPEN 1.0 1.5 0 0 1
C_306624975_266268375_0 RECT_OPEN 1.0 1.5 0 0 1
C_306624975_266268377_0 RECT_OPEN 1.0 1.5 0 0 1
C_266268377_306624796_0 RECT_OPEN 1.0 1.5 0 0 1
C_266268377_306624975_0 RECT_OPEN 1.0 1.5 0 0 1
C_266268377_5780852321_0 RECT_OPEN 1.0 1.5 0 0 1
C_306624796_306625001_0 RECT_OPEN 1.0 1.5 0 0 1
C_306624796_266268377_0 RECT_OPEN 1.0 1.5 0 0 1
C_306624796_306624987_0 RECT_OPEN 1.0 1.5 0 0 1
C_306624796_306625124_0 RECT_OPEN 1.0 1.5 0 0 1
C_5780852321_6884276481_0 RECT_OPEN 1.0 1.5 0 0 1
C_5780852321_266268377_0 RECT_OPEN 1.0 1.5 0 0 1
C_266268380_6884276690_0 RECT_OPEN 1.0 1.5 0 0 1
C_266268380_306624839_0 RECT_OPEN 1.0 1.5 0 0 1
C_6884276690_6884276477_0 RECT_OPEN 1.0 1.5 0 0 1
C_306624839_306624842_0 RECT_OPEN 1.0 1.5 0 0 1
C_306624839_266268380_0 RECT_OPEN 1.0 1.5 0 0 1
C_306620124_306620123_0 RECT_OPEN 1.0 1.5 0 0 1
C_306620124_266271046_0 RECT_OPEN 1.0 1.5 0 0 1
C_306620124_306620148_0 RECT_OPEN 1.0 1.5 0 0 1
C_306620177_266271204_0 RECT_OPEN 1.0 1.5 0 0 1
C_306620177_6887795923_0 RECT_OPEN 1.0 1.5 0 0 1
C_306620177_306619845_0 RECT_OPEN 1.0 1.5 0 0 1
C_10094586221_266271204_0 RECT_OPEN 1.0 1.5 0 0 1
C_10094586221_650089427_0 RECT_OPEN 1.0 1.5 0 0 1
C_10094586221_595767079_0 RECT_OPEN 1.0 1.5 0 0 1
C_1488556180_266273458_0 RECT_OPEN 1.0 1.5 0 0 1
C_1488556180_266272487_0 RECT_OPEN 1.0 1.5 0 0 1
C_1488556180_7432244854_0 RECT_OPEN 1.0 1.5 0 0 1
C_266298088_266298087_0 RECT_OPEN 1.0 1.5 0 0 1
C_266298088_1417443647_0 RECT_OPEN 1.0 1.5 0 0 1
C_266298088_266272487_0 RECT_OPEN 1.0 1.5 0 0 1
C_266272838_266272839_0 RECT_OPEN 1.0 1.5 0 0 1
C_266272838_7432382393_0 RECT_OPEN 1.0 1.5 0 0 1
C_266272838_306609464_0 RECT_OPEN 1.0 1.5 0 0 1
C_266272839_266272840_0 RECT_OPEN 1.0 1.5 0 0 1
C_266272839_266272838_0 RECT_OPEN 1.0 1.5 0 0 1
C_266272839_306609693_0 RECT_OPEN 1.0 1.5 0 0 1
C_7432382393_266272838_0 RECT_OPEN 1.0 1.5 0 0 1
C_7432382393_7432359283_0 RECT_OPEN 1.0 1.5 0 0 1
C_306609464_306609693_0 RECT_OPEN 1.0 1.5 0 0 1
C_306609464_266272838_0 RECT_OPEN 1.0 1.5 0 0 1
C_306609464_306608698_0 RECT_OPEN 1.0 1.5 0 0 1
C_266272840_266272839_0 RECT_OPEN 1.0 1.5 0 0 1
C_266272840_306609695_0 RECT_OPEN 1.0 1.5 0 0 1
C_266272840_266272841_0 RECT_OPEN 1.0 1.5 0 0 1
C_306609693_306608898_0 RECT_OPEN 1.0 1.5 0 0 1
C_306609693_306609695_0 RECT_OPEN 1.0 1.5 0 0 1
C_306609693_306609464_0 RECT_OPEN 1.0 1.5 0 0 1
C_306609693_266272839_0 RECT_OPEN 1.0 1.5 0 0 1
C_306609695_306609212_0 RECT_OPEN 1.0 1.5 0 0 1
C_306609695_306609693_0 RECT_OPEN 1.0 1.5 0 0 1
C_306609695_266272840_0 RECT_OPEN 1.0 1.5 0 0 1
C_306609695_306609696_0 RECT_OPEN 1.0 1.5 0 0 1
C_266272841_266272842_0 RECT_OPEN 1.0 1.5 0 0 1
C_266272841_266272840_0 RECT_OPEN 1.0 1.5 0 0 1
C_266272841_306610651_0 RECT_OPEN 1.0 1.5 0 0 1
C_266272841_306614126_0 RECT_OPEN 1.0 1.5 0 0 1
C_266272842_266272843_0 RECT_OPEN 1.0 1.5 0 0 1
C_266272842_306619706_0 RECT_OPEN 1.0 1.5 0 0 1
C_266272842_266272841_0 RECT_OPEN 1.0 1.5 0 0 1
C_306610651_306610573_0 RECT_OPEN 1.0 1.5 0 0 1
C_306610651_306619706_0 RECT_OPEN 1.0 1.5 0 0 1
C_306610651_266272841_0 RECT_OPEN 1.0 1.5 0 0 1
C_306614126_306618203_0 RECT_OPEN 1.0 1.5 0 0 1
C_306614126_306618152_0 RECT_OPEN 1.0 1.5 0 0 1
C_306614126_306617982_0 RECT_OPEN 1.0 1.5 0 0 1
C_306614126_266272841_0 RECT_OPEN 1.0 1.5 0 0 1
C_266272843_11259448972_0 RECT_OPEN 1.0 1.5 0 0 1
C_266272843_266272842_0 RECT_OPEN 1.0 1.5 0 0 1
C_266272843_306614127_0 RECT_OPEN 1.0 1.5 0 0 1
C_306619706_306619696_0 RECT_OPEN 1.0 1.5 0 0 1
C_306619706_306610698_0 RECT_OPEN 1.0 1.5 0 0 1
C_306619706_306610651_0 RECT_OPEN 1.0 1.5 0 0 1
C_306619706_266272842_0 RECT_OPEN 1.0 1.5 0 0 1
C_11259448972_266272843_0 RECT_OPEN 1.0 1.5 0 0 1
C_11259448972_11259448963_0 RECT_OPEN 1.0 1.5 0 0 1
C_306614127_306618031_0 RECT_OPEN 1.0 1.5 0 0 1
C_306614127_306617982_0 RECT_OPEN 1.0 1.5 0 0 1
C_306614127_266272843_0 RECT_OPEN 1.0 1.5 0 0 1
C_306618090_306619109_0 RECT_OPEN 1.0 1.5 0 0 1
C_306618090_306618120_0 RECT_OPEN 1.0 1.5 0 0 1
C_306618090_12174120925_0 RECT_OPEN 1.0 1.5 0 0 1
C_306618090_266272874_0 RECT_OPEN 1.0 1.5 0 0 1
C_3161269200_8979004920_0 RECT_OPEN 1.0 1.5 0 0 1
C_3161269200_8979004919_0 RECT_OPEN 1.0 1.5 0 0 1
C_3161269200_266272874_0 RECT_OPEN 1.0 1.5 0 0 1
C_266273088_1473871924_0 RECT_OPEN 1.0 1.5 0 0 1
C_266273088_1473871945_0 RECT_OPEN 1.0 1.5 0 0 1
C_266273088_1488526913_0 RECT_OPEN 1.0 1.5 0 0 1
C_1473871924_1488526920_0 RECT_OPEN 1.0 1.5 0 0 1
C_1473871924_266273088_0 RECT_OPEN 1.0 1.5 0 0 1
C_1473871924_1473871954_0 RECT_OPEN 1.0 1.5 0 0 1
C_1473871945_266273088_0 RECT_OPEN 1.0 1.5 0 0 1
C_1473871945_1473871956_0 RECT_OPEN 1.0 1.5 0 0 1
C_1473871945_1473871931_0 RECT_OPEN 1.0 1.5 0 0 1
C_1488526913_1488526884_0 RECT_OPEN 1.0 1.5 0 0 1
C_1488526913_266273088_0 RECT_OPEN 1.0 1.5 0 0 1
C_1488526913_1488526911_0 RECT_OPEN 1.0 1.5 0 0 1
C_1488526913_7432244851_0 RECT_OPEN 1.0 1.5 0 0 1
C_266273090_3096683821_0 RECT_OPEN 1.0 1.5 0 0 1
C_266273090_4377707444_0 RECT_OPEN 1.0 1.5 0 0 1
C_266273090_4377707454_0 RECT_OPEN 1.0 1.5 0 0 1
C_3096683821_266273090_0 RECT_OPEN 1.0 1.5 0 0 1
C_3096683821_1488526920_0 RECT_OPEN 1.0 1.5 0 0 1
C_3096683821_1473871961_0 RECT_OPEN 1.0 1.5 0 0 1
C_4377707444_266273090_0 RECT_OPEN 1.0 1.5 0 0 1
C_4377707444_6152326682_0 RECT_OPEN 1.0 1.5 0 0 1
C_4377707454_266273090_0 RECT_OPEN 1.0 1.5 0 0 1
C_266273458_6141732621_0 RECT_OPEN 1.0 1.5 0 0 1
C_266273458_1488556180_0 RECT_OPEN 1.0 1.5 0 0 1
C_266273458_266298086_0 RECT_OPEN 1.0 1.5 0 0 1
C_6141732621_266273460_0 RECT_OPEN 1.0 1.5 0 0 1
C_6141732621_266273458_0 RECT_OPEN 1.0 1.5 0 0 1
C_6141732621_7432244855_0 RECT_OPEN 1.0 1.5 0 0 1
C_266298086_266298087_0 RECT_OPEN 1.0 1.5 0 0 1
C_266298086_266298092_0 RECT_OPEN 1.0 1.5 0 0 1
C_266298086_266300742_0 RECT_OPEN 1.0 1.5 0 0 1
C_266298086_266273458_0 RECT_OPEN 1.0 1.5 0 0 1
C_266273460_6141732621_0 RECT_OPEN 1.0 1.5 0 0 1
C_266273460_7432244853_0 RECT_OPEN 1.0 1.5 0 0 1
C_266273460_266298084_0 RECT_OPEN 1.0 1.5 0 0 1
C_7432244853_266300657_0 RECT_OPEN 1.0 1.5 0 0 1
C_7432244853_266273460_0 RECT_OPEN 1.0 1.5 0 0 1
C_7432244853_7432244855_0 RECT_OPEN 1.0 1.5 0 0 1
C_266298084_266298089_0 RECT_OPEN 1.0 1.5 0 0 1
C_266298084_266273460_0 RECT_OPEN 1.0 1.5 0 0 1
C_266298084_266300662_0 RECT_OPEN 1.0 1.5 0 0 1
C_266298084_2526081636_0 RECT_OPEN 1.0 1.5 0 0 1
C_266274986_266275089_0 RECT_OPEN 1.0 1.5 0 0 1
C_266274986_306615476_0 RECT_OPEN 1.0 1.5 0 0 1
C_266274986_10094586223_0 RECT_OPEN 1.0 1.5 0 0 1
C_266274986_2407671508_0 RECT_OPEN 1.0 1.5 0 0 1
C_266275089_266274986_0 RECT_OPEN 1.0 1.5 0 0 1
C_266275089_266275088_0 RECT_OPEN 1.0 1.5 0 0 1
C_266275089_306615019_0 RECT_OPEN 1.0 1.5 0 0 1
C_10094586223_10094586224_0 RECT_OPEN 1.0 1.5 0 0 1
C_10094586223_266275021_0 RECT_OPEN 1.0 1.5 0 0 1
C_10094586223_266274986_0 RECT_OPEN 1.0 1.5 0 0 1
C_266275021_306615461_0 RECT_OPEN 1.0 1.5 0 0 1
C_266275021_266275022_0 RECT_OPEN 1.0 1.5 0 0 1
C_266275021_10094586223_0 RECT_OPEN 1.0 1.5 0 0 1
C_306615461_266275021_0 RECT_OPEN 1.0 1.5 0 0 1
C_306615461_306615426_0 RECT_OPEN 1.0 1.5 0 0 1
C_306615461_10094586224_0 RECT_OPEN 1.0 1.5 0 0 1
C_266275022_266275021_0 RECT_OPEN 1.0 1.5 0 0 1
C_266275022_306615202_0 RECT_OPEN 1.0 1.5 0 0 1
C_266275022_266275023_0 RECT_OPEN 1.0 1.5 0 0 1
C_306615202_306615239_0 RECT_OPEN 1.0 1.5 0 0 1
C_306615202_306615426_0 RECT_OPEN 1.0 1.5 0 0 1
C_306615202_266275022_0 RECT_OPEN 1.0 1.5 0 0 1
C_266275023_7432382418_0 RECT_OPEN 1.0 1.5 0 0 1
C_266275023_306623067_0 RECT_OPEN 1.0 1.5 0 0 1
C_266275023_266275022_0 RECT_OPEN 1.0 1.5 0 0 1
C_266275023_306623066_0 RECT_OPEN 1.0 1.5 0 0 1
C_7432382418_266275023_0 RECT_OPEN 1.0 1.5 0 0 1
C_7432382418_263386445_0 RECT_OPEN 1.0 1.5 0 0 1
C_306623067_3298878325_0 RECT_OPEN 1.0 1.5 0 0 1
C_306623067_266275023_0 RECT_OPEN 1.0 1.5 0 0 1
C_306623067_306623070_0 RECT_OPEN 1.0 1.5 0 0 1
C_306623066_306623070_0 RECT_OPEN 1.0 1.5 0 0 1
C_306623066_836238547_0 RECT_OPEN 1.0 1.5 0 0 1
C_306623066_266275023_0 RECT_OPEN 1.0 1.5 0 0 1
C_266275088_266275089_0 RECT_OPEN 1.0 1.5 0 0 1
C_266275088_266275087_0 RECT_OPEN 1.0 1.5 0 0 1
C_266275088_306619953_0 RECT_OPEN 1.0 1.5 0 0 1
C_306619953_306615019_0 RECT_OPEN 1.0 1.5 0 0 1
C_306619953_306620007_0 RECT_OPEN 1.0 1.5 0 0 1
C_306619953_266275088_0 RECT_OPEN 1.0 1.5 0 0 1
C_306619953_306619844_0 RECT_OPEN 1.0 1.5 0 0 1
C_266275456_6462301371_0 RECT_OPEN 1.0 1.5 0 0 1
C_266275456_2388266844_0 RECT_OPEN 1.0 1.5 0 0 1
C_266275456_11007254966_0 RECT_OPEN 1.0 1.5 0 0 1
C_6462301371_266275456_0 RECT_OPEN 1.0 1.5 0 0 1
C_6462301371_2388266836_0 RECT_OPEN 1.0 1.5 0 0 1
C_6462301371_6462301370_0 RECT_OPEN 1.0 1.5 0 0 1
C_2388266844_11903564939_0 RECT_OPEN 1.0 1.5 0 0 1
C_2388266844_266275456_0 RECT_OPEN 1.0 1.5 0 0 1
C_11007254966_6196907479_0 RECT_OPEN 1.0 1.5 0 0 1
C_11007254966_266275456_0 RECT_OPEN 1.0 1.5 0 0 1
C_11007254966_11007254971_0 RECT_OPEN 1.0 1.5 0 0 1
C_266275460_266275461_0 RECT_OPEN 1.0 1.5 0 0 1
C_266275460_6196907479_0 RECT_OPEN 1.0 1.5 0 0 1
C_266275460_11431805314_0 RECT_OPEN 1.0 1.5 0 0 1
C_266275461_10211111398_0 RECT_OPEN 1.0 1.5 0 0 1
C_266275461_4146211288_0 RECT_OPEN 1.0 1.5 0 0 1
C_266275461_266275460_0 RECT_OPEN 1.0 1.5 0 0 1
C_6196907479_4146210944_0 RECT_OPEN 1.0 1.5 0 0 1
C_6196907479_266275460_0 RECT_OPEN 1.0 1.5 0 0 1
C_6196907479_11007254966_0 RECT_OPEN 1.0 1.5 0 0 1
C_11431805314_306621270_0 RECT_OPEN 1.0 1.5 0 0 1
C_11431805314_266275460_0 RECT_OPEN 1.0 1.5 0 0 1
C_11431805314_7432244864_0 RECT_OPEN 1.0 1.5 0 0 1
C_10211111398_4146211286_0 RECT_OPEN 1.0 1.5 0 0 1
C_10211111398_7432244866_0 RECT_OPEN 1.0 1.5 0 0 1
C_10211111398_266275461_0 RECT_OPEN 1.0 1.5 0 0 1
C_4146211288_4146211286_0 RECT_OPEN 1.0 1.5 0 0 1
C_4146211288_4146211283_0 RECT_OPEN 1.0 1.5 0 0 1
C_4146211288_266275461_0 RECT_OPEN 1.0 1.5 0 0 1
C_266275462_5267402570_0 RECT_OPEN 1.0 1.5 0 0 1
C_266275462_4146211268_0 RECT_OPEN 1.0 1.5 0 0 1
C_266275462_4146211272_0 RECT_OPEN 1.0 1.5 0 0 1
C_5267402570_266275462_0 RECT_OPEN 1.0 1.5 0 0 1
C_5267402570_4146211271_0 RECT_OPEN 1.0 1.5 0 0 1
C_5267402570_5267402569_0 RECT_OPEN 1.0 1.5 0 0 1
C_4146211268_4146211270_0 RECT_OPEN 1.0 1.5 0 0 1
C_4146211268_4146211265_0 RECT_OPEN 1.0 1.5 0 0 1
C_4146211268_266275462_0 RECT_OPEN 1.0 1.5 0 0 1
C_4146211272_6504556325_0 RECT_OPEN 1.0 1.5 0 0 1
C_4146211272_266275462_0 RECT_OPEN 1.0 1.5 0 0 1
C_4146211272_4146211279_0 RECT_OPEN 1.0 1.5 0 0 1
C_266276707_266276753_0 RECT_OPEN 1.0 1.5 0 0 1
C_266276707_6567395240_0 RECT_OPEN 1.0 1.5 0 0 1
C_266276707_6143210301_0 RECT_OPEN 1.0 1.5 0 0 1
C_266276753_266276754_0 RECT_OPEN 1.0 1.5 0 0 1
C_266276753_266276707_0 RECT_OPEN 1.0 1.5 0 0 1
C_266276753_306616974_0 RECT_OPEN 1.0 1.5 0 0 1
C_6567395240_6567395228_0 RECT_OPEN 1.0 1.5 0 0 1
C_6567395240_6567395237_0 RECT_OPEN 1.0 1.5 0 0 1
C_6567395240_266276707_0 RECT_OPEN 1.0 1.5 0 0 1
C_6143210301_6567395227_0 RECT_OPEN 1.0 1.5 0 0 1
C_6143210301_266276707_0 RECT_OPEN 1.0 1.5 0 0 1
C_6143210301_11865527609_0 RECT_OPEN 1.0 1.5 0 0 1
C_266276754_266276755_0 RECT_OPEN 1.0 1.5 0 0 1
C_266276754_266276753_0 RECT_OPEN 1.0 1.5 0 0 1
C_266276754_306617098_0 RECT_OPEN 1.0 1.5 0 0 1
C_306616974_306617098_0 RECT_OPEN 1.0 1.5 0 0 1
C_306616974_622363164_0 RECT_OPEN 1.0 1.5 0 0 1
C_306616974_266276753_0 RECT_OPEN 1.0 1.5 0 0 1
C_266276755_266276756_0 RECT_OPEN 1.0 1.5 0 0 1
C_266276755_266276754_0 RECT_OPEN 1.0 1.5 0 0 1
C_266276755_306617018_0 RECT_OPEN 1.0 1.5 0 0 1
C_306617098_306616974_0 RECT_OPEN 1.0 1.5 0 0 1
C_306617098_306617018_0 RECT_OPEN 1.0 1.5 0 0 1
C_306617098_266276754_0 RECT_OPEN 1.0 1.5 0 0 1
C_266276756_266276755_0 RECT_OPEN 1.0 1.5 0 0 1
C_266276756_306616744_0 RECT_OPEN 1.0 1.5 0 0 1
C_266276756_306616740_0 RECT_OPEN 1.0 1.5 0 0 1
C_306617018_306617098_0 RECT_OPEN 1.0 1.5 0 0 1
C_306617018_306616744_0 RECT_OPEN 1.0 1.5 0 0 1
C_306617018_266276755_0 RECT_OPEN 1.0 1.5 0 0 1
C_266298089_266298092_0 RECT_OPEN 1.0 1.5 0 0 1
C_266298089_266298084_0 RECT_OPEN 1.0 1.5 0 0 1
C_266298089_266298091_0 RECT_OPEN 1.0 1.5 0 0 1
C_266300662_266298084_0 RECT_OPEN 1.0 1.5 0 0 1
C_266300662_266300661_0 RECT_OPEN 1.0 1.5 0 0 1
C_266300662_266298091_0 RECT_OPEN 1.0 1.5 0 0 1
C_266298087_266298088_0 RECT_OPEN 1.0 1.5 0 0 1
C_266298087_266298086_0 RECT_OPEN 1.0 1.5 0 0 1
C_266298087_266298095_0 RECT_OPEN 1.0 1.5 0 0 1
C_266298092_266298086_0 RECT_OPEN 1.0 1.5 0 0 1
C_266298092_266298089_0 RECT_OPEN 1.0 1.5 0 0 1
C_266298092_266298093_0 RECT_OPEN 1.0 1.5 0 0 1
C_266300742_266300741_0 RECT_OPEN 1.0 1.5 0 0 1
C_266300742_266298086_0 RECT_OPEN 1.0 1.5 0 0 1
C_266300742_266298095_0 RECT_OPEN 1.0 1.5 0 0 1
C_266300742_266298093_0 RECT_OPEN 1.0 1.5 0 0 1
C_266298091_266298089_0 RECT_OPEN 1.0 1.5 0 0 1
C_266298091_266298093_0 RECT_OPEN 1.0 1.5 0 0 1
C_266298091_266300662_0 RECT_OPEN 1.0 1.5 0 0 1
C_266298093_266298092_0 RECT_OPEN 1.0 1.5 0 0 1
C_266298093_266300742_0 RECT_OPEN 1.0 1.5 0 0 1
C_266298093_266298091_0 RECT_OPEN 1.0 1.5 0 0 1
C_266300657_7432244853_0 RECT_OPEN 1.0 1.5 0 0 1
C_266300657_6141732622_0 RECT_OPEN 1.0 1.5 0 0 1
C_266300657_3304204552_0 RECT_OPEN 1.0 1.5 0 0 1
C_6141732622_7432244855_0 RECT_OPEN 1.0 1.5 0 0 1
C_6141732622_1473885223_0 RECT_OPEN 1.0 1.5 0 0 1
C_6141732622_266300657_0 RECT_OPEN 1.0 1.5 0 0 1
C_3304204552_2387017402_0 RECT_OPEN 1.0 1.5 0 0 1
C_3304204552_266300657_0 RECT_OPEN 1.0 1.5 0 0 1
C_3304204552_6560240052_0 RECT_OPEN 1.0 1.5 0 0 1
C_3304204552_2526081636_0 RECT_OPEN 1.0 1.5 0 0 1
C_266300661_266300662_0 RECT_OPEN 1.0 1.5 0 0 1
C_266300661_266300741_0 RECT_OPEN 1.0 1.5 0 0 1
C_266300661_2526081636_0 RECT_OPEN 1.0 1.5 0 0 1
C_266300741_11663109183_0 RECT_OPEN 1.0 1.5 0 0 1
C_266300741_266300742_0 RECT_OPEN 1.0 1.5 0 0 1
C_266300741_266300661_0 RECT_OPEN 1.0 1.5 0 0 1
C_266300741_1417443641_0 RECT_OPEN 1.0 1.5 0 0 1
C_11663109183_266300741_0 RECT_OPEN 1.0 1.5 0 0 1
C_266302974_2414639341_0 RECT_OPEN 1.0 1.5 0 0 1
C_266302974_266302978_0 RECT_OPEN 1.0 1.5 0 0 1
C_266302974_5961754417_0 RECT_OPEN 1.0 1.5 0 0 1
C_2414639341_266302974_0 RECT_OPEN 1.0 1.5 0 0 1
C_2414639341_306614479_0 RECT_OPEN 1.0 1.5 0 0 1
C_2414639341_2414639342_0 RECT_OPEN 1.0 1.5 0 0 1
C_266302978_306614881_0 RECT_OPEN 1.0 1.5 0 0 1
C_266302978_306614901_0 RECT_OPEN 1.0 1.5 0 0 1
C_266302978_266302974_0 RECT_OPEN 1.0 1.5 0 0 1
C_266302978_7432283512_0 RECT_OPEN 1.0 1.5 0 0 1
C_5961754417_12181798460_0 RECT_OPEN 1.0 1.5 0 0 1
C_5961754417_2414626606_0 RECT_OPEN 1.0 1.5 0 0 1
C_306614881_266303623_0 RECT_OPEN 1.0 1.5 0 0 1
C_306614881_266302978_0 RECT_OPEN 1.0 1.5 0 0 1
C_306614881_306614901_0 RECT_OPEN 1.0 1.5 0 0 1
C_306614901_306614832_0 RECT_OPEN 1.0 1.5 0 0 1
C_306614901_306614881_0 RECT_OPEN 1.0 1.5 0 0 1
C_306614901_266302978_0 RECT_OPEN 1.0 1.5 0 0 1
C_7432283512_266302978_0 RECT_OPEN 1.0 1.5 0 0 1
C_266303004_266303953_0 RECT_OPEN 1.0 1.5 0 0 1
C_266303004_266303064_0 RECT_OPEN 1.0 1.5 0 0 1
C_266303004_2414639342_0 RECT_OPEN 1.0 1.5 0 0 1
C_266303953_266303954_0 RECT_OPEN 1.0 1.5 0 0 1
C_266303953_266303004_0 RECT_OPEN 1.0 1.5 0 0 1
C_266303953_266304629_0 RECT_OPEN 1.0 1.5 0 0 1
C_266303064_266304629_0 RECT_OPEN 1.0 1.5 0 0 1
C_266303064_266303004_0 RECT_OPEN 1.0 1.5 0 0 1
C_266303064_2385138309_0 RECT_OPEN 1.0 1.5 0 0 1
C_266303064_2414635984_0 RECT_OPEN 1.0 1.5 0 0 1
C_2414639342_266303004_0 RECT_OPEN 1.0 1.5 0 0 1
C_2414639342_2414639343_0 RECT_OPEN 1.0 1.5 0 0 1
C_2414639342_2414639341_0 RECT_OPEN 1.0 1.5 0 0 1
C_266304629_308452451_0 RECT_OPEN 1.0 1.5 0 0 1
C_266304629_266304630_0 RECT_OPEN 1.0 1.5 0 0 1
C_266304629_266303064_0 RECT_OPEN 1.0 1.5 0 0 1
C_266304629_266303953_0 RECT_OPEN 1.0 1.5 0 0 1
C_2385138309_266303064_0 RECT_OPEN 1.0 1.5 0 0 1
C_2414635984_306620763_0 RECT_OPEN 1.0 1.5 0 0 1
C_2414635984_266303064_0 RECT_OPEN 1.0 1.5 0 0 1
C_2414635984_3298857094_0 RECT_OPEN 1.0 1.5 0 0 1
C_2414635984_2414639343_0 RECT_OPEN 1.0 1.5 0 0 1
C_266303623_306614881_0 RECT_OPEN 1.0 1.5 0 0 1
C_266303623_306614842_0 RECT_OPEN 1.0 1.5 0 0 1
C_266303623_266303624_0 RECT_OPEN 1.0 1.5 0 0 1
C_306614842_306614832_0 RECT_OPEN 1.0 1.5 0 0 1
C_306614842_306614850_0 RECT_OPEN 1.0 1.5 0 0 1
C_306614842_266303623_0 RECT_OPEN 1.0 1.5 0 0 1
C_266303624_266303625_0 RECT_OPEN 1.0 1.5 0 0 1
C_266303624_306614967_0 RECT_OPEN 1.0 1.5 0 0 1
C_266303624_266303623_0 RECT_OPEN 1.0 1.5 0 0 1
C_266303624_306614850_0 RECT_OPEN 1.0 1.5 0 0 1
C_266303625_266303626_0 RECT_OPEN 1.0 1.5 0 0 1
C_266303625_266303624_0 RECT_OPEN 1.0 1.5 0 0 1
C_266303625_306614734_0 RECT_OPEN 1.0 1.5 0 0 1
C_266303625_306617634_0 RECT_OPEN 1.0 1.5 0 0 1
C_306614967_306614924_0 RECT_OPEN 1.0 1.5 0 0 1
C_306614967_266303624_0 RECT_OPEN 1.0 1.5 0 0 1
C_306614967_11476594000_0 RECT_OPEN 1.0 1.5 0 0 1
C_306614850_306614842_0 RECT_OPEN 1.0 1.5 0 0 1
C_306614850_306614738_0 RECT_OPEN 1.0 1.5 0 0 1
C_306614850_266303624_0 RECT_OPEN 1.0 1.5 0 0 1
C_266303626_266303627_0 RECT_OPEN 1.0 1.5 0 0 1
C_266303626_266303625_0 RECT_OPEN 1.0 1.5 0 0 1
C_266303626_306617742_0 RECT_OPEN 1.0 1.5 0 0 1
C_266303626_306617687_0 RECT_OPEN 1.0 1.5 0 0 1
C_306614734_306617731_0 RECT_OPEN 1.0 1.5 0 0 1
C_306614734_306614738_0 RECT_OPEN 1.0 1.5 0 0 1
C_306614734_266303625_0 RECT_OPEN 1.0 1.5 0 0 1
C_306617634_306614481_0 RECT_OPEN 1.0 1.5 0 0 1
C_306617634_306617687_0 RECT_OPEN 1.0 1.5 0 0 1
C_306617634_266303625_0 RECT_OPEN 1.0 1.5 0 0 1
C_266303627_266303628_0 RECT_OPEN 1.0 1.5 0 0 1
C_266303627_266303626_0 RECT_OPEN 1.0 1.5 0 0 1
C_266303627_11007453622_0 RECT_OPEN 1.0 1.5 0 0 1
C_306617742_306617735_0 RECT_OPEN 1.0 1.5 0 0 1
C_306617742_306617758_0 RECT_OPEN 1.0 1.5 0 0 1
C_306617742_266303626_0 RECT_OPEN 1.0 1.5 0 0 1
C_306617687_306617634_0 RECT_OPEN 1.0 1.5 0 0 1
C_306617687_11007453622_0 RECT_OPEN 1.0 1.5 0 0 1
C_306617687_266303626_0 RECT_OPEN 1.0 1.5 0 0 1
C_266303628_266303629_0 RECT_OPEN 1.0 1.5 0 0 1
C_266303628_266303627_0 RECT_OPEN 1.0 1.5 0 0 1
C_266303628_306617758_0 RECT_OPEN 1.0 1.5 0 0 1
C_266303628_306617751_0 RECT_OPEN 1.0 1.5 0 0 1
C_11007453622_306617687_0 RECT_OPEN 1.0 1.5 0 0 1
C_11007453622_306617751_0 RECT_OPEN 1.0 1.5 0 0 1
C_11007453622_266303627_0 RECT_OPEN 1.0 1.5 0 0 1
C_266303629_9189927178_0 RECT_OPEN 1.0 1.5 0 0 1
C_266303629_266303628_0 RECT_OPEN 1.0 1.5 0 0 1
C_266303629_6178041423_0 RECT_OPEN 1.0 1.5 0 0 1
C_266303629_306617686_0 RECT_OPEN 1.0 1.5 0 0 1
C_306617758_306617745_0 RECT_OPEN 1.0 1.5 0 0 1
C_306617758_306617742_0 RECT_OPEN 1.0 1.5 0 0 1
C_306617758_266303628_0 RECT_OPEN 1.0 1.5 0 0 1
C_306617751_11007453622_0 RECT_OPEN 1.0 1.5 0 0 1
C_306617751_306617686_0 RECT_OPEN 1.0 1.5 0 0 1
C_306617751_266303628_0 RECT_OPEN 1.0 1.5 0 0 1
C_9189927178_1473890785_0 RECT_OPEN 1.0 1.5 0 0 1
C_9189927178_266303629_0 RECT_OPEN 1.0 1.5 0 0 1
C_9189927178_9189927179_0 RECT_OPEN 1.0 1.5 0 0 1
C_6178041423_306617745_0 RECT_OPEN 1.0 1.5 0 0 1
C_6178041423_6178041422_0 RECT_OPEN 1.0 1.5 0 0 1
C_6178041423_266303629_0 RECT_OPEN 1.0 1.5 0 0 1
C_306617686_306617751_0 RECT_OPEN 1.0 1.5 0 0 1
C_306617686_9189927179_0 RECT_OPEN 1.0 1.5 0 0 1
C_306617686_266303629_0 RECT_OPEN 1.0 1.5 0 0 1
C_306617686_306614481_0 RECT_OPEN 1.0 1.5 0 0 1
C_266303954_266303955_0 RECT_OPEN 1.0 1.5 0 0 1
C_266303954_266303953_0 RECT_OPEN 1.0 1.5 0 0 1
C_266303954_266304630_0 RECT_OPEN 1.0 1.5 0 0 1
C_266303955_266303956_0 RECT_OPEN 1.0 1.5 0 0 1
C_266303955_266303954_0 RECT_OPEN 1.0 1.5 0 0 1
C_266303955_266304631_0 RECT_OPEN 1.0 1.5 0 0 1
C_266304630_308452454_0 RECT_OPEN 1.0 1.5 0 0 1
C_266304630_5292923940_0 RECT_OPEN 1.0 1.5 0 0 1
C_266304630_266304629_0 RECT_OPEN 1.0 1.5 0 0 1
C_266304630_266303954_0 RECT_OPEN 1.0 1.5 0 0 1
C_266303956_266304632_0 RECT_OPEN 1.0 1.5 0 0 1
C_266303956_266303955_0 RECT_OPEN 1.0 1.5 0 0 1
C_266303956_6132249479_0 RECT_OPEN 1.0 1.5 0 0 1
C_266304631_5292923940_0 RECT_OPEN 1.0 1.5 0 0 1
C_266304631_266304632_0 RECT_OPEN 1.0 1.5 0 0 1
C_266304631_266303955_0 RECT_OPEN 1.0 1.5 0 0 1
C_266304631_2407759902_0 RECT_OPEN 1.0 1.5 0 0 1
C_266304632_266303956_0 RECT_OPEN 1.0 1.5 0 0 1
C_266304632_266304631_0 RECT_OPEN 1.0 1.5 0 0 1
C_266304632_2400167301_0 RECT_OPEN 1.0 1.5 0 0 1
C_6132249479_11476594021_0 RECT_OPEN 1.0 1.5 0 0 1
C_6132249479_266303956_0 RECT_OPEN 1.0 1.5 0 0 1
C_6132249479_306614481_0 RECT_OPEN 1.0 1.5 0 0 1
C_266304402_306620508_0 RECT_OPEN 1.0 1.5 0 0 1
C_266304402_266304400_0 RECT_OPEN 1.0 1.5 0 0 1
C_266304402_266318288_0 RECT_OPEN 1.0 1.5 0 0 1
C_266313958_266313980_0 RECT_OPEN 1.0 1.5 0 0 1
C_266313958_266313984_0 RECT_OPEN 1.0 1.5 0 0 1
C_266313958_266304400_0 RECT_OPEN 1.0 1.5 0 0 1
C_266313958_5292300571_0 RECT_OPEN 1.0 1.5 0 0 1
C_306620508_306620373_0 RECT_OPEN 1.0 1.5 0 0 1
C_306620508_266304402_0 RECT_OPEN 1.0 1.5 0 0 1
C_306620508_266318287_0 RECT_OPEN 1.0 1.5 0 0 1
C_266318288_266318287_0 RECT_OPEN 1.0 1.5 0 0 1
C_266318288_9696939532_0 RECT_OPEN 1.0 1.5 0 0 1
C_266318288_266304402_0 RECT_OPEN 1.0 1.5 0 0 1
C_308452451_266304629_0 RECT_OPEN 1.0 1.5 0 0 1
C_308452454_266304630_0 RECT_OPEN 1.0 1.5 0 0 1
C_5292923940_266304631_0 RECT_OPEN 1.0 1.5 0 0 1
C_5292923940_266304630_0 RECT_OPEN 1.0 1.5 0 0 1
C_5292923940_5292923939_0 RECT_OPEN 1.0 1.5 0 0 1
C_2407759902_266304631_0 RECT_OPEN 1.0 1.5 0 0 1
C_2400167301_650141087_0 RECT_OPEN 1.0 1.5 0 0 1
C_2400167301_12067305544_0 RECT_OPEN 1.0 1.5 0 0 1
C_2400167301_266304632_0 RECT_OPEN 1.0 1.5 0 0 1
C_3298857091_266310433_0 RECT_OPEN 1.0 1.5 0 0 1
C_3298857091_266310426_0 RECT_OPEN 1.0 1.5 0 0 1
C_3298857091_3298857093_0 RECT_OPEN 1.0 1.5 0 0 1
C_306621180_266310426_0 RECT_OPEN 1.0 1.5 0 0 1
C_306621180_306621179_0 RECT_OPEN 1.0 1.5 0 0 1
C_306621180_6196261543_0 RECT_OPEN 1.0 1.5 0 0 1
C_306621180_7432244870_0 RECT_OPEN 1.0 1.5 0 0 1
C_266310433_7432244872_0 RECT_OPEN 1.0 1.5 0 0 1
C_266310433_266310437_0 RECT_OPEN 1.0 1.5 0 0 1
C_266310433_3298857091_0 RECT_OPEN 1.0 1.5 0 0 1
C_7432244872_266310445_0 RECT_OPEN 1.0 1.5 0 0 1
C_7432244872_266310433_0 RECT_OPEN 1.0 1.5 0 0 1
C_7432244872_7432244873_0 RECT_OPEN 1.0 1.5 0 0 1
C_266310437_266310471_0 RECT_OPEN 1.0 1.5 0 0 1
C_266310437_266310441_0 RECT_OPEN 1.0 1.5 0 0 1
C_266310437_266310433_0 RECT_OPEN 1.0 1.5 0 0 1
C_266310471_266318343_0 RECT_OPEN 1.0 1.5 0 0 1
C_266310471_266310437_0 RECT_OPEN 1.0 1.5 0 0 1
C_266310471_306620825_0 RECT_OPEN 1.0 1.5 0 0 1
C_266310441_306620828_0 RECT_OPEN 1.0 1.5 0 0 1
C_266310441_306620318_0 RECT_OPEN 1.0 1.5 0 0 1
C_266310441_306620866_0 RECT_OPEN 1.0 1.5 0 0 1
C_266310441_266310437_0 RECT_OPEN 1.0 1.5 0 0 1
C_306620828_306620825_0 RECT_OPEN 1.0 1.5 0 0 1
C_306620828_266310441_0 RECT_OPEN 1.0 1.5 0 0 1
C_306620828_306620833_0 RECT_OPEN 1.0 1.5 0 0 1
C_306620318_266310441_0 RECT_OPEN 1.0 1.5 0 0 1
C_306620318_306620373_0 RECT_OPEN 1.0 1.5 0 0 1
C_306620318_266310445_0 RECT_OPEN 1.0 1.5 0 0 1
C_306620866_306620788_0 RECT_OPEN 1.0 1.5 0 0 1
C_306620866_266310441_0 RECT_OPEN 1.0 1.5 0 0 1
C_306620866_306620870_0 RECT_OPEN 1.0 1.5 0 0 1
C_266310445_266318286_0 RECT_OPEN 1.0 1.5 0 0 1
C_266310445_7432244872_0 RECT_OPEN 1.0 1.5 0 0 1
C_266310445_306620318_0 RECT_OPEN 1.0 1.5 0 0 1
C_266318286_266318287_0 RECT_OPEN 1.0 1.5 0 0 1
C_266318286_266310445_0 RECT_OPEN 1.0 1.5 0 0 1
C_266318286_306620373_0 RECT_OPEN 1.0 1.5 0 0 1
C_266318343_266318344_0 RECT_OPEN 1.0 1.5 0 0 1
C_266318343_266310471_0 RECT_OPEN 1.0 1.5 0 0 1
C_266318343_306620803_0 RECT_OPEN 1.0 1.5 0 0 1
C_306620825_306620803_0 RECT_OPEN 1.0 1.5 0 0 1
C_306620825_306620828_0 RECT_OPEN 1.0 1.5 0 0 1
C_306620825_306620826_0 RECT_OPEN 1.0 1.5 0 0 1
C_306620825_266310471_0 RECT_OPEN 1.0 1.5 0 0 1
C_266313980_266318559_0 RECT_OPEN 1.0 1.5 0 0 1
C_266313980_266313958_0 RECT_OPEN 1.0 1.5 0 0 1
C_266313980_10094504111_0 RECT_OPEN 1.0 1.5 0 0 1
C_266313984_266313958_0 RECT_OPEN 1.0 1.5 0 0 1
C_266313984_266318628_0 RECT_OPEN 1.0 1.5 0 0 1
C_266313984_306616045_0 RECT_OPEN 1.0 1.5 0 0 1
C_5292300571_266313990_0 RECT_OPEN 1.0 1.5 0 0 1
C_5292300571_266313958_0 RECT_OPEN 1.0 1.5 0 0 1
C_5292300571_11245714088_0 RECT_OPEN 1.0 1.5 0 0 1
C_266313967_306616045_0 RECT_OPEN 1.0 1.5 0 0 1
C_266313967_11245714088_0 RECT_OPEN 1.0 1.5 0 0 1
C_266313967_266313975_0 RECT_OPEN 1.0 1.5 0 0 1
C_306616045_266313984_0 RECT_OPEN 1.0 1.5 0 0 1
C_306616045_266313967_0 RECT_OPEN 1.0 1.5 0 0 1
C_306616045_306616092_0 RECT_OPEN 1.0 1.5 0 0 1
C_11245714088_266314020_0 RECT_OPEN 1.0 1.5 0 0 1
C_11245714088_5292300571_0 RECT_OPEN 1.0 1.5 0 0 1
C_11245714088_266313967_0 RECT_OPEN 1.0 1.5 0 0 1
C_266313975_306622080_0 RECT_OPEN 1.0 1.5 0 0 1
C_266313975_306616029_0 RECT_OPEN 1.0 1.5 0 0 1
C_266313975_266313967_0 RECT_OPEN 1.0 1.5 0 0 1
C_306622080_266313975_0 RECT_OPEN 1.0 1.5 0 0 1
C_306622080_306622157_0 RECT_OPEN 1.0 1.5 0 0 1
C_306622080_266318996_0 RECT_OPEN 1.0 1.5 0 0 1
C_306616029_7432382410_0 RECT_OPEN 1.0 1.5 0 0 1
C_306616029_306622158_0 RECT_OPEN 1.0 1.5 0 0 1
C_306616029_306616044_0 RECT_OPEN 1.0 1.5 0 0 1
C_306616029_266313975_0 RECT_OPEN 1.0 1.5 0 0 1
C_10094504111_266313980_0 RECT_OPEN 1.0 1.5 0 0 1
C_10094504111_266313990_0 RECT_OPEN 1.0 1.5 0 0 1
C_10094504111_266314026_0 RECT_OPEN 1.0 1.5 0 0 1
C_266318628_266313984_0 RECT_OPEN 1.0 1.5 0 0 1
C_266318628_266318627_0 RECT_OPEN 1.0 1.5 0 0 1
C_266318628_306616092_0 RECT_OPEN 1.0 1.5 0 0 1
C_266313990_5292300571_0 RECT_OPEN 1.0 1.5 0 0 1
C_266313990_266314020_0 RECT_OPEN 1.0 1.5 0 0 1
C_266313990_10094504111_0 RECT_OPEN 1.0 1.5 0 0 1
C_266314020_266314026_0 RECT_OPEN 1.0 1.5 0 0 1
C_266314020_11245714088_0 RECT_OPEN 1.0 1.5 0 0 1
C_266314020_266313990_0 RECT_OPEN 1.0 1.5 0 0 1
C_266314026_266314031_0 RECT_OPEN 1.0 1.5 0 0 1
C_266314026_266314020_0 RECT_OPEN 1.0 1.5 0 0 1
C_266314026_10094504111_0 RECT_OPEN 1.0 1.5 0 0 1
C_266314031_266314035_0 RECT_OPEN 1.0 1.5 0 0 1
C_266314031_266314026_0 RECT_OPEN 1.0 1.5 0 0 1
C_266314031_266318559_0 RECT_OPEN 1.0 1.5 0 0 1
C_266318996_10094504110_0 RECT_OPEN 1.0 1.5 0 0 1
C_266318996_266314035_0 RECT_OPEN 1.0 1.5 0 0 1
C_266318996_306622080_0 RECT_OPEN 1.0 1.5 0 0 1
C_266316218_306622275_0 RECT_OPEN 1.0 1.5 0 0 1
C_266316218_306622887_0 RECT_OPEN 1.0 1.5 0 0 1
C_266316218_306622206_0 RECT_OPEN 1.0 1.5 0 0 1
C_266316218_2406084993_0 RECT_OPEN 1.0 1.5 0 0 1
C_306622275_306622244_0 RECT_OPEN 1.0 1.5 0 0 1
C_306622275_306622059_0 RECT_OPEN 1.0 1.5 0 0 1
C_306622275_266316218_0 RECT_OPEN 1.0 1.5 0 0 1
C_306622887_306622935_0 RECT_OPEN 1.0 1.5 0 0 1
C_306622887_306622157_0 RECT_OPEN 1.0 1.5 0 0 1
C_306622887_266316218_0 RECT_OPEN 1.0 1.5 0 0 1
C_306622206_306622244_0 RECT_OPEN 1.0 1.5 0 0 1
C_306622206_266316218_0 RECT_OPEN 1.0 1.5 0 0 1
C_306622206_306622782_0 RECT_OPEN 1.0 1.5 0 0 1
C_2406084993_10094504110_0 RECT_OPEN 1.0 1.5 0 0 1
C_2406084993_306621921_0 RECT_OPEN 1.0 1.5 0 0 1
C_2406084993_266316218_0 RECT_OPEN 1.0 1.5 0 0 1
C_2406084993_10094504108_0 RECT_OPEN 1.0 1.5 0 0 1
C_266318287_266318288_0 RECT_OPEN 1.0 1.5 0 0 1
C_266318287_266318286_0 RECT_OPEN 1.0 1.5 0 0 1
C_266318287_306620508_0 RECT_OPEN 1.0 1.5 0 0 1
C_306620373_306620318_0 RECT_OPEN 1.0 1.5 0 0 1
C_306620373_306620508_0 RECT_OPEN 1.0 1.5 0 0 1
C_306620373_266318286_0 RECT_OPEN 1.0 1.5 0 0 1
C_9696939532_266318288_0 RECT_OPEN 1.0 1.5 0 0 1
C_266318344_266318345_0 RECT_OPEN 1.0 1.5 0 0 1
C_266318344_266318343_0 RECT_OPEN 1.0 1.5 0 0 1
C_266318344_306620799_0 RECT_OPEN 1.0 1.5 0 0 1
C_306620803_306620799_0 RECT_OPEN 1.0 1.5 0 0 1
C_306620803_306620825_0 RECT_OPEN 1.0 1.5 0 0 1
C_306620803_306620804_0 RECT_OPEN 1.0 1.5 0 0 1
C_306620803_266318343_0 RECT_OPEN 1.0 1.5 0 0 1
C_266318345_266318344_0 RECT_OPEN 1.0 1.5 0 0 1
C_266318345_306620763_0 RECT_OPEN 1.0 1.5 0 0 1
C_266318345_3298857093_0 RECT_OPEN 1.0 1.5 0 0 1
C_306620799_306620763_0 RECT_OPEN 1.0 1.5 0 0 1
C_306620799_306620803_0 RECT_OPEN 1.0 1.5 0 0 1
C_306620799_306620800_0 RECT_OPEN 1.0 1.5 0 0 1
C_306620799_266318344_0 RECT_OPEN 1.0 1.5 0 0 1
C_306620763_306620799_0 RECT_OPEN 1.0 1.5 0 0 1
C_306620763_306620795_0 RECT_OPEN 1.0 1.5 0 0 1
C_306620763_266318345_0 RECT_OPEN 1.0 1.5 0 0 1
C_306620763_2414635984_0 RECT_OPEN 1.0 1.5 0 0 1
C_3298857093_266318345_0 RECT_OPEN 1.0 1.5 0 0 1
C_3298857093_3298857091_0 RECT_OPEN 1.0 1.5 0 0 1
C_3298857093_3298857094_0 RECT_OPEN 1.0 1.5 0 0 1
C_266318627_266318628_0 RECT_OPEN 1.0 1.5 0 0 1
C_266318627_266318626_0 RECT_OPEN 1.0 1.5 0 0 1
C_266318627_306616044_0 RECT_OPEN 1.0 1.5 0 0 1
C_306616044_306616092_0 RECT_OPEN 1.0 1.5 0 0 1
C_306616044_266318627_0 RECT_OPEN 1.0 1.5 0 0 1
C_306616044_306616029_0 RECT_OPEN 1.0 1.5 0 0 1
C_306616092_266318628_0 RECT_OPEN 1.0 1.5 0 0 1
C_306616092_306616045_0 RECT_OPEN 1.0 1.5 0 0 1
C_306616092_306616044_0 RECT_OPEN 1.0 1.5 0 0 1
C_10094504107_266318994_0 RECT_OPEN 1.0 1.5 0 0 1
C_10094504110_266318996_0 RECT_OPEN 1.0 1.5 0 0 1
C_10094504110_2406084993_0 RECT_OPEN 1.0 1.5 0 0 1
C_10094504110_10094504108_0 RECT_OPEN 1.0 1.5 0 0 1
C_306608060_6131903446_0 RECT_OPEN 1.0 1.5 0 0 1
C_306608060_1417443517_0 RECT_OPEN 1.0 1.5 0 0 1
C_6131903446_306608060_0 RECT_OPEN 1.0 1.5 0 0 1
C_6131903446_6132603450_0 RECT_OPEN 1.0 1.5 0 0 1
C_1417443517_3504342593_0 RECT_OPEN 1.0 1.5 0 0 1
C_1417443517_5267835373_0 RECT_OPEN 1.0 1.5 0 0 1
C_1417443517_306608060_0 RECT_OPEN 1.0 1.5 0 0 1
C_306608698_2407745349_0 RECT_OPEN 1.0 1.5 0 0 1
C_306608698_306608898_0 RECT_OPEN 1.0 1.5 0 0 1
C_306608698_306609464_0 RECT_OPEN 1.0 1.5 0 0 1
C_2407745349_306608698_0 RECT_OPEN 1.0 1.5 0 0 1
C_2407745349_3287849051_0 RECT_OPEN 1.0 1.5 0 0 1
C_2407745349_3287849054_0 RECT_OPEN 1.0 1.5 0 0 1
C_306608898_306609693_0 RECT_OPEN 1.0 1.5 0 0 1
C_306608898_306609212_0 RECT_OPEN 1.0 1.5 0 0 1
C_306608898_306608698_0 RECT_OPEN 1.0 1.5 0 0 1
C_306608699_306613002_0 RECT_OPEN 1.0 1.5 0 0 1
C_306608699_3287849054_0 RECT_OPEN 1.0 1.5 0 0 1
C_306608699_306608700_0 RECT_OPEN 1.0 1.5 0 0 1
C_306608699_306609212_0 RECT_OPEN 1.0 1.5 0 0 1
C_306613002_306609958_0 RECT_OPEN 1.0 1.5 0 0 1
C_306613002_306608699_0 RECT_OPEN 1.0 1.5 0 0 1
C_306613002_306612973_0 RECT_OPEN 1.0 1.5 0 0 1
C_3287849054_306608699_0 RECT_OPEN 1.0 1.5 0 0 1
C_3287849054_2407745349_0 RECT_OPEN 1.0 1.5 0 0 1
C_3287849054_306609759_0 RECT_OPEN 1.0 1.5 0 0 1
C_3287849054_2389125034_0 RECT_OPEN 1.0 1.5 0 0 1
C_306608700_306612973_0 RECT_OPEN 1.0 1.5 0 0 1
C_306608700_595766458_0 RECT_OPEN 1.0 1.5 0 0 1
C_306608700_306608699_0 RECT_OPEN 1.0 1.5 0 0 1
C_306609212_306609695_0 RECT_OPEN 1.0 1.5 0 0 1
C_306609212_306608898_0 RECT_OPEN 1.0 1.5 0 0 1
C_306609212_306608699_0 RECT_OPEN 1.0 1.5 0 0 1
C_306612973_306612958_0 RECT_OPEN 1.0 1.5 0 0 1
C_306612973_306608700_0 RECT_OPEN 1.0 1.5 0 0 1
C_306612973_306613002_0 RECT_OPEN 1.0 1.5 0 0 1
C_595766458_306610154_0 RECT_OPEN 1.0 1.5 0 0 1
C_595766458_306609759_0 RECT_OPEN 1.0 1.5 0 0 1
C_595766458_306608700_0 RECT_OPEN 1.0 1.5 0 0 1
C_306609696_306610173_0 RECT_OPEN 1.0 1.5 0 0 1
C_306609696_306609958_0 RECT_OPEN 1.0 1.5 0 0 1
C_306609696_306609695_0 RECT_OPEN 1.0 1.5 0 0 1
C_306610173_306609696_0 RECT_OPEN 1.0 1.5 0 0 1
C_306610173_306610572_0 RECT_OPEN 1.0 1.5 0 0 1
C_306610173_306610573_0 RECT_OPEN 1.0 1.5 0 0 1
C_306609958_306609696_0 RECT_OPEN 1.0 1.5 0 0 1
C_306609958_306613002_0 RECT_OPEN 1.0 1.5 0 0 1
C_306609958_306612958_0 RECT_OPEN 1.0 1.5 0 0 1
C_306609759_595766458_0 RECT_OPEN 1.0 1.5 0 0 1
C_306609759_306612919_0 RECT_OPEN 1.0 1.5 0 0 1
C_306609759_3287849054_0 RECT_OPEN 1.0 1.5 0 0 1
C_306612919_306612930_0 RECT_OPEN 1.0 1.5 0 0 1
C_306612919_306609759_0 RECT_OPEN 1.0 1.5 0 0 1
C_306612919_306612914_0 RECT_OPEN 1.0 1.5 0 0 1
C_306609760_306610572_0 RECT_OPEN 1.0 1.5 0 0 1
C_306609760_306612931_0 RECT_OPEN 1.0 1.5 0 0 1
C_306609760_306619696_0 RECT_OPEN 1.0 1.5 0 0 1
C_306610572_306609760_0 RECT_OPEN 1.0 1.5 0 0 1
C_306610572_306610154_0 RECT_OPEN 1.0 1.5 0 0 1
C_306610572_306610173_0 RECT_OPEN 1.0 1.5 0 0 1
C_306612931_306609760_0 RECT_OPEN 1.0 1.5 0 0 1
C_306612931_306612930_0 RECT_OPEN 1.0 1.5 0 0 1
C_306612931_595766589_0 RECT_OPEN 1.0 1.5 0 0 1
C_306619696_306609760_0 RECT_OPEN 1.0 1.5 0 0 1
C_306619696_306619706_0 RECT_OPEN 1.0 1.5 0 0 1
C_306619696_306610573_0 RECT_OPEN 1.0 1.5 0 0 1
C_306612958_306610154_0 RECT_OPEN 1.0 1.5 0 0 1
C_306612958_306612973_0 RECT_OPEN 1.0 1.5 0 0 1
C_306612958_306609958_0 RECT_OPEN 1.0 1.5 0 0 1
C_306610154_306610572_0 RECT_OPEN 1.0 1.5 0 0 1
C_306610154_595766458_0 RECT_OPEN 1.0 1.5 0 0 1
C_306610154_306612930_0 RECT_OPEN 1.0 1.5 0 0 1
C_306610154_306612958_0 RECT_OPEN 1.0 1.5 0 0 1
C_306612930_306610154_0 RECT_OPEN 1.0 1.5 0 0 1
C_306612930_306612931_0 RECT_OPEN 1.0 1.5 0 0 1
C_306612930_306612919_0 RECT_OPEN 1.0 1.5 0 0 1
C_306612930_306610155_0 RECT_OPEN 1.0 1.5 0 0 1
C_306610155_306612930_0 RECT_OPEN 1.0 1.5 0 0 1
C_306610155_306611495_0 RECT_OPEN 1.0 1.5 0 0 1
C_306611495_12249984864_0 RECT_OPEN 1.0 1.5 0 0 1
C_306611495_595766589_0 RECT_OPEN 1.0 1.5 0 0 1
C_306610573_306610651_0 RECT_OPEN 1.0 1.5 0 0 1
C_306610573_306619696_0 RECT_OPEN 1.0 1.5 0 0 1
C_306610573_306610173_0 RECT_OPEN 1.0 1.5 0 0 1
C_306610698_306619706_0 RECT_OPEN 1.0 1.5 0 0 1
C_306610698_11259448960_0 RECT_OPEN 1.0 1.5 0 0 1
C_11259448960_11259448963_0 RECT_OPEN 1.0 1.5 0 0 1
C_11259448960_11259448972_0 RECT_OPEN 1.0 1.5 0 0 1
C_306611194_306611189_0 RECT_OPEN 1.0 1.5 0 0 1
C_306611195_2619300330_0 RECT_OPEN 1.0 1.5 0 0 1
C_306611195_306611194_0 RECT_OPEN 1.0 1.5 0 0 1
C_306611195_306611382_0 RECT_OPEN 1.0 1.5 0 0 1
C_2619300330_306611195_0 RECT_OPEN 1.0 1.5 0 0 1
C_306611382_306611892_0 RECT_OPEN 1.0 1.5 0 0 1
C_306611382_306619117_0 RECT_OPEN 1.0 1.5 0 0 1
C_306611382_306611195_0 RECT_OPEN 1.0 1.5 0 0 1
C_306611892_306619140_0 RECT_OPEN 1.0 1.5 0 0 1
C_306611892_306611891_0 RECT_OPEN 1.0 1.5 0 0 1
C_306611892_306611382_0 RECT_OPEN 1.0 1.5 0 0 1
C_306619117_306619149_0 RECT_OPEN 1.0 1.5 0 0 1
C_306619117_306611382_0 RECT_OPEN 1.0 1.5 0 0 1
C_306619117_6885082500_0 RECT_OPEN 1.0 1.5 0 0 1
C_306611415_1417443741_0 RECT_OPEN 1.0 1.5 0 0 1
C_306611415_306611644_0 RECT_OPEN 1.0 1.5 0 0 1
C_1417443741_1417443740_0 RECT_OPEN 1.0 1.5 0 0 1
C_1417443741_10081671363_0 RECT_OPEN 1.0 1.5 0 0 1
C_306611644_306611552_0 RECT_OPEN 1.0 1.5 0 0 1
C_306611644_306612056_0 RECT_OPEN 1.0 1.5 0 0 1
C_12249984864_306611495_0 RECT_OPEN 1.0 1.5 0 0 1
C_12249984864_306619430_0 RECT_OPEN 1.0 1.5 0 0 1
C_12249984864_6885082496_0 RECT_OPEN 1.0 1.5 0 0 1
C_595766589_306612931_0 RECT_OPEN 1.0 1.5 0 0 1
C_595766589_306610698_0 RECT_OPEN 1.0 1.5 0 0 1
C_306611516_306611889_0 RECT_OPEN 1.0 1.5 0 0 1
C_306611516_10081671362_0 RECT_OPEN 1.0 1.5 0 0 1
C_306611889_306611516_0 RECT_OPEN 1.0 1.5 0 0 1
C_306611889_306611919_0 RECT_OPEN 1.0 1.5 0 0 1
C_306611889_306611189_0 RECT_OPEN 1.0 1.5 0 0 1
C_10081671362_306611796_0 RECT_OPEN 1.0 1.5 0 0 1
C_10081671362_306611516_0 RECT_OPEN 1.0 1.5 0 0 1
C_10081671362_9918817333_0 RECT_OPEN 1.0 1.5 0 0 1
C_306611517_306611552_0 RECT_OPEN 1.0 1.5 0 0 1
C_306611552_306611517_0 RECT_OPEN 1.0 1.5 0 0 1
C_306611552_306611644_0 RECT_OPEN 1.0 1.5 0 0 1
C_306611552_306611796_0 RECT_OPEN 1.0 1.5 0 0 1
C_306611796_306611825_0 RECT_OPEN 1.0 1.5 0 0 1
C_306611796_306611552_0 RECT_OPEN 1.0 1.5 0 0 1
C_306611796_10081671362_0 RECT_OPEN 1.0 1.5 0 0 1
C_306612056_306612267_0 RECT_OPEN 1.0 1.5 0 0 1
C_306612056_306611825_0 RECT_OPEN 1.0 1.5 0 0 1
C_306611825_306611796_0 RECT_OPEN 1.0 1.5 0 0 1
C_306611825_306612124_0 RECT_OPEN 1.0 1.5 0 0 1
C_306612124_306612223_0 RECT_OPEN 1.0 1.5 0 0 1
C_306612124_306611889_0 RECT_OPEN 1.0 1.5 0 0 1
C_306611919_306612221_0 RECT_OPEN 1.0 1.5 0 0 1
C_306611919_306612001_0 RECT_OPEN 1.0 1.5 0 0 1
C_306611919_306611889_0 RECT_OPEN 1.0 1.5 0 0 1
C_306611891_6182617723_0 RECT_OPEN 1.0 1.5 0 0 1
C_306611891_306611892_0 RECT_OPEN 1.0 1.5 0 0 1
C_306611891_306612586_0 RECT_OPEN 1.0 1.5 0 0 1
C_6182617723_306612391_0 RECT_OPEN 1.0 1.5 0 0 1
C_6182617723_306612483_0 RECT_OPEN 1.0 1.5 0 0 1
C_6182617723_306611891_0 RECT_OPEN 1.0 1.5 0 0 1
C_306612586_5267822918_0 RECT_OPEN 1.0 1.5 0 0 1
C_306612586_306611891_0 RECT_OPEN 1.0 1.5 0 0 1
C_306612586_306612561_0 RECT_OPEN 1.0 1.5 0 0 1
C_306619140_306611892_0 RECT_OPEN 1.0 1.5 0 0 1
C_306619140_306619251_0 RECT_OPEN 1.0 1.5 0 0 1
C_306619140_306612618_0 RECT_OPEN 1.0 1.5 0 0 1
C_306612221_306612295_0 RECT_OPEN 1.0 1.5 0 0 1
C_306612221_306611919_0 RECT_OPEN 1.0 1.5 0 0 1
C_306612221_306612223_0 RECT_OPEN 1.0 1.5 0 0 1
C_306612001_306612467_0 RECT_OPEN 1.0 1.5 0 0 1
C_306612001_306611919_0 RECT_OPEN 1.0 1.5 0 0 1
C_306612001_306612483_0 RECT_OPEN 1.0 1.5 0 0 1
C_306611966_1417443754_0 RECT_OPEN 1.0 1.5 0 0 1
C_306611966_7478115610_0 RECT_OPEN 1.0 1.5 0 0 1
C_306611966_5267822911_0 RECT_OPEN 1.0 1.5 0 0 1
C_1417443754_10081671364_0 RECT_OPEN 1.0 1.5 0 0 1
C_1417443754_1417443734_0 RECT_OPEN 1.0 1.5 0 0 1
C_7478115610_306612055_0 RECT_OPEN 1.0 1.5 0 0 1
C_7478115610_306611966_0 RECT_OPEN 1.0 1.5 0 0 1
C_7478115610_306612013_0 RECT_OPEN 1.0 1.5 0 0 1
C_5267822911_1417443726_0 RECT_OPEN 1.0 1.5 0 0 1
C_5267822911_6142327790_0 RECT_OPEN 1.0 1.5 0 0 1
C_5267822911_306611966_0 RECT_OPEN 1.0 1.5 0 0 1
C_306612467_306612391_0 RECT_OPEN 1.0 1.5 0 0 1
C_306612467_306612001_0 RECT_OPEN 1.0 1.5 0 0 1
C_306612467_306612483_0 RECT_OPEN 1.0 1.5 0 0 1
C_306612483_306612467_0 RECT_OPEN 1.0 1.5 0 0 1
C_306612483_306612001_0 RECT_OPEN 1.0 1.5 0 0 1
C_306612483_6182617723_0 RECT_OPEN 1.0 1.5 0 0 1
C_306612013_7478115610_0 RECT_OPEN 1.0 1.5 0 0 1
C_306612013_5267822917_0 RECT_OPEN 1.0 1.5 0 0 1
C_306612013_5267822918_0 RECT_OPEN 1.0 1.5 0 0 1
C_5267822917_306612052_0 RECT_OPEN 1.0 1.5 0 0 1
C_5267822917_5267822918_0 RECT_OPEN 1.0 1.5 0 0 1
C_5267822917_306612013_0 RECT_OPEN 1.0 1.5 0 0 1
C_5267822918_306612586_0 RECT_OPEN 1.0 1.5 0 0 1
C_5267822918_5267822917_0 RECT_OPEN 1.0 1.5 0 0 1
C_5267822918_306612013_0 RECT_OPEN 1.0 1.5 0 0 1
C_306612052_5267822917_0 RECT_OPEN 1.0 1.5 0 0 1
C_306612052_306612561_0 RECT_OPEN 1.0 1.5 0 0 1
C_306612052_306612055_0 RECT_OPEN 1.0 1.5 0 0 1
C_306612561_306612052_0 RECT_OPEN 1.0 1.5 0 0 1
C_306612561_306612391_0 RECT_OPEN 1.0 1.5 0 0 1
C_306612561_306612586_0 RECT_OPEN 1.0 1.5 0 0 1
C_306612055_7478115610_0 RECT_OPEN 1.0 1.5 0 0 1
C_306612055_306612295_0 RECT_OPEN 1.0 1.5 0 0 1
C_306612055_306612267_0 RECT_OPEN 1.0 1.5 0 0 1
C_306612055_306612052_0 RECT_OPEN 1.0 1.5 0 0 1
C_306612295_306612055_0 RECT_OPEN 1.0 1.5 0 0 1
C_306612295_306612221_0 RECT_OPEN 1.0 1.5 0 0 1
C_306612295_306612391_0 RECT_OPEN 1.0 1.5 0 0 1
C_306612267_306612056_0 RECT_OPEN 1.0 1.5 0 0 1
C_306612267_306612055_0 RECT_OPEN 1.0 1.5 0 0 1
C_306612267_306612223_0 RECT_OPEN 1.0 1.5 0 0 1
C_306612223_306612221_0 RECT_OPEN 1.0 1.5 0 0 1
C_306612223_306612124_0 RECT_OPEN 1.0 1.5 0 0 1
C_306612223_306612267_0 RECT_OPEN 1.0 1.5 0 0 1
C_306612391_306612561_0 RECT_OPEN 1.0 1.5 0 0 1
C_306612391_306612467_0 RECT_OPEN 1.0 1.5 0 0 1
C_306612391_6182617723_0 RECT_OPEN 1.0 1.5 0 0 1
C_306612391_306612295_0 RECT_OPEN 1.0 1.5 0 0 1
C_306612552_3149523811_0 RECT_OPEN 1.0 1.5 0 0 1
C_3149523811_306613711_0 RECT_OPEN 1.0 1.5 0 0 1
C_3149523811_3149523808_0 RECT_OPEN 1.0 1.5 0 0 1
C_3149523811_306612552_0 RECT_OPEN 1.0 1.5 0 0 1
C_306612618_306613918_0 RECT_OPEN 1.0 1.5 0 0 1
C_306612618_306619140_0 RECT_OPEN 1.0 1.5 0 0 1
C_306613918_306611966_0 RECT_OPEN 1.0 1.5 0 0 1
C_306613918_306612714_0 RECT_OPEN 1.0 1.5 0 0 1
C_306612710_306613150_0 RECT_OPEN 1.0 1.5 0 0 1
C_306612710_3221362717_0 RECT_OPEN 1.0 1.5 0 0 1
C_306612710_12249984863_0 RECT_OPEN 1.0 1.5 0 0 1
C_306613150_306612710_0 RECT_OPEN 1.0 1.5 0 0 1
C_306613150_3221362720_0 RECT_OPEN 1.0 1.5 0 0 1
C_306613150_306612712_0 RECT_OPEN 1.0 1.5 0 0 1
C_3221362717_306613706_0 RECT_OPEN 1.0 1.5 0 0 1
C_3221362717_306612710_0 RECT_OPEN 1.0 1.5 0 0 1
C_3221362717_3221362720_0 RECT_OPEN 1.0 1.5 0 0 1
C_12249984863_12249984864_0 RECT_OPEN 1.0 1.5 0 0 1
C_12249984863_306612710_0 RECT_OPEN 1.0 1.5 0 0 1
C_306612712_306613796_0 RECT_OPEN 1.0 1.5 0 0 1
C_306612712_306613207_0 RECT_OPEN 1.0 1.5 0 0 1
C_306612712_306612714_0 RECT_OPEN 1.0 1.5 0 0 1
C_306612712_306613150_0 RECT_OPEN 1.0 1.5 0 0 1
C_306613796_306613322_0 RECT_OPEN 1.0 1.5 0 0 1
C_306613796_306612712_0 RECT_OPEN 1.0 1.5 0 0 1
C_306613796_306613917_0 RECT_OPEN 1.0 1.5 0 0 1
C_306613207_306619236_0 RECT_OPEN 1.0 1.5 0 0 1
C_306613207_306612712_0 RECT_OPEN 1.0 1.5 0 0 1
C_306612714_6529626686_0 RECT_OPEN 1.0 1.5 0 0 1
C_306612714_306613918_0 RECT_OPEN 1.0 1.5 0 0 1
C_306612714_306612712_0 RECT_OPEN 1.0 1.5 0 0 1
C_6529626686_306613917_0 RECT_OPEN 1.0 1.5 0 0 1
C_6529626686_306612714_0 RECT_OPEN 1.0 1.5 0 0 1
C_6529626686_6529626685_0 RECT_OPEN 1.0 1.5 0 0 1
C_306612914_306612919_0 RECT_OPEN 1.0 1.5 0 0 1
C_306612914_306610155_0 RECT_OPEN 1.0 1.5 0 0 1
C_306613125_3149523808_0 RECT_OPEN 1.0 1.5 0 0 1
C_306613125_9792476719_0 RECT_OPEN 1.0 1.5 0 0 1
C_306613125_2450399427_0 RECT_OPEN 1.0 1.5 0 0 1
C_3149523808_3149523811_0 RECT_OPEN 1.0 1.5 0 0 1
C_3149523808_306613125_0 RECT_OPEN 1.0 1.5 0 0 1
C_3149523808_3149523809_0 RECT_OPEN 1.0 1.5 0 0 1
C_9792476719_2450399417_0 RECT_OPEN 1.0 1.5 0 0 1
C_9792476719_306613125_0 RECT_OPEN 1.0 1.5 0 0 1
C_9792476719_3149523801_0 RECT_OPEN 1.0 1.5 0 0 1
C_2450399427_3149523809_0 RECT_OPEN 1.0 1.5 0 0 1
C_2450399427_3149523807_0 RECT_OPEN 1.0 1.5 0 0 1
C_2450399427_306613125_0 RECT_OPEN 1.0 1.5 0 0 1
C_3221362720_306613706_0 RECT_OPEN 1.0 1.5 0 0 1
C_3221362720_306613150_0 RECT_OPEN 1.0 1.5 0 0 1
C_3221362720_3221362717_0 RECT_OPEN 1.0 1.5 0 0 1
C_306619236_306619290_0 RECT_OPEN 1.0 1.5 0 0 1
C_306619236_306619304_0 RECT_OPEN 1.0 1.5 0 0 1
C_306613322_306613796_0 RECT_OPEN 1.0 1.5 0 0 1
C_306613322_306613711_0 RECT_OPEN 1.0 1.5 0 0 1
C_306613322_306613706_0 RECT_OPEN 1.0 1.5 0 0 1
C_306613711_3149523811_0 RECT_OPEN 1.0 1.5 0 0 1
C_306613711_6142327787_0 RECT_OPEN 1.0 1.5 0 0 1
C_306613711_306613322_0 RECT_OPEN 1.0 1.5 0 0 1
C_306613706_3221362720_0 RECT_OPEN 1.0 1.5 0 0 1
C_306613706_11259448969_0 RECT_OPEN 1.0 1.5 0 0 1
C_306613706_306613322_0 RECT_OPEN 1.0 1.5 0 0 1
C_306613706_3221362717_0 RECT_OPEN 1.0 1.5 0 0 1
C_11259448969_306613706_0 RECT_OPEN 1.0 1.5 0 0 1
C_11259448969_12249984863_0 RECT_OPEN 1.0 1.5 0 0 1
C_6142327787_306613711_0 RECT_OPEN 1.0 1.5 0 0 1
C_6142327787_306613917_0 RECT_OPEN 1.0 1.5 0 0 1
C_6142327787_6142327790_0 RECT_OPEN 1.0 1.5 0 0 1
C_306613917_6529626686_0 RECT_OPEN 1.0 1.5 0 0 1
C_306613917_306613796_0 RECT_OPEN 1.0 1.5 0 0 1
C_306613917_6142327787_0 RECT_OPEN 1.0 1.5 0 0 1
C_306613955_306618000_0 RECT_OPEN 1.0 1.5 0 0 1
C_306613955_306618152_0 RECT_OPEN 1.0 1.5 0 0 1
C_306613955_306618047_0 RECT_OPEN 1.0 1.5 0 0 1
C_306618000_306618040_0 RECT_OPEN 1.0 1.5 0 0 1
C_306618000_306613955_0 RECT_OPEN 1.0 1.5 0 0 1
C_306618000_306618011_0 RECT_OPEN 1.0 1.5 0 0 1
C_306618152_306618226_0 RECT_OPEN 1.0 1.5 0 0 1
C_306618152_306614126_0 RECT_OPEN 1.0 1.5 0 0 1
C_306618152_306613955_0 RECT_OPEN 1.0 1.5 0 0 1
C_306618047_306618864_0 RECT_OPEN 1.0 1.5 0 0 1
C_306618047_306613955_0 RECT_OPEN 1.0 1.5 0 0 1
C_306618047_306618121_0 RECT_OPEN 1.0 1.5 0 0 1
C_306614002_306614043_0 RECT_OPEN 1.0 1.5 0 0 1
C_306614002_306618040_0 RECT_OPEN 1.0 1.5 0 0 1
C_306614002_306618049_0 RECT_OPEN 1.0 1.5 0 0 1
C_306614002_306618037_0 RECT_OPEN 1.0 1.5 0 0 1
C_306614043_306614003_0 RECT_OPEN 1.0 1.5 0 0 1
C_306614043_306614002_0 RECT_OPEN 1.0 1.5 0 0 1
C_306614043_306618038_0 RECT_OPEN 1.0 1.5 0 0 1
C_306618040_306614002_0 RECT_OPEN 1.0 1.5 0 0 1
C_306618040_306618000_0 RECT_OPEN 1.0 1.5 0 0 1
C_306618040_306618039_0 RECT_OPEN 1.0 1.5 0 0 1
C_306618049_306618684_0 RECT_OPEN 1.0 1.5 0 0 1
C_306618049_306614002_0 RECT_OPEN 1.0 1.5 0 0 1
C_306618049_306618913_0 RECT_OPEN 1.0 1.5 0 0 1
C_306618049_306618051_0 RECT_OPEN 1.0 1.5 0 0 1
C_306618037_306614002_0 RECT_OPEN 1.0 1.5 0 0 1
C_306618037_306618035_0 RECT_OPEN 1.0 1.5 0 0 1
C_306618037_306618038_0 RECT_OPEN 1.0 1.5 0 0 1
C_306614003_306614043_0 RECT_OPEN 1.0 1.5 0 0 1
C_306614003_306618051_0 RECT_OPEN 1.0 1.5 0 0 1
C_306614003_747660349_0 RECT_OPEN 1.0 1.5 0 0 1
C_306618051_2447849296_0 RECT_OPEN 1.0 1.5 0 0 1
C_306618051_306614003_0 RECT_OPEN 1.0 1.5 0 0 1
C_306618051_306618049_0 RECT_OPEN 1.0 1.5 0 0 1
C_747660349_313460551_0 RECT_OPEN 1.0 1.5 0 0 1
C_747660349_306614003_0 RECT_OPEN 1.0 1.5 0 0 1
C_747660349_11259448973_0 RECT_OPEN 1.0 1.5 0 0 1
C_306618038_306614043_0 RECT_OPEN 1.0 1.5 0 0 1
C_306618038_306618031_0 RECT_OPEN 1.0 1.5 0 0 1
C_306618038_306618037_0 RECT_OPEN 1.0 1.5 0 0 1
C_306614045_1473885459_0 RECT_OPEN 1.0 1.5 0 0 1
C_306614045_13285069336_0 RECT_OPEN 1.0 1.5 0 0 1
C_1473885459_1473885439_0 RECT_OPEN 1.0 1.5 0 0 1
C_1473885459_306614045_0 RECT_OPEN 1.0 1.5 0 0 1
C_1473885459_1473885458_0 RECT_OPEN 1.0 1.5 0 0 1
C_13285069336_7432359284_0 RECT_OPEN 1.0 1.5 0 0 1
C_13285069336_1488556147_0 RECT_OPEN 1.0 1.5 0 0 1
C_306614125_306618319_0 RECT_OPEN 1.0 1.5 0 0 1
C_306614125_1488556147_0 RECT_OPEN 1.0 1.5 0 0 1
C_306614125_306618148_0 RECT_OPEN 1.0 1.5 0 0 1
C_306618319_306618203_0 RECT_OPEN 1.0 1.5 0 0 1
C_306618319_306614125_0 RECT_OPEN 1.0 1.5 0 0 1
C_306618319_306618602_0 RECT_OPEN 1.0 1.5 0 0 1
C_1488556147_306614125_0 RECT_OPEN 1.0 1.5 0 0 1
C_1488556147_6141578243_0 RECT_OPEN 1.0 1.5 0 0 1
C_1488556147_13285069336_0 RECT_OPEN 1.0 1.5 0 0 1
C_306618148_306618624_0 RECT_OPEN 1.0 1.5 0 0 1
C_306618148_306618151_0 RECT_OPEN 1.0 1.5 0 0 1
C_306618148_306614125_0 RECT_OPEN 1.0 1.5 0 0 1
C_306618203_306614126_0 RECT_OPEN 1.0 1.5 0 0 1
C_306618203_306618319_0 RECT_OPEN 1.0 1.5 0 0 1
C_306618203_306618421_0 RECT_OPEN 1.0 1.5 0 0 1
C_306617982_306618011_0 RECT_OPEN 1.0 1.5 0 0 1
C_306617982_306614127_0 RECT_OPEN 1.0 1.5 0 0 1
C_306617982_306614126_0 RECT_OPEN 1.0 1.5 0 0 1
C_306618031_306618038_0 RECT_OPEN 1.0 1.5 0 0 1
C_306618031_306614127_0 RECT_OPEN 1.0 1.5 0 0 1
C_306618031_306618035_0 RECT_OPEN 1.0 1.5 0 0 1
C_306614479_306614480_0 RECT_OPEN 1.0 1.5 0 0 1
C_306614479_306614924_0 RECT_OPEN 1.0 1.5 0 0 1
C_306614479_2414639341_0 RECT_OPEN 1.0 1.5 0 0 1
C_306614480_306614924_0 RECT_OPEN 1.0 1.5 0 0 1
C_306614480_306614479_0 RECT_OPEN 1.0 1.5 0 0 1
C_306614480_306614481_0 RECT_OPEN 1.0 1.5 0 0 1
C_306614924_306614967_0 RECT_OPEN 1.0 1.5 0 0 1
C_306614924_306614480_0 RECT_OPEN 1.0 1.5 0 0 1
C_306614924_306614479_0 RECT_OPEN 1.0 1.5 0 0 1
C_306614481_306617634_0 RECT_OPEN 1.0 1.5 0 0 1
C_306614481_6132249479_0 RECT_OPEN 1.0 1.5 0 0 1
C_306614481_306617686_0 RECT_OPEN 1.0 1.5 0 0 1
C_306614481_306614480_0 RECT_OPEN 1.0 1.5 0 0 1
C_306617731_306614739_0 RECT_OPEN 1.0 1.5 0 0 1
C_306617731_306614734_0 RECT_OPEN 1.0 1.5 0 0 1
C_306617731_306617735_0 RECT_OPEN 1.0 1.5 0 0 1
C_306614738_306614734_0 RECT_OPEN 1.0 1.5 0 0 1
C_306614738_306614832_0 RECT_OPEN 1.0 1.5 0 0 1
C_306614738_306614850_0 RECT_OPEN 1.0 1.5 0 0 1
C_306614738_11982570362_0 RECT_OPEN 1.0 1.5 0 0 1
C_306614832_306614842_0 RECT_OPEN 1.0 1.5 0 0 1
C_306614832_306614738_0 RECT_OPEN 1.0 1.5 0 0 1
C_306614832_306614901_0 RECT_OPEN 1.0 1.5 0 0 1
C_11982570362_11178931798_0 RECT_OPEN 1.0 1.5 0 0 1
C_11982570362_306614738_0 RECT_OPEN 1.0 1.5 0 0 1
C_306614739_6178041421_0 RECT_OPEN 1.0 1.5 0 0 1
C_306614739_306617731_0 RECT_OPEN 1.0 1.5 0 0 1
C_306614739_306617738_0 RECT_OPEN 1.0 1.5 0 0 1
C_306614739_11982570360_0 RECT_OPEN 1.0 1.5 0 0 1
C_6178041421_1473890791_0 RECT_OPEN 1.0 1.5 0 0 1
C_6178041421_306614739_0 RECT_OPEN 1.0 1.5 0 0 1
C_6178041421_6178041419_0 RECT_OPEN 1.0 1.5 0 0 1
C_306617738_306614739_0 RECT_OPEN 1.0 1.5 0 0 1
C_306617738_306617745_0 RECT_OPEN 1.0 1.5 0 0 1
C_306617738_306617735_0 RECT_OPEN 1.0 1.5 0 0 1
C_11982570360_306614739_0 RECT_OPEN 1.0 1.5 0 0 1
C_11982570360_11982570362_0 RECT_OPEN 1.0 1.5 0 0 1
C_11476594000_306614967_0 RECT_OPEN 1.0 1.5 0 0 1
C_306620879_306615014_0 RECT_OPEN 1.0 1.5 0 0 1
C_306620879_306620870_0 RECT_OPEN 1.0 1.5 0 0 1
C_306620879_306620210_0 RECT_OPEN 1.0 1.5 0 0 1
C_306619786_306615019_0 RECT_OPEN 1.0 1.5 0 0 1
C_306619786_306615014_0 RECT_OPEN 1.0 1.5 0 0 1
C_306619786_306619844_0 RECT_OPEN 1.0 1.5 0 0 1
C_306615155_306615653_0 RECT_OPEN 1.0 1.5 0 0 1
C_306615155_306615032_0 RECT_OPEN 1.0 1.5 0 0 1
C_306615155_306615904_0 RECT_OPEN 1.0 1.5 0 0 1
C_306615653_306615239_0 RECT_OPEN 1.0 1.5 0 0 1
C_306615653_306615155_0 RECT_OPEN 1.0 1.5 0 0 1
C_306615653_306615937_0 RECT_OPEN 1.0 1.5 0 0 1
C_306615904_306615597_0 RECT_OPEN 1.0 1.5 0 0 1
C_306615904_306615155_0 RECT_OPEN 1.0 1.5 0 0 1
C_306615904_306615643_0 RECT_OPEN 1.0 1.5 0 0 1
C_306615597_306615164_0 RECT_OPEN 1.0 1.5 0 0 1
C_306615597_306615904_0 RECT_OPEN 1.0 1.5 0 0 1
C_306615597_306615629_0 RECT_OPEN 1.0 1.5 0 0 1
C_306615239_306615202_0 RECT_OPEN 1.0 1.5 0 0 1
C_306615239_306615653_0 RECT_OPEN 1.0 1.5 0 0 1
C_306615239_306615877_0 RECT_OPEN 1.0 1.5 0 0 1
C_306615239_306615227_0 RECT_OPEN 1.0 1.5 0 0 1
C_306615426_306615208_0 RECT_OPEN 1.0 1.5 0 0 1
C_306615426_306615202_0 RECT_OPEN 1.0 1.5 0 0 1
C_306615426_306615461_0 RECT_OPEN 1.0 1.5 0 0 1
C_306615208_306615426_0 RECT_OPEN 1.0 1.5 0 0 1
C_306615208_306615608_0 RECT_OPEN 1.0 1.5 0 0 1
C_306615208_306615250_0 RECT_OPEN 1.0 1.5 0 0 1
C_306615608_10094586224_0 RECT_OPEN 1.0 1.5 0 0 1
C_306615608_306615208_0 RECT_OPEN 1.0 1.5 0 0 1
C_306615608_306615476_0 RECT_OPEN 1.0 1.5 0 0 1
C_306615250_306615877_0 RECT_OPEN 1.0 1.5 0 0 1
C_306615250_306615208_0 RECT_OPEN 1.0 1.5 0 0 1
C_306615250_306615629_0 RECT_OPEN 1.0 1.5 0 0 1
C_306615227_3298878325_0 RECT_OPEN 1.0 1.5 0 0 1
C_306615227_306615239_0 RECT_OPEN 1.0 1.5 0 0 1
C_306615227_7432382415_0 RECT_OPEN 1.0 1.5 0 0 1
C_3298878325_306615227_0 RECT_OPEN 1.0 1.5 0 0 1
C_3298878325_306623067_0 RECT_OPEN 1.0 1.5 0 0 1
C_3298878325_5780852347_0 RECT_OPEN 1.0 1.5 0 0 1
C_7432382415_263386438_0 RECT_OPEN 1.0 1.5 0 0 1
C_7432382415_306615227_0 RECT_OPEN 1.0 1.5 0 0 1
C_306615877_306615250_0 RECT_OPEN 1.0 1.5 0 0 1
C_306615877_306615239_0 RECT_OPEN 1.0 1.5 0 0 1
C_306615877_306615876_0 RECT_OPEN 1.0 1.5 0 0 1
C_306615629_306615250_0 RECT_OPEN 1.0 1.5 0 0 1
C_306615629_306615597_0 RECT_OPEN 1.0 1.5 0 0 1
C_306615629_306615730_0 RECT_OPEN 1.0 1.5 0 0 1
C_10094586224_306615608_0 RECT_OPEN 1.0 1.5 0 0 1
C_10094586224_306615461_0 RECT_OPEN 1.0 1.5 0 0 1
C_10094586224_10094586223_0 RECT_OPEN 1.0 1.5 0 0 1
C_306615730_306615629_0 RECT_OPEN 1.0 1.5 0 0 1
C_306615730_306615876_0 RECT_OPEN 1.0 1.5 0 0 1
C_306615730_306615643_0 RECT_OPEN 1.0 1.5 0 0 1
C_306615643_306615937_0 RECT_OPEN 1.0 1.5 0 0 1
C_306615643_306615904_0 RECT_OPEN 1.0 1.5 0 0 1
C_306615643_306615730_0 RECT_OPEN 1.0 1.5 0 0 1
C_306615937_306615876_0 RECT_OPEN 1.0 1.5 0 0 1
C_306615937_306615653_0 RECT_OPEN 1.0 1.5 0 0 1
C_306615937_306615643_0 RECT_OPEN 1.0 1.5 0 0 1
C_306615876_306615877_0 RECT_OPEN 1.0 1.5 0 0 1
C_306615876_306615730_0 RECT_OPEN 1.0 1.5 0 0 1
C_306615876_306615937_0 RECT_OPEN 1.0 1.5 0 0 1
C_306616007_306623070_0 RECT_OPEN 1.0 1.5 0 0 1
C_306616007_306616031_0 RECT_OPEN 1.0 1.5 0 0 1
C_306616007_5961715635_0 RECT_OPEN 1.0 1.5 0 0 1
C_306623070_306623066_0 RECT_OPEN 1.0 1.5 0 0 1
C_306623070_306616007_0 RECT_OPEN 1.0 1.5 0 0 1
C_306623070_306623067_0 RECT_OPEN 1.0 1.5 0 0 1
C_306616031_1054699489_0 RECT_OPEN 1.0 1.5 0 0 1
C_306616031_306622158_0 RECT_OPEN 1.0 1.5 0 0 1
C_306616031_306616007_0 RECT_OPEN 1.0 1.5 0 0 1
C_5961715635_3298864776_0 RECT_OPEN 1.0 1.5 0 0 1
C_5961715635_306616007_0 RECT_OPEN 1.0 1.5 0 0 1
C_5961715635_7432382412_0 RECT_OPEN 1.0 1.5 0 0 1
C_306622158_306616031_0 RECT_OPEN 1.0 1.5 0 0 1
C_306622158_306622953_0 RECT_OPEN 1.0 1.5 0 0 1
C_306622158_306616029_0 RECT_OPEN 1.0 1.5 0 0 1
C_1054699489_306616031_0 RECT_OPEN 1.0 1.5 0 0 1
C_1054699489_306622967_0 RECT_OPEN 1.0 1.5 0 0 1
C_1054699489_1054699551_0 RECT_OPEN 1.0 1.5 0 0 1
C_3298878307_11865527609_0 RECT_OPEN 1.0 1.5 0 0 1
C_3298878307_7432244880_0 RECT_OPEN 1.0 1.5 0 0 1
C_3298878307_306616740_0 RECT_OPEN 1.0 1.5 0 0 1
C_306617262_11663109186_0 RECT_OPEN 1.0 1.5 0 0 1
C_306617262_12680448313_0 RECT_OPEN 1.0 1.5 0 0 1
C_11663109186_306617262_0 RECT_OPEN 1.0 1.5 0 0 1
C_11663109186_11663109187_0 RECT_OPEN 1.0 1.5 0 0 1
C_11663109186_7432382398_0 RECT_OPEN 1.0 1.5 0 0 1
C_12680448313_12680448312_0 RECT_OPEN 1.0 1.5 0 0 1
C_12680448313_11178931802_0 RECT_OPEN 1.0 1.5 0 0 1
C_306617283_306617463_0 RECT_OPEN 1.0 1.5 0 0 1
C_306617283_306617457_0 RECT_OPEN 1.0 1.5 0 0 1
C_306617283_12680448312_0 RECT_OPEN 1.0 1.5 0 0 1
C_306617463_306617283_0 RECT_OPEN 1.0 1.5 0 0 1
C_306617463_306617477_0 RECT_OPEN 1.0 1.5 0 0 1
C_306617463_306617465_0 RECT_OPEN 1.0 1.5 0 0 1
C_306617457_306617302_0 RECT_OPEN 1.0 1.5 0 0 1
C_306617457_306617283_0 RECT_OPEN 1.0 1.5 0 0 1
C_306617457_306617465_0 RECT_OPEN 1.0 1.5 0 0 1
C_12680448312_12680448313_0 RECT_OPEN 1.0 1.5 0 0 1
C_12680448312_306617262_0 RECT_OPEN 1.0 1.5 0 0 1
C_12680448312_306617283_0 RECT_OPEN 1.0 1.5 0 0 1
C_306617440_306617444_0 RECT_OPEN 1.0 1.5 0 0 1
C_306617440_306625759_0 RECT_OPEN 1.0 1.5 0 0 1
C_306617440_306617302_0 RECT_OPEN 1.0 1.5 0 0 1
C_306617409_306617429_0 RECT_OPEN 1.0 1.5 0 0 1
C_306617409_306617477_0 RECT_OPEN 1.0 1.5 0 0 1
C_306617409_306617486_0 RECT_OPEN 1.0 1.5 0 0 1
C_306617486_306617465_0 RECT_OPEN 1.0 1.5 0 0 1
C_306617486_306617444_0 RECT_OPEN 1.0 1.5 0 0 1
C_306617486_306617409_0 RECT_OPEN 1.0 1.5 0 0 1
C_306617444_306617440_0 RECT_OPEN 1.0 1.5 0 0 1
C_306617444_306617486_0 RECT_OPEN 1.0 1.5 0 0 1
C_306617444_306617429_0 RECT_OPEN 1.0 1.5 0 0 1
C_306617465_306617457_0 RECT_OPEN 1.0 1.5 0 0 1
C_306617465_306617486_0 RECT_OPEN 1.0 1.5 0 0 1
C_306617465_306617463_0 RECT_OPEN 1.0 1.5 0 0 1
C_9189927179_306617686_0 RECT_OPEN 1.0 1.5 0 0 1
C_9189927179_6463519072_0 RECT_OPEN 1.0 1.5 0 0 1
C_9189927179_9189927178_0 RECT_OPEN 1.0 1.5 0 0 1
C_306617735_306617731_0 RECT_OPEN 1.0 1.5 0 0 1
C_306617735_306617742_0 RECT_OPEN 1.0 1.5 0 0 1
C_306617735_306617738_0 RECT_OPEN 1.0 1.5 0 0 1
C_306617745_306617738_0 RECT_OPEN 1.0 1.5 0 0 1
C_306617745_6178041423_0 RECT_OPEN 1.0 1.5 0 0 1
C_306617745_306617758_0 RECT_OPEN 1.0 1.5 0 0 1
C_306618011_306618000_0 RECT_OPEN 1.0 1.5 0 0 1
C_306618011_306617982_0 RECT_OPEN 1.0 1.5 0 0 1
C_306618011_306618039_0 RECT_OPEN 1.0 1.5 0 0 1
C_306618039_306618035_0 RECT_OPEN 1.0 1.5 0 0 1
C_306618039_306618011_0 RECT_OPEN 1.0 1.5 0 0 1
C_306618039_306618040_0 RECT_OPEN 1.0 1.5 0 0 1
C_306618035_306618039_0 RECT_OPEN 1.0 1.5 0 0 1
C_306618035_306618037_0 RECT_OPEN 1.0 1.5 0 0 1
C_306618035_306618031_0 RECT_OPEN 1.0 1.5 0 0 1
C_306618045_306618684_0 RECT_OPEN 1.0 1.5 0 0 1
C_306618045_306619061_0 RECT_OPEN 1.0 1.5 0 0 1
C_306618045_306619043_0 RECT_OPEN 1.0 1.5 0 0 1
C_306618684_306618045_0 RECT_OPEN 1.0 1.5 0 0 1
C_306618684_306618049_0 RECT_OPEN 1.0 1.5 0 0 1
C_306618684_306618755_0 RECT_OPEN 1.0 1.5 0 0 1
C_306619061_306619067_0 RECT_OPEN 1.0 1.5 0 0 1
C_306619061_306618755_0 RECT_OPEN 1.0 1.5 0 0 1
C_306619061_306618045_0 RECT_OPEN 1.0 1.5 0 0 1
C_306619043_306619063_0 RECT_OPEN 1.0 1.5 0 0 1
C_306619043_306618913_0 RECT_OPEN 1.0 1.5 0 0 1
C_306619043_306618045_0 RECT_OPEN 1.0 1.5 0 0 1
C_306618864_306618913_0 RECT_OPEN 1.0 1.5 0 0 1
C_306618864_306618047_0 RECT_OPEN 1.0 1.5 0 0 1
C_306618864_306618974_0 RECT_OPEN 1.0 1.5 0 0 1
C_306618121_306618227_0 RECT_OPEN 1.0 1.5 0 0 1
C_306618121_306618047_0 RECT_OPEN 1.0 1.5 0 0 1
C_306618121_306618053_0 RECT_OPEN 1.0 1.5 0 0 1
C_306618913_306618049_0 RECT_OPEN 1.0 1.5 0 0 1
C_306618913_306618864_0 RECT_OPEN 1.0 1.5 0 0 1
C_306618913_306619043_0 RECT_OPEN 1.0 1.5 0 0 1
C_2447849296_306618051_0 RECT_OPEN 1.0 1.5 0 0 1
C_2447849296_1417443666_0 RECT_OPEN 1.0 1.5 0 0 1
C_2447849296_306618704_0 RECT_OPEN 1.0 1.5 0 0 1
C_306618053_306619089_0 RECT_OPEN 1.0 1.5 0 0 1
C_306618053_306618845_0 RECT_OPEN 1.0 1.5 0 0 1
C_306618053_306618121_0 RECT_OPEN 1.0 1.5 0 0 1
C_306619089_306618053_0 RECT_OPEN 1.0 1.5 0 0 1
C_306619089_306619107_0 RECT_OPEN 1.0 1.5 0 0 1
C_306619089_306619097_0 RECT_OPEN 1.0 1.5 0 0 1
C_306618845_306618876_0 RECT_OPEN 1.0 1.5 0 0 1
C_306618845_306618719_0 RECT_OPEN 1.0 1.5 0 0 1
C_306618845_306618053_0 RECT_OPEN 1.0 1.5 0 0 1
C_306618089_12174120925_0 RECT_OPEN 1.0 1.5 0 0 1
C_12174120925_306618090_0 RECT_OPEN 1.0 1.5 0 0 1
C_12174120925_12174120924_0 RECT_OPEN 1.0 1.5 0 0 1
C_12174120925_306618089_0 RECT_OPEN 1.0 1.5 0 0 1
C_306619109_306618139_0 RECT_OPEN 1.0 1.5 0 0 1
C_306619109_306618090_0 RECT_OPEN 1.0 1.5 0 0 1
C_306619109_306619112_0 RECT_OPEN 1.0 1.5 0 0 1
C_306618120_306618091_0 RECT_OPEN 1.0 1.5 0 0 1
C_306618120_306618090_0 RECT_OPEN 1.0 1.5 0 0 1
C_306618120_306618149_0 RECT_OPEN 1.0 1.5 0 0 1
C_306618091_6141578243_0 RECT_OPEN 1.0 1.5 0 0 1
C_306618091_306618120_0 RECT_OPEN 1.0 1.5 0 0 1
C_306618091_306618241_0 RECT_OPEN 1.0 1.5 0 0 1
C_6141578243_1488556147_0 RECT_OPEN 1.0 1.5 0 0 1
C_6141578243_306618091_0 RECT_OPEN 1.0 1.5 0 0 1
C_6141578243_306618151_0 RECT_OPEN 1.0 1.5 0 0 1
C_306618241_306618149_0 RECT_OPEN 1.0 1.5 0 0 1
C_306618241_306618242_0 RECT_OPEN 1.0 1.5 0 0 1
C_306618241_306618091_0 RECT_OPEN 1.0 1.5 0 0 1
C_306618149_306618131_0 RECT_OPEN 1.0 1.5 0 0 1
C_306618149_306618120_0 RECT_OPEN 1.0 1.5 0 0 1
C_306618149_306618241_0 RECT_OPEN 1.0 1.5 0 0 1
C_306618227_306618121_0 RECT_OPEN 1.0 1.5 0 0 1
C_306618227_306618131_0 RECT_OPEN 1.0 1.5 0 0 1
C_306618227_306618228_0 RECT_OPEN 1.0 1.5 0 0 1
C_306618131_306618227_0 RECT_OPEN 1.0 1.5 0 0 1
C_306618131_306618149_0 RECT_OPEN 1.0 1.5 0 0 1
C_306618131_306618139_0 RECT_OPEN 1.0 1.5 0 0 1
C_306618139_306619107_0 RECT_OPEN 1.0 1.5 0 0 1
C_306618139_306619109_0 RECT_OPEN 1.0 1.5 0 0 1
C_306618139_306618131_0 RECT_OPEN 1.0 1.5 0 0 1
C_306619107_306619089_0 RECT_OPEN 1.0 1.5 0 0 1
C_306619107_306618139_0 RECT_OPEN 1.0 1.5 0 0 1
C_306619107_306619114_0 RECT_OPEN 1.0 1.5 0 0 1
C_306618624_306618148_0 RECT_OPEN 1.0 1.5 0 0 1
C_306618624_306618516_0 RECT_OPEN 1.0 1.5 0 0 1
C_306618624_306618602_0 RECT_OPEN 1.0 1.5 0 0 1
C_306618151_306618660_0 RECT_OPEN 1.0 1.5 0 0 1
C_306618151_306618148_0 RECT_OPEN 1.0 1.5 0 0 1
C_306618151_6141578243_0 RECT_OPEN 1.0 1.5 0 0 1
C_306618660_306618244_0 RECT_OPEN 1.0 1.5 0 0 1
C_306618660_306618151_0 RECT_OPEN 1.0 1.5 0 0 1
C_306618660_306618516_0 RECT_OPEN 1.0 1.5 0 0 1
C_306618226_306618152_0 RECT_OPEN 1.0 1.5 0 0 1
C_306618226_306618244_0 RECT_OPEN 1.0 1.5 0 0 1
C_306618226_306618228_0 RECT_OPEN 1.0 1.5 0 0 1
C_306618226_306618421_0 RECT_OPEN 1.0 1.5 0 0 1
C_306618421_306618226_0 RECT_OPEN 1.0 1.5 0 0 1
C_306618421_306618203_0 RECT_OPEN 1.0 1.5 0 0 1
C_306618421_306618400_0 RECT_OPEN 1.0 1.5 0 0 1
C_306618244_306618226_0 RECT_OPEN 1.0 1.5 0 0 1
C_306618244_306618660_0 RECT_OPEN 1.0 1.5 0 0 1
C_306618244_306618243_0 RECT_OPEN 1.0 1.5 0 0 1
C_306618228_306618227_0 RECT_OPEN 1.0 1.5 0 0 1
C_306618228_306618226_0 RECT_OPEN 1.0 1.5 0 0 1
C_306618228_7478115641_0 RECT_OPEN 1.0 1.5 0 0 1
C_7478115641_306618243_0 RECT_OPEN 1.0 1.5 0 0 1
C_7478115641_306618228_0 RECT_OPEN 1.0 1.5 0 0 1
C_7478115641_7478115637_0 RECT_OPEN 1.0 1.5 0 0 1
C_306618229_306618243_0 RECT_OPEN 1.0 1.5 0 0 1
C_306618243_306618229_0 RECT_OPEN 1.0 1.5 0 0 1
C_306618243_7478115641_0 RECT_OPEN 1.0 1.5 0 0 1
C_306618243_306618244_0 RECT_OPEN 1.0 1.5 0 0 1
C_306618243_306618242_0 RECT_OPEN 1.0 1.5 0 0 1
C_306618242_306618241_0 RECT_OPEN 1.0 1.5 0 0 1
C_306618242_306618243_0 RECT_OPEN 1.0 1.5 0 0 1
C_306618242_10081725595_0 RECT_OPEN 1.0 1.5 0 0 1
C_10081725595_306618242_0 RECT_OPEN 1.0 1.5 0 0 1
C_306618602_306618400_0 RECT_OPEN 1.0 1.5 0 0 1
C_306618602_306618319_0 RECT_OPEN 1.0 1.5 0 0 1
C_306618602_306618624_0 RECT_OPEN 1.0 1.5 0 0 1
C_306618400_306618602_0 RECT_OPEN 1.0 1.5 0 0 1
C_306618400_306618516_0 RECT_OPEN 1.0 1.5 0 0 1
C_306618400_306618421_0 RECT_OPEN 1.0 1.5 0 0 1
C_306618516_306618400_0 RECT_OPEN 1.0 1.5 0 0 1
C_306618516_306618660_0 RECT_OPEN 1.0 1.5 0 0 1
C_306618516_306618624_0 RECT_OPEN 1.0 1.5 0 0 1
C_306618755_7478115630_0 RECT_OPEN 1.0 1.5 0 0 1
C_306618755_306618684_0 RECT_OPEN 1.0 1.5 0 0 1
C_306618755_306619061_0 RECT_OPEN 1.0 1.5 0 0 1
C_306618704_2447849296_0 RECT_OPEN 1.0 1.5 0 0 1
C_306618704_7478115630_0 RECT_OPEN 1.0 1.5 0 0 1
C_306618704_313460477_0 RECT_OPEN 1.0 1.5 0 0 1
C_7478115630_306618755_0 RECT_OPEN 1.0 1.5 0 0 1
C_7478115630_306618704_0 RECT_OPEN 1.0 1.5 0 0 1
C_7478115630_7478115636_0 RECT_OPEN 1.0 1.5 0 0 1
C_313460477_306618704_0 RECT_OPEN 1.0 1.5 0 0 1
C_313460477_5267835373_0 RECT_OPEN 1.0 1.5 0 0 1
C_313460477_313460484_0 RECT_OPEN 1.0 1.5 0 0 1
C_306618719_1417443578_0 RECT_OPEN 1.0 1.5 0 0 1
C_306618719_306618845_0 RECT_OPEN 1.0 1.5 0 0 1
C_1417443578_306618743_0 RECT_OPEN 1.0 1.5 0 0 1
C_1417443578_306618719_0 RECT_OPEN 1.0 1.5 0 0 1
C_1417443578_10081725588_0 RECT_OPEN 1.0 1.5 0 0 1
C_306618743_1417443578_0 RECT_OPEN 1.0 1.5 0 0 1
C_306618743_306618811_0 RECT_OPEN 1.0 1.5 0 0 1
C_306618743_7478115636_0 RECT_OPEN 1.0 1.5 0 0 1
C_306618811_306618743_0 RECT_OPEN 1.0 1.5 0 0 1
C_306618811_306618983_0 RECT_OPEN 1.0 1.5 0 0 1
C_306618811_306618876_0 RECT_OPEN 1.0 1.5 0 0 1
C_7478115636_7478115630_0 RECT_OPEN 1.0 1.5 0 0 1
C_7478115636_7478115632_0 RECT_OPEN 1.0 1.5 0 0 1
C_7478115636_306618743_0 RECT_OPEN 1.0 1.5 0 0 1
C_306618983_306618811_0 RECT_OPEN 1.0 1.5 0 0 1
C_306618983_7478115632_0 RECT_OPEN 1.0 1.5 0 0 1
C_306618983_306618958_0 RECT_OPEN 1.0 1.5 0 0 1
C_306618876_306618845_0 RECT_OPEN 1.0 1.5 0 0 1
C_306618876_306618811_0 RECT_OPEN 1.0 1.5 0 0 1
C_306618876_306618974_0 RECT_OPEN 1.0 1.5 0 0 1
C_306618974_306618876_0 RECT_OPEN 1.0 1.5 0 0 1
C_306618974_306618864_0 RECT_OPEN 1.0 1.5 0 0 1
C_306618974_306618958_0 RECT_OPEN 1.0 1.5 0 0 1
C_306618958_306619063_0 RECT_OPEN 1.0 1.5 0 0 1
C_306618958_306618983_0 RECT_OPEN 1.0 1.5 0 0 1
C_306618958_306618974_0 RECT_OPEN 1.0 1.5 0 0 1
C_306619063_306618958_0 RECT_OPEN 1.0 1.5 0 0 1
C_306619063_306619043_0 RECT_OPEN 1.0 1.5 0 0 1
C_306619063_306619067_0 RECT_OPEN 1.0 1.5 0 0 1
C_7478115632_306618983_0 RECT_OPEN 1.0 1.5 0 0 1
C_7478115632_306619067_0 RECT_OPEN 1.0 1.5 0 0 1
C_7478115632_7478115636_0 RECT_OPEN 1.0 1.5 0 0 1
C_306619067_7478115632_0 RECT_OPEN 1.0 1.5 0 0 1
C_306619067_306619061_0 RECT_OPEN 1.0 1.5 0 0 1
C_306619067_306619063_0 RECT_OPEN 1.0 1.5 0 0 1
C_306619097_8984867006_0 RECT_OPEN 1.0 1.5 0 0 1
C_306619097_306619089_0 RECT_OPEN 1.0 1.5 0 0 1
C_306619097_306619108_0 RECT_OPEN 1.0 1.5 0 0 1
C_306619095_8984867006_0 RECT_OPEN 1.0 1.5 0 0 1
C_306619095_6180287627_0 RECT_OPEN 1.0 1.5 0 0 1
C_306619095_7478118969_0 RECT_OPEN 1.0 1.5 0 0 1
C_8984867006_306619095_0 RECT_OPEN 1.0 1.5 0 0 1
C_8984867006_306619097_0 RECT_OPEN 1.0 1.5 0 0 1
C_8984867006_8984867007_0 RECT_OPEN 1.0 1.5 0 0 1
C_6180287627_1417443508_0 RECT_OPEN 1.0 1.5 0 0 1
C_6180287627_306619095_0 RECT_OPEN 1.0 1.5 0 0 1
C_7478118969_306619095_0 RECT_OPEN 1.0 1.5 0 0 1
C_306619108_306619097_0 RECT_OPEN 1.0 1.5 0 0 1
C_306619108_3161269203_0 RECT_OPEN 1.0 1.5 0 0 1
C_306619108_306619114_0 RECT_OPEN 1.0 1.5 0 0 1
C_306619114_306619107_0 RECT_OPEN 1.0 1.5 0 0 1
C_306619114_3161269203_0 RECT_OPEN 1.0 1.5 0 0 1
C_306619114_306619108_0 RECT_OPEN 1.0 1.5 0 0 1
C_3161269203_306619114_0 RECT_OPEN 1.0 1.5 0 0 1
C_3161269203_306619112_0 RECT_OPEN 1.0 1.5 0 0 1
C_3161269203_306619108_0 RECT_OPEN 1.0 1.5 0 0 1
C_306619112_306619109_0 RECT_OPEN 1.0 1.5 0 0 1
C_306619112_3161269203_0 RECT_OPEN 1.0 1.5 0 0 1
C_306619112_12174120924_0 RECT_OPEN 1.0 1.5 0 0 1
C_306619111_12174120924_0 RECT_OPEN 1.0 1.5 0 0 1
C_12174120924_306619111_0 RECT_OPEN 1.0 1.5 0 0 1
C_12174120924_12174120925_0 RECT_OPEN 1.0 1.5 0 0 1
C_12174120924_306619112_0 RECT_OPEN 1.0 1.5 0 0 1
C_306619149_10081671366_0 RECT_OPEN 1.0 1.5 0 0 1
C_306619149_306619117_0 RECT_OPEN 1.0 1.5 0 0 1
C_306619149_306619537_0 RECT_OPEN 1.0 1.5 0 0 1
C_6885082500_306619117_0 RECT_OPEN 1.0 1.5 0 0 1
C_6885082500_11374930012_0 RECT_OPEN 1.0 1.5 0 0 1
C_306619138_306619304_0 RECT_OPEN 1.0 1.5 0 0 1
C_306619138_306619251_0 RECT_OPEN 1.0 1.5 0 0 1
C_306619138_10081671366_0 RECT_OPEN 1.0 1.5 0 0 1
C_306619304_306619138_0 RECT_OPEN 1.0 1.5 0 0 1
C_306619304_306619548_0 RECT_OPEN 1.0 1.5 0 0 1
C_306619304_306619236_0 RECT_OPEN 1.0 1.5 0 0 1
C_306619251_306619140_0 RECT_OPEN 1.0 1.5 0 0 1
C_306619251_306619138_0 RECT_OPEN 1.0 1.5 0 0 1
C_306619251_306619290_0 RECT_OPEN 1.0 1.5 0 0 1
C_10081671366_306619149_0 RECT_OPEN 1.0 1.5 0 0 1
C_10081671366_306619138_0 RECT_OPEN 1.0 1.5 0 0 1
C_10081671366_5928014162_0 RECT_OPEN 1.0 1.5 0 0 1
C_306619537_306619613_0 RECT_OPEN 1.0 1.5 0 0 1
C_306619537_306619149_0 RECT_OPEN 1.0 1.5 0 0 1
C_306619537_5928014162_0 RECT_OPEN 1.0 1.5 0 0 1
C_306619290_306612618_0 RECT_OPEN 1.0 1.5 0 0 1
C_306619290_306619251_0 RECT_OPEN 1.0 1.5 0 0 1
C_306619548_306619304_0 RECT_OPEN 1.0 1.5 0 0 1
C_306619548_306619660_0 RECT_OPEN 1.0 1.5 0 0 1
C_306619548_5928014162_0 RECT_OPEN 1.0 1.5 0 0 1
C_306619358_306619613_0 RECT_OPEN 1.0 1.5 0 0 1
C_306619358_306619459_0 RECT_OPEN 1.0 1.5 0 0 1
C_306619358_6885082496_0 RECT_OPEN 1.0 1.5 0 0 1
C_306619613_306619358_0 RECT_OPEN 1.0 1.5 0 0 1
C_306619613_306619537_0 RECT_OPEN 1.0 1.5 0 0 1
C_306619613_306619660_0 RECT_OPEN 1.0 1.5 0 0 1
C_306619459_306619358_0 RECT_OPEN 1.0 1.5 0 0 1
C_306619459_306619660_0 RECT_OPEN 1.0 1.5 0 0 1
C_306619459_306619430_0 RECT_OPEN 1.0 1.5 0 0 1
C_6885082496_306619358_0 RECT_OPEN 1.0 1.5 0 0 1
C_6885082496_6885082500_0 RECT_OPEN 1.0 1.5 0 0 1
C_306619430_306613207_0 RECT_OPEN 1.0 1.5 0 0 1
C_306619430_306619459_0 RECT_OPEN 1.0 1.5 0 0 1
C_306619660_306619548_0 RECT_OPEN 1.0 1.5 0 0 1
C_306619660_306619459_0 RECT_OPEN 1.0 1.5 0 0 1
C_306619660_306619613_0 RECT_OPEN 1.0 1.5 0 0 1
C_5928014162_306619548_0 RECT_OPEN 1.0 1.5 0 0 1
C_5928014162_306619537_0 RECT_OPEN 1.0 1.5 0 0 1
C_5928014162_10081671366_0 RECT_OPEN 1.0 1.5 0 0 1
C_306619844_306619995_0 RECT_OPEN 1.0 1.5 0 0 1
C_306619844_306619786_0 RECT_OPEN 1.0 1.5 0 0 1
C_306619844_306619953_0 RECT_OPEN 1.0 1.5 0 0 1
C_306619995_306620209_0 RECT_OPEN 1.0 1.5 0 0 1
C_306619995_306619844_0 RECT_OPEN 1.0 1.5 0 0 1
C_306619995_306620173_0 RECT_OPEN 1.0 1.5 0 0 1
C_306619845_306619847_0 RECT_OPEN 1.0 1.5 0 0 1
C_306619845_306620209_0 RECT_OPEN 1.0 1.5 0 0 1
C_306619845_306620177_0 RECT_OPEN 1.0 1.5 0 0 1
C_306619847_306619845_0 RECT_OPEN 1.0 1.5 0 0 1
C_306619847_306620777_0 RECT_OPEN 1.0 1.5 0 0 1
C_306619847_306620753_0 RECT_OPEN 1.0 1.5 0 0 1
C_306620209_595767079_0 RECT_OPEN 1.0 1.5 0 0 1
C_306620209_306620210_0 RECT_OPEN 1.0 1.5 0 0 1
C_306620209_306619845_0 RECT_OPEN 1.0 1.5 0 0 1
C_306620209_306619995_0 RECT_OPEN 1.0 1.5 0 0 1
C_306620777_306619847_0 RECT_OPEN 1.0 1.5 0 0 1
C_306620753_306620210_0 RECT_OPEN 1.0 1.5 0 0 1
C_306620753_306619847_0 RECT_OPEN 1.0 1.5 0 0 1
C_306620753_306620795_0 RECT_OPEN 1.0 1.5 0 0 1
C_306620753_2414639343_0 RECT_OPEN 1.0 1.5 0 0 1
C_306620173_306620007_0 RECT_OPEN 1.0 1.5 0 0 1
C_306620173_306619995_0 RECT_OPEN 1.0 1.5 0 0 1
C_306620173_306620181_0 RECT_OPEN 1.0 1.5 0 0 1
C_306620148_306620088_0 RECT_OPEN 1.0 1.5 0 0 1
C_306620148_306620007_0 RECT_OPEN 1.0 1.5 0 0 1
C_306620148_306620124_0 RECT_OPEN 1.0 1.5 0 0 1
C_306620088_306620053_0 RECT_OPEN 1.0 1.5 0 0 1
C_306620088_306620148_0 RECT_OPEN 1.0 1.5 0 0 1
C_306620088_306620123_0 RECT_OPEN 1.0 1.5 0 0 1
C_6887795923_5961754417_0 RECT_OPEN 1.0 1.5 0 0 1
C_6887795923_306620177_0 RECT_OPEN 1.0 1.5 0 0 1
C_595767079_306620209_0 RECT_OPEN 1.0 1.5 0 0 1
C_595767079_306620181_0 RECT_OPEN 1.0 1.5 0 0 1
C_595767079_10094586221_0 RECT_OPEN 1.0 1.5 0 0 1
C_306620210_306620753_0 RECT_OPEN 1.0 1.5 0 0 1
C_306620210_306620209_0 RECT_OPEN 1.0 1.5 0 0 1
C_306620210_306620788_0 RECT_OPEN 1.0 1.5 0 0 1
C_306620210_306620879_0 RECT_OPEN 1.0 1.5 0 0 1
C_306620788_306620210_0 RECT_OPEN 1.0 1.5 0 0 1
C_306620788_306620866_0 RECT_OPEN 1.0 1.5 0 0 1
C_306620788_306620833_0 RECT_OPEN 1.0 1.5 0 0 1
C_306620795_306620800_0 RECT_OPEN 1.0 1.5 0 0 1
C_306620795_306620753_0 RECT_OPEN 1.0 1.5 0 0 1
C_306620795_306620763_0 RECT_OPEN 1.0 1.5 0 0 1
C_2414639343_306620753_0 RECT_OPEN 1.0 1.5 0 0 1
C_2414639343_2414635984_0 RECT_OPEN 1.0 1.5 0 0 1
C_2414639343_2414639342_0 RECT_OPEN 1.0 1.5 0 0 1
C_306620833_306620826_0 RECT_OPEN 1.0 1.5 0 0 1
C_306620833_306620788_0 RECT_OPEN 1.0 1.5 0 0 1
C_306620833_306620828_0 RECT_OPEN 1.0 1.5 0 0 1
C_306620800_306620795_0 RECT_OPEN 1.0 1.5 0 0 1
C_306620800_306620804_0 RECT_OPEN 1.0 1.5 0 0 1
C_306620800_306620799_0 RECT_OPEN 1.0 1.5 0 0 1
C_306620804_306620800_0 RECT_OPEN 1.0 1.5 0 0 1
C_306620804_306620826_0 RECT_OPEN 1.0 1.5 0 0 1
C_306620804_306620803_0 RECT_OPEN 1.0 1.5 0 0 1
C_306620826_306620804_0 RECT_OPEN 1.0 1.5 0 0 1
C_306620826_306620833_0 RECT_OPEN 1.0 1.5 0 0 1
C_306620826_306620825_0 RECT_OPEN 1.0 1.5 0 0 1
C_306620870_306620866_0 RECT_OPEN 1.0 1.5 0 0 1
C_306620870_306620859_0 RECT_OPEN 1.0 1.5 0 0 1
C_306620870_306620879_0 RECT_OPEN 1.0 1.5 0 0 1
C_306621104_2387017508_0 RECT_OPEN 1.0 1.5 0 0 1
C_306621104_2447310407_0 RECT_OPEN 1.0 1.5 0 0 1
C_306621104_7432244856_0 RECT_OPEN 1.0 1.5 0 0 1
C_2387017508_306621104_0 RECT_OPEN 1.0 1.5 0 0 1
C_2387017508_6131800547_0 RECT_OPEN 1.0 1.5 0 0 1
C_2447310407_6131800546_0 RECT_OPEN 1.0 1.5 0 0 1
C_2447310407_306621104_0 RECT_OPEN 1.0 1.5 0 0 1
C_2447310407_2447310406_0 RECT_OPEN 1.0 1.5 0 0 1
C_7432244856_7432244857_0 RECT_OPEN 1.0 1.5 0 0 1
C_7432244856_2447310402_0 RECT_OPEN 1.0 1.5 0 0 1
C_7432244856_306621104_0 RECT_OPEN 1.0 1.5 0 0 1
C_306621179_306621180_0 RECT_OPEN 1.0 1.5 0 0 1
C_306621179_2388266816_0 RECT_OPEN 1.0 1.5 0 0 1
C_306621179_13475843621_0 RECT_OPEN 1.0 1.5 0 0 1
C_2388266816_306621179_0 RECT_OPEN 1.0 1.5 0 0 1
C_2388266816_4146211277_0 RECT_OPEN 1.0 1.5 0 0 1
C_2388266816_2388266812_0 RECT_OPEN 1.0 1.5 0 0 1
C_13475843621_2447310402_0 RECT_OPEN 1.0 1.5 0 0 1
C_13475843621_13475843622_0 RECT_OPEN 1.0 1.5 0 0 1
C_13475843621_306621179_0 RECT_OPEN 1.0 1.5 0 0 1
C_6196261543_4146211264_0 RECT_OPEN 1.0 1.5 0 0 1
C_6196261543_306621180_0 RECT_OPEN 1.0 1.5 0 0 1
C_6196261543_6196261542_0 RECT_OPEN 1.0 1.5 0 0 1
C_7432244870_306621180_0 RECT_OPEN 1.0 1.5 0 0 1
C_7432244870_4146211263_0 RECT_OPEN 1.0 1.5 0 0 1
C_7432244870_7432244871_0 RECT_OPEN 1.0 1.5 0 0 1
C_306621229_306621778_0 RECT_OPEN 1.0 1.5 0 0 1
C_306621229_7432244863_0 RECT_OPEN 1.0 1.5 0 0 1
C_306621229_306621270_0 RECT_OPEN 1.0 1.5 0 0 1
C_306621778_306621229_0 RECT_OPEN 1.0 1.5 0 0 1
C_306621778_306621762_0 RECT_OPEN 1.0 1.5 0 0 1
C_306621778_306621809_0 RECT_OPEN 1.0 1.5 0 0 1
C_7432244863_7432244865_0 RECT_OPEN 1.0 1.5 0 0 1
C_7432244863_306621229_0 RECT_OPEN 1.0 1.5 0 0 1
C_7432244863_7432244864_0 RECT_OPEN 1.0 1.5 0 0 1
C_306621270_11431805314_0 RECT_OPEN 1.0 1.5 0 0 1
C_306621270_306621229_0 RECT_OPEN 1.0 1.5 0 0 1
C_306621270_2387127863_0 RECT_OPEN 1.0 1.5 0 0 1
C_2387127863_2388266844_0 RECT_OPEN 1.0 1.5 0 0 1
C_2387127863_306621270_0 RECT_OPEN 1.0 1.5 0 0 1
C_306621271_5267402569_0 RECT_OPEN 1.0 1.5 0 0 1
C_306621271_306621762_0 RECT_OPEN 1.0 1.5 0 0 1
C_306621271_4146211280_0 RECT_OPEN 1.0 1.5 0 0 1
C_5267402569_4146211279_0 RECT_OPEN 1.0 1.5 0 0 1
C_5267402569_306621271_0 RECT_OPEN 1.0 1.5 0 0 1
C_5267402569_5267402570_0 RECT_OPEN 1.0 1.5 0 0 1
C_306621762_306621271_0 RECT_OPEN 1.0 1.5 0 0 1
C_306621762_306621760_0 RECT_OPEN 1.0 1.5 0 0 1
C_306621762_306621778_0 RECT_OPEN 1.0 1.5 0 0 1
C_4146211280_306621271_0 RECT_OPEN 1.0 1.5 0 0 1
C_4146211280_7432244867_0 RECT_OPEN 1.0 1.5 0 0 1
C_4146211280_4146211281_0 RECT_OPEN 1.0 1.5 0 0 1
C_306621654_306622120_0 RECT_OPEN 1.0 1.5 0 0 1
C_306621654_306621921_0 RECT_OPEN 1.0 1.5 0 0 1
C_306621654_306621760_0 RECT_OPEN 1.0 1.5 0 0 1
C_306621921_306621654_0 RECT_OPEN 1.0 1.5 0 0 1
C_306621921_4146211271_0 RECT_OPEN 1.0 1.5 0 0 1
C_306621921_2406084993_0 RECT_OPEN 1.0 1.5 0 0 1
C_306621760_306621762_0 RECT_OPEN 1.0 1.5 0 0 1
C_306621760_306621654_0 RECT_OPEN 1.0 1.5 0 0 1
C_306621760_306621809_0 RECT_OPEN 1.0 1.5 0 0 1
C_4146211271_5267402570_0 RECT_OPEN 1.0 1.5 0 0 1
C_4146211271_306621921_0 RECT_OPEN 1.0 1.5 0 0 1
C_4146211271_4146211261_0 RECT_OPEN 1.0 1.5 0 0 1
C_306622059_306622275_0 RECT_OPEN 1.0 1.5 0 0 1
C_306622059_306622853_0 RECT_OPEN 1.0 1.5 0 0 1
C_306622059_306622844_0 RECT_OPEN 1.0 1.5 0 0 1
C_306622853_306622884_0 RECT_OPEN 1.0 1.5 0 0 1
C_306622853_306622059_0 RECT_OPEN 1.0 1.5 0 0 1
C_306622853_306622845_0 RECT_OPEN 1.0 1.5 0 0 1
C_306622844_306622059_0 RECT_OPEN 1.0 1.5 0 0 1
C_306622157_306622943_0 RECT_OPEN 1.0 1.5 0 0 1
C_306622157_306622953_0 RECT_OPEN 1.0 1.5 0 0 1
C_306622157_306622887_0 RECT_OPEN 1.0 1.5 0 0 1
C_306622157_306622080_0 RECT_OPEN 1.0 1.5 0 0 1
C_6505392518_5267402571_0 RECT_OPEN 1.0 1.5 0 0 1
C_6505392518_5267402571_1 RECT_OPEN 1.0 1.5 0 0 1
C_6505392518_306622120_0 RECT_OPEN 1.0 1.5 0 0 1
C_306622943_306623026_0 RECT_OPEN 1.0 1.5 0 0 1
C_306622943_306622157_0 RECT_OPEN 1.0 1.5 0 0 1
C_306622943_306622963_0 RECT_OPEN 1.0 1.5 0 0 1
C_306622943_306622987_0 RECT_OPEN 1.0 1.5 0 0 1
C_306622953_306622944_0 RECT_OPEN 1.0 1.5 0 0 1
C_306622953_306622158_0 RECT_OPEN 1.0 1.5 0 0 1
C_306622953_306622157_0 RECT_OPEN 1.0 1.5 0 0 1
C_306622244_306622206_0 RECT_OPEN 1.0 1.5 0 0 1
C_306622244_306622275_0 RECT_OPEN 1.0 1.5 0 0 1
C_306622244_306622782_0 RECT_OPEN 1.0 1.5 0 0 1
C_306622782_5267402571_0 RECT_OPEN 1.0 1.5 0 0 1
C_306622782_306622244_0 RECT_OPEN 1.0 1.5 0 0 1
C_306622782_306622206_0 RECT_OPEN 1.0 1.5 0 0 1
C_5267402571_306622782_0 RECT_OPEN 1.0 1.5 0 0 1
C_5267402571_6505392518_0 RECT_OPEN 1.0 1.5 0 0 1
C_5267402571_6505392518_1 RECT_OPEN 1.0 1.5 0 0 1
C_306622845_306622934_0 RECT_OPEN 1.0 1.5 0 0 1
C_306622845_306622967_0 RECT_OPEN 1.0 1.5 0 0 1
C_306622845_306622853_0 RECT_OPEN 1.0 1.5 0 0 1
C_306622934_306622845_0 RECT_OPEN 1.0 1.5 0 0 1
C_306622934_306623034_0 RECT_OPEN 1.0 1.5 0 0 1
C_306622934_1054699509_0 RECT_OPEN 1.0 1.5 0 0 1
C_306622967_1054699489_0 RECT_OPEN 1.0 1.5 0 0 1
C_306622967_306622845_0 RECT_OPEN 1.0 1.5 0 0 1
C_306622967_1054699537_0 RECT_OPEN 1.0 1.5 0 0 1
C_306622884_306622935_0 RECT_OPEN 1.0 1.5 0 0 1
C_306622884_306622853_0 RECT_OPEN 1.0 1.5 0 0 1
C_306622884_1054699509_0 RECT_OPEN 1.0 1.5 0 0 1
C_306622935_306622887_0 RECT_OPEN 1.0 1.5 0 0 1
C_306622935_306622884_0 RECT_OPEN 1.0 1.5 0 0 1
C_306622935_306622987_0 RECT_OPEN 1.0 1.5 0 0 1
C_1054699509_306622934_0 RECT_OPEN 1.0 1.5 0 0 1
C_1054699509_306622884_0 RECT_OPEN 1.0 1.5 0 0 1
C_1054699509_306623000_0 RECT_OPEN 1.0 1.5 0 0 1
C_306623034_306622934_0 RECT_OPEN 1.0 1.5 0 0 1
C_306623034_306623026_0 RECT_OPEN 1.0 1.5 0 0 1
C_306623034_306623000_0 RECT_OPEN 1.0 1.5 0 0 1
C_306622987_306622943_0 RECT_OPEN 1.0 1.5 0 0 1
C_306622987_306622935_0 RECT_OPEN 1.0 1.5 0 0 1
C_306622987_306623023_0 RECT_OPEN 1.0 1.5 0 0 1
C_306623026_306623034_0 RECT_OPEN 1.0 1.5 0 0 1
C_306623026_306622943_0 RECT_OPEN 1.0 1.5 0 0 1
C_306623026_306623023_0 RECT_OPEN 1.0 1.5 0 0 1
C_306622963_306622973_0 RECT_OPEN 1.0 1.5 0 0 1
C_306622963_306622943_0 RECT_OPEN 1.0 1.5 0 0 1
C_306622963_1054699537_0 RECT_OPEN 1.0 1.5 0 0 1
C_306622944_306622973_0 RECT_OPEN 1.0 1.5 0 0 1
C_306622944_1054699551_0 RECT_OPEN 1.0 1.5 0 0 1
C_306622944_306622953_0 RECT_OPEN 1.0 1.5 0 0 1
C_306622973_306622944_0 RECT_OPEN 1.0 1.5 0 0 1
C_306622973_306622963_0 RECT_OPEN 1.0 1.5 0 0 1
C_306622973_306622975_0 RECT_OPEN 1.0 1.5 0 0 1
C_1054699551_1054699489_0 RECT_OPEN 1.0 1.5 0 0 1
C_1054699551_306622944_0 RECT_OPEN 1.0 1.5 0 0 1
C_1054699551_306622975_0 RECT_OPEN 1.0 1.5 0 0 1
C_1054699537_306622967_0 RECT_OPEN 1.0 1.5 0 0 1
C_1054699537_306622963_0 RECT_OPEN 1.0 1.5 0 0 1
C_1054699537_306622975_0 RECT_OPEN 1.0 1.5 0 0 1
C_306622975_306622973_0 RECT_OPEN 1.0 1.5 0 0 1
C_306622975_1054699537_0 RECT_OPEN 1.0 1.5 0 0 1
C_306622975_1054699551_0 RECT_OPEN 1.0 1.5 0 0 1
C_306623023_306623000_0 RECT_OPEN 1.0 1.5 0 0 1
C_306623023_306622987_0 RECT_OPEN 1.0 1.5 0 0 1
C_306623023_306623026_0 RECT_OPEN 1.0 1.5 0 0 1
C_306623000_1054699509_0 RECT_OPEN 1.0 1.5 0 0 1
C_306623000_306623023_0 RECT_OPEN 1.0 1.5 0 0 1
C_306623000_306623034_0 RECT_OPEN 1.0 1.5 0 0 1
C_836238547_10001905133_0 RECT_OPEN 1.0 1.5 0 0 1
C_836238547_3549124910_0 RECT_OPEN 1.0 1.5 0 0 1
C_836238547_306623066_0 RECT_OPEN 1.0 1.5 0 0 1
C_836238547_10001905132_0 RECT_OPEN 1.0 1.5 0 0 1
C_3549124825_306623098_0 RECT_OPEN 1.0 1.5 0 0 1
C_3549124825_306623540_0 RECT_OPEN 1.0 1.5 0 0 1
C_3549124825_3549124822_0 RECT_OPEN 1.0 1.5 0 0 1
C_306623144_306623172_0 RECT_OPEN 1.0 1.5 0 0 1
C_306623144_306623288_0 RECT_OPEN 1.0 1.5 0 0 1
C_306623144_306623098_0 RECT_OPEN 1.0 1.5 0 0 1
C_3549124908_3549124909_0 RECT_OPEN 1.0 1.5 0 0 1
C_3549124908_3549124822_0 RECT_OPEN 1.0 1.5 0 0 1
C_3549124908_306623098_0 RECT_OPEN 1.0 1.5 0 0 1
C_306623127_5267402561_0 RECT_OPEN 1.0 1.5 0 0 1
C_306623127_7432244880_0 RECT_OPEN 1.0 1.5 0 0 1
C_306623127_2407671508_0 RECT_OPEN 1.0 1.5 0 0 1
C_5267402561_306623127_0 RECT_OPEN 1.0 1.5 0 0 1
C_5267402561_306623172_0 RECT_OPEN 1.0 1.5 0 0 1
C_5267402561_5267402562_0 RECT_OPEN 1.0 1.5 0 0 1
C_7432244880_5267402562_0 RECT_OPEN 1.0 1.5 0 0 1
C_7432244880_3298878307_0 RECT_OPEN 1.0 1.5 0 0 1
C_7432244880_306623127_0 RECT_OPEN 1.0 1.5 0 0 1
C_306623172_5267402561_0 RECT_OPEN 1.0 1.5 0 0 1
C_306623172_306623144_0 RECT_OPEN 1.0 1.5 0 0 1
C_306623172_7432244881_0 RECT_OPEN 1.0 1.5 0 0 1
C_306623288_306623545_0 RECT_OPEN 1.0 1.5 0 0 1
C_306623288_306623144_0 RECT_OPEN 1.0 1.5 0 0 1
C_306623288_306623346_0 RECT_OPEN 1.0 1.5 0 0 1
C_306623366_306623347_0 RECT_OPEN 1.0 1.5 0 0 1
C_306623366_306623149_0 RECT_OPEN 1.0 1.5 0 0 1
C_306623366_306623614_0 RECT_OPEN 1.0 1.5 0 0 1
C_306623366_306623579_0 RECT_OPEN 1.0 1.5 0 0 1
C_306623545_306623288_0 RECT_OPEN 1.0 1.5 0 0 1
C_306623545_306623579_0 RECT_OPEN 1.0 1.5 0 0 1
C_306623545_306623149_0 RECT_OPEN 1.0 1.5 0 0 1
C_306623545_306623540_0 RECT_OPEN 1.0 1.5 0 0 1
C_7432244881_306623250_0 RECT_OPEN 1.0 1.5 0 0 1
C_7432244881_306623172_0 RECT_OPEN 1.0 1.5 0 0 1
C_7432244881_5267402562_0 RECT_OPEN 1.0 1.5 0 0 1
C_306623250_7432244881_0 RECT_OPEN 1.0 1.5 0 0 1
C_306623250_306623289_0 RECT_OPEN 1.0 1.5 0 0 1
C_306623250_6143210298_0 RECT_OPEN 1.0 1.5 0 0 1
C_306623250_6567395226_0 RECT_OPEN 1.0 1.5 0 0 1
C_306623289_306623346_0 RECT_OPEN 1.0 1.5 0 0 1
C_306623289_306623250_0 RECT_OPEN 1.0 1.5 0 0 1
C_306623289_306626269_0 RECT_OPEN 1.0 1.5 0 0 1
C_6143210298_6567395238_0 RECT_OPEN 1.0 1.5 0 0 1
C_6143210298_306623250_0 RECT_OPEN 1.0 1.5 0 0 1
C_6143210298_6567395227_0 RECT_OPEN 1.0 1.5 0 0 1
C_6567395226_5267402562_0 RECT_OPEN 1.0 1.5 0 0 1
C_6567395226_6567395227_0 RECT_OPEN 1.0 1.5 0 0 1
C_6567395226_11865527609_0 RECT_OPEN 1.0 1.5 0 0 1
C_6567395226_306623250_0 RECT_OPEN 1.0 1.5 0 0 1
C_306623252_306626269_0 RECT_OPEN 1.0 1.5 0 0 1
C_306623252_6567395231_0 RECT_OPEN 1.0 1.5 0 0 1
C_306623252_306626271_0 RECT_OPEN 1.0 1.5 0 0 1
C_306626269_306623347_0 RECT_OPEN 1.0 1.5 0 0 1
C_306626269_306623289_0 RECT_OPEN 1.0 1.5 0 0 1
C_306626269_306623252_0 RECT_OPEN 1.0 1.5 0 0 1
C_6567395231_306623252_0 RECT_OPEN 1.0 1.5 0 0 1
C_6567395231_6567395235_0 RECT_OPEN 1.0 1.5 0 0 1
C_6567395231_12174205245_0 RECT_OPEN 1.0 1.5 0 0 1
C_306623346_306623288_0 RECT_OPEN 1.0 1.5 0 0 1
C_306623346_306623289_0 RECT_OPEN 1.0 1.5 0 0 1
C_306623346_306623579_0 RECT_OPEN 1.0 1.5 0 0 1
C_306623579_306623366_0 RECT_OPEN 1.0 1.5 0 0 1
C_306623579_306623346_0 RECT_OPEN 1.0 1.5 0 0 1
C_306623579_306623545_0 RECT_OPEN 1.0 1.5 0 0 1
C_306623646_306623347_0 RECT_OPEN 1.0 1.5 0 0 1
C_306623646_306623642_0 RECT_OPEN 1.0 1.5 0 0 1
C_306623646_306623514_0 RECT_OPEN 1.0 1.5 0 0 1
C_306623614_306623632_0 RECT_OPEN 1.0 1.5 0 0 1
C_306623614_306623366_0 RECT_OPEN 1.0 1.5 0 0 1
C_306623614_306623631_0 RECT_OPEN 1.0 1.5 0 0 1
C_306623368_306623367_0 RECT_OPEN 1.0 1.5 0 0 1
C_306623368_306623673_0 RECT_OPEN 1.0 1.5 0 0 1
C_306623368_306623514_0 RECT_OPEN 1.0 1.5 0 0 1
C_306624836_306624820_0 RECT_OPEN 1.0 1.5 0 0 1
C_306624836_306624943_0 RECT_OPEN 1.0 1.5 0 0 1
C_306624836_306623367_0 RECT_OPEN 1.0 1.5 0 0 1
C_306623514_306623640_0 RECT_OPEN 1.0 1.5 0 0 1
C_306623514_306623368_0 RECT_OPEN 1.0 1.5 0 0 1
C_306623514_306623646_0 RECT_OPEN 1.0 1.5 0 0 1
C_306623471_306623640_0 RECT_OPEN 1.0 1.5 0 0 1
C_306623471_10094529583_0 RECT_OPEN 1.0 1.5 0 0 1
C_306623471_306624820_0 RECT_OPEN 1.0 1.5 0 0 1
C_306623640_306623471_0 RECT_OPEN 1.0 1.5 0 0 1
C_306623640_306623514_0 RECT_OPEN 1.0 1.5 0 0 1
C_306623640_10094529584_0 RECT_OPEN 1.0 1.5 0 0 1
C_10094529583_10094529584_0 RECT_OPEN 1.0 1.5 0 0 1
C_10094529583_1468908333_0 RECT_OPEN 1.0 1.5 0 0 1
C_10094529583_306623471_0 RECT_OPEN 1.0 1.5 0 0 1
C_306623540_3549124825_0 RECT_OPEN 1.0 1.5 0 0 1
C_306623540_836238514_0 RECT_OPEN 1.0 1.5 0 0 1
C_306623540_306623545_0 RECT_OPEN 1.0 1.5 0 0 1
C_836238514_306623540_0 RECT_OPEN 1.0 1.5 0 0 1
C_836238514_836238509_0 RECT_OPEN 1.0 1.5 0 0 1
C_836238514_836238551_0 RECT_OPEN 1.0 1.5 0 0 1
C_306623632_306623673_0 RECT_OPEN 1.0 1.5 0 0 1
C_306623632_306623614_0 RECT_OPEN 1.0 1.5 0 0 1
C_306623632_10094529579_0 RECT_OPEN 1.0 1.5 0 0 1
C_306623633_306623631_0 RECT_OPEN 1.0 1.5 0 0 1
C_306623633_10094529579_0 RECT_OPEN 1.0 1.5 0 0 1
C_306623633_836238561_0 RECT_OPEN 1.0 1.5 0 0 1
C_836238561_3549123729_0 RECT_OPEN 1.0 1.5 0 0 1
C_836238561_5267369424_0 RECT_OPEN 1.0 1.5 0 0 1
C_836238561_5267369424_1 RECT_OPEN 1.0 1.5 0 0 1
C_836238561_306623633_0 RECT_OPEN 1.0 1.5 0 0 1
C_10094529584_6193921852_0 RECT_OPEN 1.0 1.5 0 0 1
C_10094529584_306623640_0 RECT_OPEN 1.0 1.5 0 0 1
C_10094529584_10094529583_0 RECT_OPEN 1.0 1.5 0 0 1
C_306623642_6193921852_0 RECT_OPEN 1.0 1.5 0 0 1
C_306623642_6193921851_0 RECT_OPEN 1.0 1.5 0 0 1
C_306623642_306623646_0 RECT_OPEN 1.0 1.5 0 0 1
C_6193921852_306623642_0 RECT_OPEN 1.0 1.5 0 0 1
C_6193921852_10094529584_0 RECT_OPEN 1.0 1.5 0 0 1
C_6193921852_10094529581_0 RECT_OPEN 1.0 1.5 0 0 1
C_6193921851_306623648_0 RECT_OPEN 1.0 1.5 0 0 1
C_6193921851_306623642_0 RECT_OPEN 1.0 1.5 0 0 1
C_6193921851_6193921850_0 RECT_OPEN 1.0 1.5 0 0 1
C_1468908333_306625687_0 RECT_OPEN 1.0 1.5 0 0 1
C_1468908333_6193921850_0 RECT_OPEN 1.0 1.5 0 0 1
C_1468908333_306623648_0 RECT_OPEN 1.0 1.5 0 0 1
C_1468908333_10094529583_0 RECT_OPEN 1.0 1.5 0 0 1
C_306623783_4377707469_0 RECT_OPEN 1.0 1.5 0 0 1
C_306623783_2387012139_0 RECT_OPEN 1.0 1.5 0 0 1
C_306623783_1488526923_0 RECT_OPEN 1.0 1.5 0 0 1
C_4377707469_306623783_0 RECT_OPEN 1.0 1.5 0 0 1
C_4377707469_4377707475_0 RECT_OPEN 1.0 1.5 0 0 1
C_4377707469_4377707474_0 RECT_OPEN 1.0 1.5 0 0 1
C_2387012139_306623783_0 RECT_OPEN 1.0 1.5 0 0 1
C_2387012139_6152326682_0 RECT_OPEN 1.0 1.5 0 0 1
C_1488526923_1488526919_0 RECT_OPEN 1.0 1.5 0 0 1
C_1488526923_1488526894_0 RECT_OPEN 1.0 1.5 0 0 1
C_1488526923_1488526889_0 RECT_OPEN 1.0 1.5 0 0 1
C_1488526923_306623783_0 RECT_OPEN 1.0 1.5 0 0 1
C_306625001_306624837_0 RECT_OPEN 1.0 1.5 0 0 1
C_306625001_306624796_0 RECT_OPEN 1.0 1.5 0 0 1
C_306625001_306625106_0 RECT_OPEN 1.0 1.5 0 0 1
C_306625001_306625286_0 RECT_OPEN 1.0 1.5 0 0 1
C_306624987_306625194_0 RECT_OPEN 1.0 1.5 0 0 1
C_306624987_306624796_0 RECT_OPEN 1.0 1.5 0 0 1
C_306624987_306625286_0 RECT_OPEN 1.0 1.5 0 0 1
C_306625124_306624796_0 RECT_OPEN 1.0 1.5 0 0 1
C_306625124_7467099419_0 RECT_OPEN 1.0 1.5 0 0 1
C_306625124_306625106_0 RECT_OPEN 1.0 1.5 0 0 1
C_306624943_306624837_0 RECT_OPEN 1.0 1.5 0 0 1
C_306624943_306624836_0 RECT_OPEN 1.0 1.5 0 0 1
C_306624943_306624999_0 RECT_OPEN 1.0 1.5 0 0 1
C_306624837_306625001_0 RECT_OPEN 1.0 1.5 0 0 1
C_306624837_306624842_0 RECT_OPEN 1.0 1.5 0 0 1
C_306624837_306624943_0 RECT_OPEN 1.0 1.5 0 0 1
C_306624842_306624839_0 RECT_OPEN 1.0 1.5 0 0 1
C_306624842_306624837_0 RECT_OPEN 1.0 1.5 0 0 1
C_306624842_306624983_0 RECT_OPEN 1.0 1.5 0 0 1
C_306624983_306624842_0 RECT_OPEN 1.0 1.5 0 0 1
C_306624983_7467099419_0 RECT_OPEN 1.0 1.5 0 0 1
C_306624983_7467099418_0 RECT_OPEN 1.0 1.5 0 0 1
C_306624999_306624988_0 RECT_OPEN 1.0 1.5 0 0 1
C_306624999_306624943_0 RECT_OPEN 1.0 1.5 0 0 1
C_306624999_306625203_0 RECT_OPEN 1.0 1.5 0 0 1
C_306624988_306625194_0 RECT_OPEN 1.0 1.5 0 0 1
C_306624988_306624975_0 RECT_OPEN 1.0 1.5 0 0 1
C_306624988_306624999_0 RECT_OPEN 1.0 1.5 0 0 1
C_7467099419_306625124_0 RECT_OPEN 1.0 1.5 0 0 1
C_7467099419_306624983_0 RECT_OPEN 1.0 1.5 0 0 1
C_7467099419_7467099418_0 RECT_OPEN 1.0 1.5 0 0 1
C_7467099418_306625106_0 RECT_OPEN 1.0 1.5 0 0 1
C_7467099418_306624983_0 RECT_OPEN 1.0 1.5 0 0 1
C_7467099418_7467099419_0 RECT_OPEN 1.0 1.5 0 0 1
C_306625194_306624988_0 RECT_OPEN 1.0 1.5 0 0 1
C_306625194_306624987_0 RECT_OPEN 1.0 1.5 0 0 1
C_306625194_306625203_0 RECT_OPEN 1.0 1.5 0 0 1
C_306625286_306625001_0 RECT_OPEN 1.0 1.5 0 0 1
C_306625286_306625203_0 RECT_OPEN 1.0 1.5 0 0 1
C_306625286_306624987_0 RECT_OPEN 1.0 1.5 0 0 1
C_306625203_306625286_0 RECT_OPEN 1.0 1.5 0 0 1
C_306625203_306624999_0 RECT_OPEN 1.0 1.5 0 0 1
C_306625203_306625194_0 RECT_OPEN 1.0 1.5 0 0 1
C_306625106_7467099418_0 RECT_OPEN 1.0 1.5 0 0 1
C_306625106_306625001_0 RECT_OPEN 1.0 1.5 0 0 1
C_306625106_306625124_0 RECT_OPEN 1.0 1.5 0 0 1
C_306626042_306625751_0 RECT_OPEN 1.0 1.5 0 0 1
C_306626042_306625528_0 RECT_OPEN 1.0 1.5 0 0 1
C_306626042_306626117_0 RECT_OPEN 1.0 1.5 0 0 1
C_306626118_306626117_0 RECT_OPEN 1.0 1.5 0 0 1
C_306626118_306625528_0 RECT_OPEN 1.0 1.5 0 0 1
C_306626118_306626116_0 RECT_OPEN 1.0 1.5 0 0 1
C_306625656_622363166_0 RECT_OPEN 1.0 1.5 0 0 1
C_306625656_306626245_0 RECT_OPEN 1.0 1.5 0 0 1
C_306625656_306626120_0 RECT_OPEN 1.0 1.5 0 0 1
C_622363166_306625656_0 RECT_OPEN 1.0 1.5 0 0 1
C_622363166_306625687_0 RECT_OPEN 1.0 1.5 0 0 1
C_622363166_622363165_0 RECT_OPEN 1.0 1.5 0 0 1
C_306626245_306626127_0 RECT_OPEN 1.0 1.5 0 0 1
C_306626245_306625656_0 RECT_OPEN 1.0 1.5 0 0 1
C_306626245_622363165_0 RECT_OPEN 1.0 1.5 0 0 1
C_306626120_306625656_0 RECT_OPEN 1.0 1.5 0 0 1
C_306626120_306625695_0 RECT_OPEN 1.0 1.5 0 0 1
C_306626120_306626041_0 RECT_OPEN 1.0 1.5 0 0 1
C_306625687_306626041_0 RECT_OPEN 1.0 1.5 0 0 1
C_306625687_1468908333_0 RECT_OPEN 1.0 1.5 0 0 1
C_306625687_306626116_0 RECT_OPEN 1.0 1.5 0 0 1
C_306625687_622363166_0 RECT_OPEN 1.0 1.5 0 0 1
C_306626041_306625687_0 RECT_OPEN 1.0 1.5 0 0 1
C_306626041_306626044_0 RECT_OPEN 1.0 1.5 0 0 1
C_306626041_306626120_0 RECT_OPEN 1.0 1.5 0 0 1
C_306626116_306626044_0 RECT_OPEN 1.0 1.5 0 0 1
C_306626116_306626118_0 RECT_OPEN 1.0 1.5 0 0 1
C_306626116_306625687_0 RECT_OPEN 1.0 1.5 0 0 1
C_2414635985_2414635986_0 RECT_OPEN 1.0 1.5 0 0 1
C_2414635985_306625695_0 RECT_OPEN 1.0 1.5 0 0 1
C_2414635985_306625994_0 RECT_OPEN 1.0 1.5 0 0 1
C_306625812_306625861_0 RECT_OPEN 1.0 1.5 0 0 1
C_306625812_306625696_0 RECT_OPEN 1.0 1.5 0 0 1
C_306625812_306625695_0 RECT_OPEN 1.0 1.5 0 0 1
C_306625696_2414635986_0 RECT_OPEN 1.0 1.5 0 0 1
C_306625696_306625946_0 RECT_OPEN 1.0 1.5 0 0 1
C_306625696_306625812_0 RECT_OPEN 1.0 1.5 0 0 1
C_2414635986_306626040_0 RECT_OPEN 1.0 1.5 0 0 1
C_2414635986_306625696_0 RECT_OPEN 1.0 1.5 0 0 1
C_2414635986_2414635985_0 RECT_OPEN 1.0 1.5 0 0 1
C_306625946_306625919_0 RECT_OPEN 1.0 1.5 0 0 1
C_306625946_306625861_0 RECT_OPEN 1.0 1.5 0 0 1
C_306625946_306625696_0 RECT_OPEN 1.0 1.5 0 0 1
C_306625751_10094529594_0 RECT_OPEN 1.0 1.5 0 0 1
C_306625751_306626042_0 RECT_OPEN 1.0 1.5 0 0 1
C_306625751_306625994_0 RECT_OPEN 1.0 1.5 0 0 1
C_306625751_1469644202_0 RECT_OPEN 1.0 1.5 0 0 1
C_10094529594_10994556964_0 RECT_OPEN 1.0 1.5 0 0 1
C_10094529594_306625751_0 RECT_OPEN 1.0 1.5 0 0 1
C_306625994_306626040_0 RECT_OPEN 1.0 1.5 0 0 1
C_306625994_2414635985_0 RECT_OPEN 1.0 1.5 0 0 1
C_306625994_306625751_0 RECT_OPEN 1.0 1.5 0 0 1
C_306625818_306625861_0 RECT_OPEN 1.0 1.5 0 0 1
C_306625818_306625759_0 RECT_OPEN 1.0 1.5 0 0 1
C_306625818_6195583528_0 RECT_OPEN 1.0 1.5 0 0 1
C_306625861_306625812_0 RECT_OPEN 1.0 1.5 0 0 1
C_306625861_306625818_0 RECT_OPEN 1.0 1.5 0 0 1
C_306625861_306625946_0 RECT_OPEN 1.0 1.5 0 0 1
C_6195583528_306625916_0 RECT_OPEN 1.0 1.5 0 0 1
C_6195583528_306625818_0 RECT_OPEN 1.0 1.5 0 0 1
C_6195583528_6195583527_0 RECT_OPEN 1.0 1.5 0 0 1
C_306625912_6195583527_0 RECT_OPEN 1.0 1.5 0 0 1
C_306625912_306625916_0 RECT_OPEN 1.0 1.5 0 0 1
C_306625912_2414635979_0 RECT_OPEN 1.0 1.5 0 0 1
C_6195583527_306625912_0 RECT_OPEN 1.0 1.5 0 0 1
C_6195583527_306625919_0 RECT_OPEN 1.0 1.5 0 0 1
C_6195583527_6195583528_0 RECT_OPEN 1.0 1.5 0 0 1
C_306625916_6195583528_0 RECT_OPEN 1.0 1.5 0 0 1
C_306625916_306625912_0 RECT_OPEN 1.0 1.5 0 0 1
C_306625916_6130692320_0 RECT_OPEN 1.0 1.5 0 0 1
C_2414635979_2414635978_0 RECT_OPEN 1.0 1.5 0 0 1
C_2414635979_2414635981_0 RECT_OPEN 1.0 1.5 0 0 1
C_2414635979_306625912_0 RECT_OPEN 1.0 1.5 0 0 1
C_6130692320_6567100315_0 RECT_OPEN 1.0 1.5 0 0 1
C_6130692320_7432382395_0 RECT_OPEN 1.0 1.5 0 0 1
C_6130692320_306625916_0 RECT_OPEN 1.0 1.5 0 0 1
C_306625919_6195583527_0 RECT_OPEN 1.0 1.5 0 0 1
C_306625919_306625946_0 RECT_OPEN 1.0 1.5 0 0 1
C_306625919_2414635981_0 RECT_OPEN 1.0 1.5 0 0 1
C_2414635981_306625927_0 RECT_OPEN 1.0 1.5 0 0 1
C_2414635981_306625919_0 RECT_OPEN 1.0 1.5 0 0 1
C_2414635981_2414635979_0 RECT_OPEN 1.0 1.5 0 0 1
C_2414635981_306626040_0 RECT_OPEN 1.0 1.5 0 0 1
C_306625927_306625980_0 RECT_OPEN 1.0 1.5 0 0 1
C_306625927_2414635981_0 RECT_OPEN 1.0 1.5 0 0 1
C_306625927_2273437034_0 RECT_OPEN 1.0 1.5 0 0 1
C_306625980_306625927_0 RECT_OPEN 1.0 1.5 0 0 1
C_306625980_10994556964_0 RECT_OPEN 1.0 1.5 0 0 1
C_306625980_306626040_0 RECT_OPEN 1.0 1.5 0 0 1
C_2273437034_306625927_0 RECT_OPEN 1.0 1.5 0 0 1
C_2273437034_2019288832_0 RECT_OPEN 1.0 1.5 0 0 1
C_2273437034_2414635978_0 RECT_OPEN 1.0 1.5 0 0 1
C_10994556964_306625980_0 RECT_OPEN 1.0 1.5 0 0 1
C_10994556964_10094529594_0 RECT_OPEN 1.0 1.5 0 0 1
C_10994556964_10994556963_0 RECT_OPEN 1.0 1.5 0 0 1
C_306626040_306625980_0 RECT_OPEN 1.0 1.5 0 0 1
C_306626040_2414635986_0 RECT_OPEN 1.0 1.5 0 0 1
C_306626040_2414635981_0 RECT_OPEN 1.0 1.5 0 0 1
C_306626040_306625994_0 RECT_OPEN 1.0 1.5 0 0 1
C_306626044_306626117_0 RECT_OPEN 1.0 1.5 0 0 1
C_306626044_306626041_0 RECT_OPEN 1.0 1.5 0 0 1
C_306626044_306626116_0 RECT_OPEN 1.0 1.5 0 0 1
C_306626117_306626042_0 RECT_OPEN 1.0 1.5 0 0 1
C_306626117_306626044_0 RECT_OPEN 1.0 1.5 0 0 1
C_306626117_306626118_0 RECT_OPEN 1.0 1.5 0 0 1
C_622363165_306626245_0 RECT_OPEN 1.0 1.5 0 0 1
C_622363165_622363166_0 RECT_OPEN 1.0 1.5 0 0 1
C_622363165_622363164_0 RECT_OPEN 1.0 1.5 0 0 1
C_6567395234_12174205245_0 RECT_OPEN 1.0 1.5 0 0 1
C_6567395234_306626271_0 RECT_OPEN 1.0 1.5 0 0 1
C_6567395234_6567395237_0 RECT_OPEN 1.0 1.5 0 0 1
C_313460313_1473871929_0 RECT_OPEN 1.0 1.5 0 0 1
C_313460313_10081725591_0 RECT_OPEN 1.0 1.5 0 0 1
C_313460313_313460308_0 RECT_OPEN 1.0 1.5 0 0 1
C_313460313_1488556131_0 RECT_OPEN 1.0 1.5 0 0 1
C_1488556150_10094580889_0 RECT_OPEN 1.0 1.5 0 0 1
C_1488556150_1473871959_0 RECT_OPEN 1.0 1.5 0 0 1
C_1488556150_313460308_0 RECT_OPEN 1.0 1.5 0 0 1
C_1473871929_1473871927_0 RECT_OPEN 1.0 1.5 0 0 1
C_1473871929_313460313_0 RECT_OPEN 1.0 1.5 0 0 1
C_1473871929_5267823521_0 RECT_OPEN 1.0 1.5 0 0 1
C_10081725591_313460313_0 RECT_OPEN 1.0 1.5 0 0 1
C_10081725591_10848086334_0 RECT_OPEN 1.0 1.5 0 0 1
C_10081725591_10081725592_0 RECT_OPEN 1.0 1.5 0 0 1
C_1488556131_1473871927_0 RECT_OPEN 1.0 1.5 0 0 1
C_1488556131_10094580887_0 RECT_OPEN 1.0 1.5 0 0 1
C_1488556131_313460313_0 RECT_OPEN 1.0 1.5 0 0 1
C_313460396_3161269199_0 RECT_OPEN 1.0 1.5 0 0 1
C_313460396_3161268847_0 RECT_OPEN 1.0 1.5 0 0 1
C_3161269199_313460398_0 RECT_OPEN 1.0 1.5 0 0 1
C_3161269199_313460396_0 RECT_OPEN 1.0 1.5 0 0 1
C_3161269199_3161269197_0 RECT_OPEN 1.0 1.5 0 0 1
C_3161268847_313460396_0 RECT_OPEN 1.0 1.5 0 0 1
C_3161268847_10081725549_0 RECT_OPEN 1.0 1.5 0 0 1
C_313460398_3096683823_0 RECT_OPEN 1.0 1.5 0 0 1
C_313460398_3161269199_0 RECT_OPEN 1.0 1.5 0 0 1
C_313460398_1473871961_0 RECT_OPEN 1.0 1.5 0 0 1
C_3096683823_3161269196_0 RECT_OPEN 1.0 1.5 0 0 1
C_3096683823_313460398_0 RECT_OPEN 1.0 1.5 0 0 1
C_3096683823_1473871941_0 RECT_OPEN 1.0 1.5 0 0 1
C_3096683823_6901563123_0 RECT_OPEN 1.0 1.5 0 0 1
C_1473871961_1473871941_0 RECT_OPEN 1.0 1.5 0 0 1
C_1473871961_313460398_0 RECT_OPEN 1.0 1.5 0 0 1
C_1473871961_3096683821_0 RECT_OPEN 1.0 1.5 0 0 1
C_5267835373_3504342593_0 RECT_OPEN 1.0 1.5 0 0 1
C_5267835373_313460477_0 RECT_OPEN 1.0 1.5 0 0 1
C_5267835373_1417443517_0 RECT_OPEN 1.0 1.5 0 0 1
C_313460484_313460485_0 RECT_OPEN 1.0 1.5 0 0 1
C_313460484_1417443652_0 RECT_OPEN 1.0 1.5 0 0 1
C_313460484_313460550_0 RECT_OPEN 1.0 1.5 0 0 1
C_313460484_313460477_0 RECT_OPEN 1.0 1.5 0 0 1
C_313460485_1417443629_0 RECT_OPEN 1.0 1.5 0 0 1
C_313460485_313460484_0 RECT_OPEN 1.0 1.5 0 0 1
C_313460485_10081706680_0 RECT_OPEN 1.0 1.5 0 0 1
C_1417443652_6528148971_0 RECT_OPEN 1.0 1.5 0 0 1
C_1417443652_313460484_0 RECT_OPEN 1.0 1.5 0 0 1
C_1417443652_1417443633_0 RECT_OPEN 1.0 1.5 0 0 1
C_313460550_313460484_0 RECT_OPEN 1.0 1.5 0 0 1
C_313460550_6528148964_0 RECT_OPEN 1.0 1.5 0 0 1
C_313460550_10081706678_0 RECT_OPEN 1.0 1.5 0 0 1
C_1417443629_1417443628_0 RECT_OPEN 1.0 1.5 0 0 1
C_1417443629_313460485_0 RECT_OPEN 1.0 1.5 0 0 1
C_1417443629_1417443633_0 RECT_OPEN 1.0 1.5 0 0 1
C_10081706680_313460485_0 RECT_OPEN 1.0 1.5 0 0 1
C_6528148964_1417443584_0 RECT_OPEN 1.0 1.5 0 0 1
C_6528148964_6528148963_0 RECT_OPEN 1.0 1.5 0 0 1
C_6528148964_313460550_0 RECT_OPEN 1.0 1.5 0 0 1
C_10081706678_10081706679_0 RECT_OPEN 1.0 1.5 0 0 1
C_10081706678_313460550_0 RECT_OPEN 1.0 1.5 0 0 1
C_10081706678_6528148966_0 RECT_OPEN 1.0 1.5 0 0 1
C_313460551_2450399408_0 RECT_OPEN 1.0 1.5 0 0 1
C_313460551_2450399406_0 RECT_OPEN 1.0 1.5 0 0 1
C_313460551_747660349_0 RECT_OPEN 1.0 1.5 0 0 1
C_2450399408_313460551_0 RECT_OPEN 1.0 1.5 0 0 1
C_2450399408_2450399416_0 RECT_OPEN 1.0 1.5 0 0 1
C_2450399408_2450399435_0 RECT_OPEN 1.0 1.5 0 0 1
C_2450399406_313460551_0 RECT_OPEN 1.0 1.5 0 0 1
C_2450399406_13152778980_0 RECT_OPEN 1.0 1.5 0 0 1
C_2450399406_2450399417_0 RECT_OPEN 1.0 1.5 0 0 1
C_2450399406_2450399435_0 RECT_OPEN 1.0 1.5 0 0 1
C_348036183_3149541717_0 RECT_OPEN 1.0 1.5 0 0 1
C_348036183_3149541720_0 RECT_OPEN 1.0 1.5 0 0 1
C_348036183_7327251302_0 RECT_OPEN 1.0 1.5 0 0 1
C_3149541717_348036183_0 RECT_OPEN 1.0 1.5 0 0 1
C_3149541720_7327251302_0 RECT_OPEN 1.0 1.5 0 0 1
C_3149541720_348036183_0 RECT_OPEN 1.0 1.5 0 0 1
C_3149541720_1473826428_0 RECT_OPEN 1.0 1.5 0 0 1
C_7327251302_1481354885_0 RECT_OPEN 1.0 1.5 0 0 1
C_7327251302_3149541720_0 RECT_OPEN 1.0 1.5 0 0 1
C_7327251302_348036183_0 RECT_OPEN 1.0 1.5 0 0 1
C_417298245_4918203529_0 RECT_OPEN 1.0 1.5 0 0 1
C_417298245_1471714437_0 RECT_OPEN 1.0 1.5 0 0 1
C_417298245_1481366487_0 RECT_OPEN 1.0 1.5 0 0 1
C_4918203529_417298245_0 RECT_OPEN 1.0 1.5 0 0 1
C_4918203529_4918188101_0 RECT_OPEN 1.0 1.5 0 0 1
C_4918203529_4918203528_0 RECT_OPEN 1.0 1.5 0 0 1
C_1471714437_6518859320_0 RECT_OPEN 1.0 1.5 0 0 1
C_1471714437_4918188103_0 RECT_OPEN 1.0 1.5 0 0 1
C_1471714437_417298245_0 RECT_OPEN 1.0 1.5 0 0 1
C_1481366487_417298245_0 RECT_OPEN 1.0 1.5 0 0 1
C_1481366487_6130764691_0 RECT_OPEN 1.0 1.5 0 0 1
C_650140575_650141428_0 RECT_OPEN 1.0 1.5 0 0 1
C_650140575_2400167287_0 RECT_OPEN 1.0 1.5 0 0 1
C_650140575_650141087_0 RECT_OPEN 1.0 1.5 0 0 1
C_650141428_650140575_0 RECT_OPEN 1.0 1.5 0 0 1
C_650141428_2385141385_0 RECT_OPEN 1.0 1.5 0 0 1
C_2400167287_650140575_0 RECT_OPEN 1.0 1.5 0 0 1
C_2400167287_2400167301_0 RECT_OPEN 1.0 1.5 0 0 1
C_2400167287_2406084997_0 RECT_OPEN 1.0 1.5 0 0 1
C_650141087_2400167301_0 RECT_OPEN 1.0 1.5 0 0 1
C_650141087_1653906408_0 RECT_OPEN 1.0 1.5 0 0 1
C_650141020_2385141385_0 RECT_OPEN 1.0 1.5 0 0 1
C_650141020_2387017507_0 RECT_OPEN 1.0 1.5 0 0 1
C_650141020_650140575_0 RECT_OPEN 1.0 1.5 0 0 1
C_2385141385_650141020_0 RECT_OPEN 1.0 1.5 0 0 1
C_2385141385_1645178560_0 RECT_OPEN 1.0 1.5 0 0 1
C_2387017507_650141020_0 RECT_OPEN 1.0 1.5 0 0 1
C_2387017507_2400167287_0 RECT_OPEN 1.0 1.5 0 0 1
C_2387017507_6130226927_0 RECT_OPEN 1.0 1.5 0 0 1
C_1653906408_1608973468_0 RECT_OPEN 1.0 1.5 0 0 1
C_1653906408_1653906433_0 RECT_OPEN 1.0 1.5 0 0 1
C_747660340_3235639712_0 RECT_OPEN 1.0 1.5 0 0 1
C_747660340_2389119100_0 RECT_OPEN 1.0 1.5 0 0 1
C_3235639712_1417443557_0 RECT_OPEN 1.0 1.5 0 0 1
C_3235639712_10081671392_0 RECT_OPEN 1.0 1.5 0 0 1
C_2389119100_3235639716_0 RECT_OPEN 1.0 1.5 0 0 1
C_2389119100_10081671376_0 RECT_OPEN 1.0 1.5 0 0 1
C_2389119100_747660340_0 RECT_OPEN 1.0 1.5 0 0 1
C_747660344_3149523801_0 RECT_OPEN 1.0 1.5 0 0 1
C_747660344_13152778980_0 RECT_OPEN 1.0 1.5 0 0 1
C_747660344_1417443691_0 RECT_OPEN 1.0 1.5 0 0 1
C_747660344_2450399422_0 RECT_OPEN 1.0 1.5 0 0 1
C_3149523801_747660344_0 RECT_OPEN 1.0 1.5 0 0 1
C_3149523801_3149523798_0 RECT_OPEN 1.0 1.5 0 0 1
C_3149523801_9792476719_0 RECT_OPEN 1.0 1.5 0 0 1
C_13152778980_2450399406_0 RECT_OPEN 1.0 1.5 0 0 1
C_13152778980_747660344_0 RECT_OPEN 1.0 1.5 0 0 1
C_13152778980_13152778981_0 RECT_OPEN 1.0 1.5 0 0 1
C_1417443691_747660344_0 RECT_OPEN 1.0 1.5 0 0 1
C_1417443691_3235639719_0 RECT_OPEN 1.0 1.5 0 0 1
C_1417443691_3235639720_0 RECT_OPEN 1.0 1.5 0 0 1
C_2450399422_6528148976_0 RECT_OPEN 1.0 1.5 0 0 1
C_2450399422_2450399435_0 RECT_OPEN 1.0 1.5 0 0 1
C_2450399422_747660344_0 RECT_OPEN 1.0 1.5 0 0 1
C_11259448973_11259448962_0 RECT_OPEN 1.0 1.5 0 0 1
C_11259448973_747660349_0 RECT_OPEN 1.0 1.5 0 0 1
C_3549123747_836238553_0 RECT_OPEN 1.0 1.5 0 0 1
C_3549123747_5267369429_0 RECT_OPEN 1.0 1.5 0 0 1
C_3549123747_836238509_0 RECT_OPEN 1.0 1.5 0 0 1
C_836238551_836238553_0 RECT_OPEN 1.0 1.5 0 0 1
C_836238551_3549124811_0 RECT_OPEN 1.0 1.5 0 0 1
C_836238551_3549123780_0 RECT_OPEN 1.0 1.5 0 0 1
C_836238551_836238514_0 RECT_OPEN 1.0 1.5 0 0 1
C_10001905133_3549124811_0 RECT_OPEN 1.0 1.5 0 0 1
C_10001905133_836238547_0 RECT_OPEN 1.0 1.5 0 0 1
C_10001905133_10001905132_0 RECT_OPEN 1.0 1.5 0 0 1
C_3549124910_3549124909_0 RECT_OPEN 1.0 1.5 0 0 1
C_3549124910_836238547_0 RECT_OPEN 1.0 1.5 0 0 1
C_3549124910_3549124813_0 RECT_OPEN 1.0 1.5 0 0 1
C_10001905132_3549123780_0 RECT_OPEN 1.0 1.5 0 0 1
C_10001905132_10001905133_0 RECT_OPEN 1.0 1.5 0 0 1
C_10001905132_836238547_0 RECT_OPEN 1.0 1.5 0 0 1
C_836238553_5267369428_0 RECT_OPEN 1.0 1.5 0 0 1
C_836238553_836238551_0 RECT_OPEN 1.0 1.5 0 0 1
C_836238553_3549123747_0 RECT_OPEN 1.0 1.5 0 0 1
C_3549124811_836238551_0 RECT_OPEN 1.0 1.5 0 0 1
C_3549124811_10001905133_0 RECT_OPEN 1.0 1.5 0 0 1
C_3549124811_3549124813_0 RECT_OPEN 1.0 1.5 0 0 1
C_3549123780_836238551_0 RECT_OPEN 1.0 1.5 0 0 1
C_3549123780_10001905132_0 RECT_OPEN 1.0 1.5 0 0 1
C_3549123780_5267369424_0 RECT_OPEN 1.0 1.5 0 0 1
C_5267369428_5267369426_0 RECT_OPEN 1.0 1.5 0 0 1
C_5267369428_836238553_0 RECT_OPEN 1.0 1.5 0 0 1
C_5267369428_5267369429_0 RECT_OPEN 1.0 1.5 0 0 1
C_3549123729_3549123725_0 RECT_OPEN 1.0 1.5 0 0 1
C_3549123729_836238561_0 RECT_OPEN 1.0 1.5 0 0 1
C_3549123729_5267369427_0 RECT_OPEN 1.0 1.5 0 0 1
C_5267369424_3549123725_0 RECT_OPEN 1.0 1.5 0 0 1
C_5267369424_836238561_0 RECT_OPEN 1.0 1.5 0 0 1
C_5267369424_836238561_1 RECT_OPEN 1.0 1.5 0 0 1
C_5267369424_3549123780_0 RECT_OPEN 1.0 1.5 0 0 1
C_1278162234_1278162335_0 RECT_OPEN 1.0 1.5 0 0 1
C_1278162234_10153868763_0 RECT_OPEN 1.0 1.5 0 0 1
C_1278162234_3158788597_0 RECT_OPEN 1.0 1.5 0 0 1
C_1278162335_1278162234_0 RECT_OPEN 1.0 1.5 0 0 1
C_1278162335_13279121428_0 RECT_OPEN 1.0 1.5 0 0 1
C_1278162335_1278162239_0 RECT_OPEN 1.0 1.5 0 0 1
C_10153868763_1278162234_0 RECT_OPEN 1.0 1.5 0 0 1
C_10153868763_5388479540_0 RECT_OPEN 1.0 1.5 0 0 1
C_10153868763_10153868765_0 RECT_OPEN 1.0 1.5 0 0 1
C_3158788597_1278162311_0 RECT_OPEN 1.0 1.5 0 0 1
C_3158788597_1278162234_0 RECT_OPEN 1.0 1.5 0 0 1
C_1278162239_1278162335_0 RECT_OPEN 1.0 1.5 0 0 1
C_1278162239_10839366478_0 RECT_OPEN 1.0 1.5 0 0 1
C_1278162239_11385670152_0 RECT_OPEN 1.0 1.5 0 0 1
C_10839366478_1278162239_0 RECT_OPEN 1.0 1.5 0 0 1
C_10839366478_6144301681_0 RECT_OPEN 1.0 1.5 0 0 1
C_11385670152_1278162239_0 RECT_OPEN 1.0 1.5 0 0 1
C_11385670152_3158788112_0 RECT_OPEN 1.0 1.5 0 0 1
C_11385670152_9189234403_0 RECT_OPEN 1.0 1.5 0 0 1
C_1278162252_3158788604_0 RECT_OPEN 1.0 1.5 0 0 1
C_1278162252_1278162290_0 RECT_OPEN 1.0 1.5 0 0 1
C_1278162252_6454862032_0 RECT_OPEN 1.0 1.5 0 0 1
C_3158788604_3158788600_0 RECT_OPEN 1.0 1.5 0 0 1
C_3158788604_11385626668_0 RECT_OPEN 1.0 1.5 0 0 1
C_3158788604_1278162252_0 RECT_OPEN 1.0 1.5 0 0 1
C_1278162290_6454862031_0 RECT_OPEN 1.0 1.5 0 0 1
C_1278162290_1278162252_0 RECT_OPEN 1.0 1.5 0 0 1
C_1278162290_3158788134_0 RECT_OPEN 1.0 1.5 0 0 1
C_6454862032_6454862031_0 RECT_OPEN 1.0 1.5 0 0 1
C_6454862032_6531845897_0 RECT_OPEN 1.0 1.5 0 0 1
C_6454862032_1278162252_0 RECT_OPEN 1.0 1.5 0 0 1
C_1278162256_7432244834_0 RECT_OPEN 1.0 1.5 0 0 1
C_1278162256_1377861068_0 RECT_OPEN 1.0 1.5 0 0 1
C_7432244834_7432244835_0 RECT_OPEN 1.0 1.5 0 0 1
C_7432244834_7429952391_0 RECT_OPEN 1.0 1.5 0 0 1
C_1377861068_3158788633_0 RECT_OPEN 1.0 1.5 0 0 1
C_1377861068_11012063564_0 RECT_OPEN 1.0 1.5 0 0 1
C_1377861068_1278162357_0 RECT_OPEN 1.0 1.5 0 0 1
C_1377861068_1278162256_0 RECT_OPEN 1.0 1.5 0 0 1
C_1278162270_3149542145_0 RECT_OPEN 1.0 1.5 0 0 1
C_1278162270_7432244840_0 RECT_OPEN 1.0 1.5 0 0 1
C_1278162270_3158788133_0 RECT_OPEN 1.0 1.5 0 0 1
C_1278162270_1278162293_0 RECT_OPEN 1.0 1.5 0 0 1
C_3149542145_1278162270_0 RECT_OPEN 1.0 1.5 0 0 1
C_3149542145_9840710126_0 RECT_OPEN 1.0 1.5 0 0 1
C_3149542145_3158788131_0 RECT_OPEN 1.0 1.5 0 0 1
C_7432244840_1278162270_0 RECT_OPEN 1.0 1.5 0 0 1
C_3158788133_10153868766_0 RECT_OPEN 1.0 1.5 0 0 1
C_3158788133_3158788134_0 RECT_OPEN 1.0 1.5 0 0 1
C_3158788133_1278162270_0 RECT_OPEN 1.0 1.5 0 0 1
C_1278162293_1278162270_0 RECT_OPEN 1.0 1.5 0 0 1
C_1278162293_1377861139_0 RECT_OPEN 1.0 1.5 0 0 1
C_1278162286_3158788120_0 RECT_OPEN 1.0 1.5 0 0 1
C_1278162286_3149542147_0 RECT_OPEN 1.0 1.5 0 0 1
C_1278162286_11385626668_0 RECT_OPEN 1.0 1.5 0 0 1
C_3158788120_3149542146_0 RECT_OPEN 1.0 1.5 0 0 1
C_3158788120_3158788124_0 RECT_OPEN 1.0 1.5 0 0 1
C_3158788120_1278162286_0 RECT_OPEN 1.0 1.5 0 0 1
C_3149542147_5389382766_0 RECT_OPEN 1.0 1.5 0 0 1
C_3149542147_3149542146_0 RECT_OPEN 1.0 1.5 0 0 1
C_3149542147_3158788115_0 RECT_OPEN 1.0 1.5 0 0 1
C_3149542147_1278162286_0 RECT_OPEN 1.0 1.5 0 0 1
C_11385626668_1278162286_0 RECT_OPEN 1.0 1.5 0 0 1
C_11385626668_3158788604_0 RECT_OPEN 1.0 1.5 0 0 1
C_11385626668_4579649727_0 RECT_OPEN 1.0 1.5 0 0 1
C_6454862031_6454862032_0 RECT_OPEN 1.0 1.5 0 0 1
C_6454862031_2407764622_0 RECT_OPEN 1.0 1.5 0 0 1
C_6454862031_1278162290_0 RECT_OPEN 1.0 1.5 0 0 1
C_3158788134_10153868767_0 RECT_OPEN 1.0 1.5 0 0 1
C_3158788134_3158788133_0 RECT_OPEN 1.0 1.5 0 0 1
C_3158788134_1278162290_0 RECT_OPEN 1.0 1.5 0 0 1
C_1377861139_3158788135_0 RECT_OPEN 1.0 1.5 0 0 1
C_1377861139_2406072874_0 RECT_OPEN 1.0 1.5 0 0 1
C_1377861139_3158788624_0 RECT_OPEN 1.0 1.5 0 0 1
C_1278162311_3158788597_0 RECT_OPEN 1.0 1.5 0 0 1
C_1278162311_1278162357_0 RECT_OPEN 1.0 1.5 0 0 1
C_1278162311_3158788574_0 RECT_OPEN 1.0 1.5 0 0 1
C_1278162311_3158788139_0 RECT_OPEN 1.0 1.5 0 0 1
C_1278162357_13415110849_0 RECT_OPEN 1.0 1.5 0 0 1
C_1278162357_1278162311_0 RECT_OPEN 1.0 1.5 0 0 1
C_1278162357_1377861068_0 RECT_OPEN 1.0 1.5 0 0 1
C_3158788574_1278162311_0 RECT_OPEN 1.0 1.5 0 0 1
C_3158788574_10153862358_0 RECT_OPEN 1.0 1.5 0 0 1
C_3158788139_1278162311_0 RECT_OPEN 1.0 1.5 0 0 1
C_13279121428_3158788641_0 RECT_OPEN 1.0 1.5 0 0 1
C_13279121428_1278162335_0 RECT_OPEN 1.0 1.5 0 0 1
C_13415110849_1278162357_0 RECT_OPEN 1.0 1.5 0 0 1
C_1377861052_1377861085_0 RECT_OPEN 1.0 1.5 0 0 1
C_1377861052_6531845899_0 RECT_OPEN 1.0 1.5 0 0 1
C_1377861052_6142604397_0 RECT_OPEN 1.0 1.5 0 0 1
C_1377861085_1377861114_0 RECT_OPEN 1.0 1.5 0 0 1
C_1377861085_2407764624_0 RECT_OPEN 1.0 1.5 0 0 1
C_1377861085_1377861052_0 RECT_OPEN 1.0 1.5 0 0 1
C_6531845899_2407764625_0 RECT_OPEN 1.0 1.5 0 0 1
C_6531845899_1377861052_0 RECT_OPEN 1.0 1.5 0 0 1
C_6531845899_10081671279_0 RECT_OPEN 1.0 1.5 0 0 1
C_6142604397_1377861052_0 RECT_OPEN 1.0 1.5 0 0 1
C_1377861055_10081671262_0 RECT_OPEN 1.0 1.5 0 0 1
C_1377861055_3149541686_0 RECT_OPEN 1.0 1.5 0 0 1
C_1377861055_3158788600_0 RECT_OPEN 1.0 1.5 0 0 1
C_10081671262_1377861055_0 RECT_OPEN 1.0 1.5 0 0 1
C_10081671262_10081671263_0 RECT_OPEN 1.0 1.5 0 0 1
C_10081671262_3149541696_0 RECT_OPEN 1.0 1.5 0 0 1
C_3149541686_3149541689_0 RECT_OPEN 1.0 1.5 0 0 1
C_3149541686_1377861055_0 RECT_OPEN 1.0 1.5 0 0 1
C_3149541686_5389382766_0 RECT_OPEN 1.0 1.5 0 0 1
C_3158788600_3158788604_0 RECT_OPEN 1.0 1.5 0 0 1
C_3158788600_1377861055_0 RECT_OPEN 1.0 1.5 0 0 1
C_3158788600_1377861078_0 RECT_OPEN 1.0 1.5 0 0 1
C_3158788633_3158788629_0 RECT_OPEN 1.0 1.5 0 0 1
C_3158788633_1377861068_0 RECT_OPEN 1.0 1.5 0 0 1
C_3158788633_3158788635_0 RECT_OPEN 1.0 1.5 0 0 1
C_11012063564_1377861068_0 RECT_OPEN 1.0 1.5 0 0 1
C_11012063564_3158788110_0 RECT_OPEN 1.0 1.5 0 0 1
C_11012063564_11012063565_0 RECT_OPEN 1.0 1.5 0 0 1
C_1377861070_3761074302_0 RECT_OPEN 1.0 1.5 0 0 1
C_3761074302_2407764624_0 RECT_OPEN 1.0 1.5 0 0 1
C_3761074302_1377861070_0 RECT_OPEN 1.0 1.5 0 0 1
C_3761074302_4582754028_0 RECT_OPEN 1.0 1.5 0 0 1
C_3761074302_4415687414_0 RECT_OPEN 1.0 1.5 0 0 1
C_1377861078_1377861121_0 RECT_OPEN 1.0 1.5 0 0 1
C_1377861078_3158788600_0 RECT_OPEN 1.0 1.5 0 0 1
C_1377861078_3149541700_0 RECT_OPEN 1.0 1.5 0 0 1
C_1377861121_1377861078_0 RECT_OPEN 1.0 1.5 0 0 1
C_1377861121_4582754028_0 RECT_OPEN 1.0 1.5 0 0 1
C_1377861121_11387496338_0 RECT_OPEN 1.0 1.5 0 0 1
C_3149541700_13410465942_0 RECT_OPEN 1.0 1.5 0 0 1
C_3149541700_1377861078_0 RECT_OPEN 1.0 1.5 0 0 1
C_3149541700_10081671278_0 RECT_OPEN 1.0 1.5 0 0 1
C_1377861114_1377861085_0 RECT_OPEN 1.0 1.5 0 0 1
C_1377861114_1377861123_0 RECT_OPEN 1.0 1.5 0 0 1
C_1377861114_1377861104_0 RECT_OPEN 1.0 1.5 0 0 1
C_2407764624_1377861085_0 RECT_OPEN 1.0 1.5 0 0 1
C_2407764624_3761074302_0 RECT_OPEN 1.0 1.5 0 0 1
C_2407764624_2407764625_0 RECT_OPEN 1.0 1.5 0 0 1
C_1377861103_13410465942_0 RECT_OPEN 1.0 1.5 0 0 1
C_1377861103_2407764625_0 RECT_OPEN 1.0 1.5 0 0 1
C_1377861103_4582754028_0 RECT_OPEN 1.0 1.5 0 0 1
C_13410465942_3149541700_0 RECT_OPEN 1.0 1.5 0 0 1
C_13410465942_1377861103_0 RECT_OPEN 1.0 1.5 0 0 1
C_13410465942_13410465941_0 RECT_OPEN 1.0 1.5 0 0 1
C_2407764625_1377861103_0 RECT_OPEN 1.0 1.5 0 0 1
C_2407764625_6531845899_0 RECT_OPEN 1.0 1.5 0 0 1
C_2407764625_2407764624_0 RECT_OPEN 1.0 1.5 0 0 1
C_4582754028_3761074302_0 RECT_OPEN 1.0 1.5 0 0 1
C_4582754028_1377861121_0 RECT_OPEN 1.0 1.5 0 0 1
C_4582754028_1377861103_0 RECT_OPEN 1.0 1.5 0 0 1
C_1377861104_6518859305_0 RECT_OPEN 1.0 1.5 0 0 1
C_1377861104_6518859320_0 RECT_OPEN 1.0 1.5 0 0 1
C_1377861104_4918188102_0 RECT_OPEN 1.0 1.5 0 0 1
C_1377861104_1377861114_0 RECT_OPEN 1.0 1.5 0 0 1
C_6518859305_1481354884_0 RECT_OPEN 1.0 1.5 0 0 1
C_6518859305_1377861104_0 RECT_OPEN 1.0 1.5 0 0 1
C_6518859305_6518859304_0 RECT_OPEN 1.0 1.5 0 0 1
C_6518859320_1377861104_0 RECT_OPEN 1.0 1.5 0 0 1
C_6518859320_1471714437_0 RECT_OPEN 1.0 1.5 0 0 1
C_6518859320_10839341172_0 RECT_OPEN 1.0 1.5 0 0 1
C_4918188102_1377861104_0 RECT_OPEN 1.0 1.5 0 0 1
C_4918188102_1471714099_0 RECT_OPEN 1.0 1.5 0 0 1
C_4918188102_4918188103_0 RECT_OPEN 1.0 1.5 0 0 1
C_4918188102_4918188104_0 RECT_OPEN 1.0 1.5 0 0 1
C_1377861123_4415687414_0 RECT_OPEN 1.0 1.5 0 0 1
C_1377861123_1377861114_0 RECT_OPEN 1.0 1.5 0 0 1
C_1377861123_2110371291_0 RECT_OPEN 1.0 1.5 0 0 1
C_11387496338_1377861121_0 RECT_OPEN 1.0 1.5 0 0 1
C_11387496338_6531845895_0 RECT_OPEN 1.0 1.5 0 0 1
C_11387496338_11006990856_0 RECT_OPEN 1.0 1.5 0 0 1
C_4415687414_1377861123_0 RECT_OPEN 1.0 1.5 0 0 1
C_4415687414_3761074302_0 RECT_OPEN 1.0 1.5 0 0 1
C_4415687414_3761074303_0 RECT_OPEN 1.0 1.5 0 0 1
C_4415687414_2407763129_0 RECT_OPEN 1.0 1.5 0 0 1
C_2110371291_1377861123_0 RECT_OPEN 1.0 1.5 0 0 1
C_2110371291_2110371293_0 RECT_OPEN 1.0 1.5 0 0 1
C_1377861129_3149541689_0 RECT_OPEN 1.0 1.5 0 0 1
C_1377861129_7478257546_0 RECT_OPEN 1.0 1.5 0 0 1
C_1377861129_3158788115_0 RECT_OPEN 1.0 1.5 0 0 1
C_3149541689_1377861129_0 RECT_OPEN 1.0 1.5 0 0 1
C_3149541689_3149541686_0 RECT_OPEN 1.0 1.5 0 0 1
C_3149541689_5389382766_0 RECT_OPEN 1.0 1.5 0 0 1
C_7478257546_3158788113_0 RECT_OPEN 1.0 1.5 0 0 1
C_7478257546_1377861129_0 RECT_OPEN 1.0 1.5 0 0 1
C_7478257546_7478257545_0 RECT_OPEN 1.0 1.5 0 0 1
C_3158788115_3158788114_0 RECT_OPEN 1.0 1.5 0 0 1
C_3158788115_1377861129_0 RECT_OPEN 1.0 1.5 0 0 1
C_3158788115_3149542147_0 RECT_OPEN 1.0 1.5 0 0 1
C_3158788135_1377861139_0 RECT_OPEN 1.0 1.5 0 0 1
C_3158788135_3158788612_0 RECT_OPEN 1.0 1.5 0 0 1
C_3158788135_9840710126_0 RECT_OPEN 1.0 1.5 0 0 1
C_2406072874_1377861139_0 RECT_OPEN 1.0 1.5 0 0 1
C_2406072874_2387173529_0 RECT_OPEN 1.0 1.5 0 0 1
C_3158788624_3158788620_0 RECT_OPEN 1.0 1.5 0 0 1
C_3158788624_3158788621_0 RECT_OPEN 1.0 1.5 0 0 1
C_1417443438_2057491159_0 RECT_OPEN 1.0 1.5 0 0 1
C_1417443438_1488526915_0 RECT_OPEN 1.0 1.5 0 0 1
C_1417443438_4377707475_0 RECT_OPEN 1.0 1.5 0 0 1
C_2057491159_1417443438_0 RECT_OPEN 1.0 1.5 0 0 1
C_2057491159_6141722658_0 RECT_OPEN 1.0 1.5 0 0 1
C_1488526915_1417443438_0 RECT_OPEN 1.0 1.5 0 0 1
C_1488526915_1417443496_0 RECT_OPEN 1.0 1.5 0 0 1
C_1488526915_4377707480_0 RECT_OPEN 1.0 1.5 0 0 1
C_4377707475_1417443438_0 RECT_OPEN 1.0 1.5 0 0 1
C_4377707475_4377707469_0 RECT_OPEN 1.0 1.5 0 0 1
C_4377707475_4377707480_0 RECT_OPEN 1.0 1.5 0 0 1
C_1417443496_5493854958_0 RECT_OPEN 1.0 1.5 0 0 1
C_1417443496_1488526915_0 RECT_OPEN 1.0 1.5 0 0 1
C_1417443496_1488526892_0 RECT_OPEN 1.0 1.5 0 0 1
C_5493854958_1417443496_0 RECT_OPEN 1.0 1.5 0 0 1
C_5493854958_1488526866_0 RECT_OPEN 1.0 1.5 0 0 1
C_5493854958_5493854959_0 RECT_OPEN 1.0 1.5 0 0 1
C_1488526892_1417443496_0 RECT_OPEN 1.0 1.5 0 0 1
C_1488526892_5493844924_0 RECT_OPEN 1.0 1.5 0 0 1
C_1488526892_5493854959_0 RECT_OPEN 1.0 1.5 0 0 1
C_1488526892_6567100315_0 RECT_OPEN 1.0 1.5 0 0 1
C_1417443503_7432244850_0 RECT_OPEN 1.0 1.5 0 0 1
C_1417443503_1488526889_0 RECT_OPEN 1.0 1.5 0 0 1
C_1417443503_1488526909_0 RECT_OPEN 1.0 1.5 0 0 1
C_7432244850_3538106723_0 RECT_OPEN 1.0 1.5 0 0 1
C_7432244850_1417443503_0 RECT_OPEN 1.0 1.5 0 0 1
C_7432244850_7432244851_0 RECT_OPEN 1.0 1.5 0 0 1
C_1488526889_5267823528_0 RECT_OPEN 1.0 1.5 0 0 1
C_1488526889_1417443503_0 RECT_OPEN 1.0 1.5 0 0 1
C_1488526889_1488526923_0 RECT_OPEN 1.0 1.5 0 0 1
C_1488526909_1417443503_0 RECT_OPEN 1.0 1.5 0 0 1
C_1488526909_1488526851_0 RECT_OPEN 1.0 1.5 0 0 1
C_1488526909_1488526919_0 RECT_OPEN 1.0 1.5 0 0 1
C_1417443508_3161269164_0 RECT_OPEN 1.0 1.5 0 0 1
C_1417443508_6180287627_0 RECT_OPEN 1.0 1.5 0 0 1
C_3161269164_3221362713_0 RECT_OPEN 1.0 1.5 0 0 1
C_3161269164_1417443508_0 RECT_OPEN 1.0 1.5 0 0 1
C_3504342593_1417443563_0 RECT_OPEN 1.0 1.5 0 0 1
C_3504342593_5267835373_0 RECT_OPEN 1.0 1.5 0 0 1
C_3504342593_1417443517_0 RECT_OPEN 1.0 1.5 0 0 1
C_1417443542_1417443612_0 RECT_OPEN 1.0 1.5 0 0 1
C_1417443542_6528148952_0 RECT_OPEN 1.0 1.5 0 0 1
C_1417443542_10989273453_0 RECT_OPEN 1.0 1.5 0 0 1
C_1417443612_10081671394_0 RECT_OPEN 1.0 1.5 0 0 1
C_1417443612_1417443542_0 RECT_OPEN 1.0 1.5 0 0 1
C_1417443612_6528148966_0 RECT_OPEN 1.0 1.5 0 0 1
C_1417443612_6528148967_0 RECT_OPEN 1.0 1.5 0 0 1
C_6528148952_1417443542_0 RECT_OPEN 1.0 1.5 0 0 1
C_6528148952_6528148954_0 RECT_OPEN 1.0 1.5 0 0 1
C_6528148952_6528148951_0 RECT_OPEN 1.0 1.5 0 0 1
C_10989273453_6528148955_0 RECT_OPEN 1.0 1.5 0 0 1
C_10989273453_1417443542_0 RECT_OPEN 1.0 1.5 0 0 1
C_10989273453_10989273452_0 RECT_OPEN 1.0 1.5 0 0 1
C_10989273453_10989273454_0 RECT_OPEN 1.0 1.5 0 0 1
C_1417443557_6528148954_0 RECT_OPEN 1.0 1.5 0 0 1
C_1417443557_6528148957_0 RECT_OPEN 1.0 1.5 0 0 1
C_6528148954_6528148952_0 RECT_OPEN 1.0 1.5 0 0 1
C_6528148954_1417443557_0 RECT_OPEN 1.0 1.5 0 0 1
C_6528148954_6528148953_0 RECT_OPEN 1.0 1.5 0 0 1
C_6528148957_10081706681_0 RECT_OPEN 1.0 1.5 0 0 1
C_6528148957_6528148956_0 RECT_OPEN 1.0 1.5 0 0 1
C_1417443563_3504342593_0 RECT_OPEN 1.0 1.5 0 0 1
C_1417443563_1417443584_0 RECT_OPEN 1.0 1.5 0 0 1
C_1417443563_1417443584_1 RECT_OPEN 1.0 1.5 0 0 1
C_1417443584_6528148964_0 RECT_OPEN 1.0 1.5 0 0 1
C_1417443584_1417443563_0 RECT_OPEN 1.0 1.5 0 0 1
C_1417443584_1417443563_1 RECT_OPEN 1.0 1.5 0 0 1
C_10081725588_1417443578_0 RECT_OPEN 1.0 1.5 0 0 1
C_10081725588_10081725589_0 RECT_OPEN 1.0 1.5 0 0 1
C_10081671394_1417443628_0 RECT_OPEN 1.0 1.5 0 0 1
C_10081671394_1417443612_0 RECT_OPEN 1.0 1.5 0 0 1
C_10081671394_10081671393_0 RECT_OPEN 1.0 1.5 0 0 1
C_6528148966_1417443612_0 RECT_OPEN 1.0 1.5 0 0 1
C_6528148966_6528148965_0 RECT_OPEN 1.0 1.5 0 0 1
C_6528148966_10081706678_0 RECT_OPEN 1.0 1.5 0 0 1
C_6528148967_1417443612_0 RECT_OPEN 1.0 1.5 0 0 1
C_1417443628_1417443629_0 RECT_OPEN 1.0 1.5 0 0 1
C_1417443628_6528148968_0 RECT_OPEN 1.0 1.5 0 0 1
C_1417443628_10081671394_0 RECT_OPEN 1.0 1.5 0 0 1
C_6528148968_1417443628_0 RECT_OPEN 1.0 1.5 0 0 1
C_6528148968_6528148969_0 RECT_OPEN 1.0 1.5 0 0 1
C_6528148968_3235639720_0 RECT_OPEN 1.0 1.5 0 0 1
C_1417443633_1417443629_0 RECT_OPEN 1.0 1.5 0 0 1
C_1417443633_6528148969_0 RECT_OPEN 1.0 1.5 0 0 1
C_1417443633_1417443652_0 RECT_OPEN 1.0 1.5 0 0 1
C_6528148969_1417443633_0 RECT_OPEN 1.0 1.5 0 0 1
C_6528148969_6528148968_0 RECT_OPEN 1.0 1.5 0 0 1
C_6528148969_6528148973_0 RECT_OPEN 1.0 1.5 0 0 1
C_5493844924_1488526892_0 RECT_OPEN 1.0 1.5 0 0 1
C_5493844924_1417443641_0 RECT_OPEN 1.0 1.5 0 0 1
C_5493844924_3168039448_0 RECT_OPEN 1.0 1.5 0 0 1
C_1488526924_1417443647_0 RECT_OPEN 1.0 1.5 0 0 1
C_1488526924_3168039449_0 RECT_OPEN 1.0 1.5 0 0 1
C_1488526924_3096683824_0 RECT_OPEN 1.0 1.5 0 0 1
C_1488526924_3168039448_0 RECT_OPEN 1.0 1.5 0 0 1
C_6528148971_1417443666_0 RECT_OPEN 1.0 1.5 0 0 1
C_6528148971_1417443652_0 RECT_OPEN 1.0 1.5 0 0 1
C_6528148971_6528148973_0 RECT_OPEN 1.0 1.5 0 0 1
C_1417443659_6528148973_0 RECT_OPEN 1.0 1.5 0 0 1
C_1417443659_9743339252_0 RECT_OPEN 1.0 1.5 0 0 1
C_1417443659_1417443666_0 RECT_OPEN 1.0 1.5 0 0 1
C_6528148973_1417443659_0 RECT_OPEN 1.0 1.5 0 0 1
C_6528148973_6528148970_0 RECT_OPEN 1.0 1.5 0 0 1
C_6528148973_6528148969_0 RECT_OPEN 1.0 1.5 0 0 1
C_6528148973_6528148971_0 RECT_OPEN 1.0 1.5 0 0 1
C_9743339252_1417443659_0 RECT_OPEN 1.0 1.5 0 0 1
C_1417443666_2450399430_0 RECT_OPEN 1.0 1.5 0 0 1
C_1417443666_6528148971_0 RECT_OPEN 1.0 1.5 0 0 1
C_1417443666_2447849296_0 RECT_OPEN 1.0 1.5 0 0 1
C_1417443666_1417443659_0 RECT_OPEN 1.0 1.5 0 0 1
C_2450399430_2450399416_0 RECT_OPEN 1.0 1.5 0 0 1
C_2450399430_1417443666_0 RECT_OPEN 1.0 1.5 0 0 1
C_2450399430_2450399415_0 RECT_OPEN 1.0 1.5 0 0 1
C_3235639719_1417443691_0 RECT_OPEN 1.0 1.5 0 0 1
C_3235639719_2389119097_0 RECT_OPEN 1.0 1.5 0 0 1
C_3235639719_3235639718_0 RECT_OPEN 1.0 1.5 0 0 1
C_3235639720_1417443691_0 RECT_OPEN 1.0 1.5 0 0 1
C_3235639720_3235639718_0 RECT_OPEN 1.0 1.5 0 0 1
C_3235639720_6528148968_0 RECT_OPEN 1.0 1.5 0 0 1
C_3235639720_10172729085_0 RECT_OPEN 1.0 1.5 0 0 1
C_1417443716_6142327790_0 RECT_OPEN 1.0 1.5 0 0 1
C_1417443716_10081671376_0 RECT_OPEN 1.0 1.5 0 0 1
C_6142327790_5267822911_0 RECT_OPEN 1.0 1.5 0 0 1
C_6142327790_1417443716_0 RECT_OPEN 1.0 1.5 0 0 1
C_6142327790_6142327787_0 RECT_OPEN 1.0 1.5 0 0 1
C_10081671376_1417443716_0 RECT_OPEN 1.0 1.5 0 0 1
C_10081671376_2389119100_0 RECT_OPEN 1.0 1.5 0 0 1
C_10081671376_6528148940_0 RECT_OPEN 1.0 1.5 0 0 1
C_1417443726_6180272976_0 RECT_OPEN 1.0 1.5 0 0 1
C_1417443726_1417443734_0 RECT_OPEN 1.0 1.5 0 0 1
C_1417443726_5267822911_0 RECT_OPEN 1.0 1.5 0 0 1
C_6180272976_1417443726_0 RECT_OPEN 1.0 1.5 0 0 1
C_6180272976_1417443736_0 RECT_OPEN 1.0 1.5 0 0 1
C_6180272976_1417443740_0 RECT_OPEN 1.0 1.5 0 0 1
C_1417443734_1417443726_0 RECT_OPEN 1.0 1.5 0 0 1
C_1417443734_10081671363_0 RECT_OPEN 1.0 1.5 0 0 1
C_1417443734_1417443754_0 RECT_OPEN 1.0 1.5 0 0 1
C_10081671363_10081671364_0 RECT_OPEN 1.0 1.5 0 0 1
C_10081671363_1417443734_0 RECT_OPEN 1.0 1.5 0 0 1
C_10081671363_1417443741_0 RECT_OPEN 1.0 1.5 0 0 1
C_1417443736_6180272976_0 RECT_OPEN 1.0 1.5 0 0 1
C_1417443736_12196455086_0 RECT_OPEN 1.0 1.5 0 0 1
C_12196455086_2399992907_0 RECT_OPEN 1.0 1.5 0 0 1
C_1417443740_6180272976_0 RECT_OPEN 1.0 1.5 0 0 1
C_1417443740_1417443736_0 RECT_OPEN 1.0 1.5 0 0 1
C_10081671364_306611415_0 RECT_OPEN 1.0 1.5 0 0 1
C_10081671364_10081671363_0 RECT_OPEN 1.0 1.5 0 0 1
C_6193921850_1468908333_0 RECT_OPEN 1.0 1.5 0 0 1
C_6193921850_10094529581_0 RECT_OPEN 1.0 1.5 0 0 1
C_6193921850_6193921851_0 RECT_OPEN 1.0 1.5 0 0 1
C_1471714099_4918188102_0 RECT_OPEN 1.0 1.5 0 0 1
C_1471714099_1481354885_0 RECT_OPEN 1.0 1.5 0 0 1
C_1481354885_1471714099_0 RECT_OPEN 1.0 1.5 0 0 1
C_1481354885_7327251302_0 RECT_OPEN 1.0 1.5 0 0 1
C_1481354885_4918188104_0 RECT_OPEN 1.0 1.5 0 0 1
C_4918188103_1471714437_0 RECT_OPEN 1.0 1.5 0 0 1
C_4918188103_4918188101_0 RECT_OPEN 1.0 1.5 0 0 1
C_4918188103_4918188102_0 RECT_OPEN 1.0 1.5 0 0 1
C_1473826426_1473826428_0 RECT_OPEN 1.0 1.5 0 0 1
C_1473826428_1473826426_0 RECT_OPEN 1.0 1.5 0 0 1
C_1473826428_1481366489_0 RECT_OPEN 1.0 1.5 0 0 1
C_1473826428_5388494824_0 RECT_OPEN 1.0 1.5 0 0 1
C_1473826428_3149541720_0 RECT_OPEN 1.0 1.5 0 0 1
C_1481366489_1473826436_0 RECT_OPEN 1.0 1.5 0 0 1
C_1481366489_1473826428_0 RECT_OPEN 1.0 1.5 0 0 1
C_1481366489_11387517314_0 RECT_OPEN 1.0 1.5 0 0 1
C_5388494824_1473826428_0 RECT_OPEN 1.0 1.5 0 0 1
C_5388494824_1481354884_0 RECT_OPEN 1.0 1.5 0 0 1
C_5388494824_5388494831_0 RECT_OPEN 1.0 1.5 0 0 1
C_1473826436_1481366489_0 RECT_OPEN 1.0 1.5 0 0 1
C_1473871923_7432244843_0 RECT_OPEN 1.0 1.5 0 0 1
C_1473871923_1473871926_0 RECT_OPEN 1.0 1.5 0 0 1
C_1473871923_1473871955_0 RECT_OPEN 1.0 1.5 0 0 1
C_7432244843_1473871923_0 RECT_OPEN 1.0 1.5 0 0 1
C_7432244843_1473871947_0 RECT_OPEN 1.0 1.5 0 0 1
C_7432244843_7432244844_0 RECT_OPEN 1.0 1.5 0 0 1
C_1473871926_1473871954_0 RECT_OPEN 1.0 1.5 0 0 1
C_1473871926_7432244844_0 RECT_OPEN 1.0 1.5 0 0 1
C_1473871926_1473871923_0 RECT_OPEN 1.0 1.5 0 0 1
C_1473871955_1473871937_0 RECT_OPEN 1.0 1.5 0 0 1
C_1473871955_1473871923_0 RECT_OPEN 1.0 1.5 0 0 1
C_1473871955_1473871958_0 RECT_OPEN 1.0 1.5 0 0 1
C_1488526920_3096683821_0 RECT_OPEN 1.0 1.5 0 0 1
C_1488526920_1473871924_0 RECT_OPEN 1.0 1.5 0 0 1
C_1488526920_1488526911_0 RECT_OPEN 1.0 1.5 0 0 1
C_1473871954_1473871926_0 RECT_OPEN 1.0 1.5 0 0 1
C_1473871954_1473871924_0 RECT_OPEN 1.0 1.5 0 0 1
C_1473871954_1473871941_0 RECT_OPEN 1.0 1.5 0 0 1
C_7432244844_1473871936_0 RECT_OPEN 1.0 1.5 0 0 1
C_7432244844_1473871926_0 RECT_OPEN 1.0 1.5 0 0 1
C_7432244844_7432244843_0 RECT_OPEN 1.0 1.5 0 0 1
C_1473871927_1488556131_0 RECT_OPEN 1.0 1.5 0 0 1
C_1473871927_1473871937_0 RECT_OPEN 1.0 1.5 0 0 1
C_1473871927_1473871929_0 RECT_OPEN 1.0 1.5 0 0 1
C_1473871927_10094580864_0 RECT_OPEN 1.0 1.5 0 0 1
C_1473871937_1473871957_0 RECT_OPEN 1.0 1.5 0 0 1
C_1473871937_1473871927_0 RECT_OPEN 1.0 1.5 0 0 1
C_1473871937_1473871955_0 RECT_OPEN 1.0 1.5 0 0 1
C_1473871937_1473871959_0 RECT_OPEN 1.0 1.5 0 0 1
C_10094580864_1473871958_0 RECT_OPEN 1.0 1.5 0 0 1
C_10094580864_10094580865_0 RECT_OPEN 1.0 1.5 0 0 1
C_10094580864_1473871927_0 RECT_OPEN 1.0 1.5 0 0 1
C_5267823521_1473871929_0 RECT_OPEN 1.0 1.5 0 0 1
C_5267823521_5267823523_0 RECT_OPEN 1.0 1.5 0 0 1
C_5267823521_5267823522_0 RECT_OPEN 1.0 1.5 0 0 1
C_1473871942_7432244847_0 RECT_OPEN 1.0 1.5 0 0 1
C_1473871942_1473871938_0 RECT_OPEN 1.0 1.5 0 0 1
C_1473871942_1473871931_0 RECT_OPEN 1.0 1.5 0 0 1
C_3096683824_1473871931_0 RECT_OPEN 1.0 1.5 0 0 1
C_3096683824_1488526924_0 RECT_OPEN 1.0 1.5 0 0 1
C_3096683824_7086183227_0 RECT_OPEN 1.0 1.5 0 0 1
C_1473871936_1473871947_0 RECT_OPEN 1.0 1.5 0 0 1
C_1473871936_7432244844_0 RECT_OPEN 1.0 1.5 0 0 1
C_1473871936_1473871956_0 RECT_OPEN 1.0 1.5 0 0 1
C_1473871947_1473871936_0 RECT_OPEN 1.0 1.5 0 0 1
C_1473871947_7432244843_0 RECT_OPEN 1.0 1.5 0 0 1
C_1473871947_1473871957_0 RECT_OPEN 1.0 1.5 0 0 1
C_1473871956_1473871945_0 RECT_OPEN 1.0 1.5 0 0 1
C_1473871956_1473871957_0 RECT_OPEN 1.0 1.5 0 0 1
C_1473871956_7432244845_0 RECT_OPEN 1.0 1.5 0 0 1
C_1473871956_1473871936_0 RECT_OPEN 1.0 1.5 0 0 1
C_1473871957_1473871937_0 RECT_OPEN 1.0 1.5 0 0 1
C_1473871957_1473871947_0 RECT_OPEN 1.0 1.5 0 0 1
C_1473871957_7432244846_0 RECT_OPEN 1.0 1.5 0 0 1
C_1473871957_1473871956_0 RECT_OPEN 1.0 1.5 0 0 1
C_1473871959_1473871937_0 RECT_OPEN 1.0 1.5 0 0 1
C_1473871959_1488556150_0 RECT_OPEN 1.0 1.5 0 0 1
C_1473871959_1473871940_0 RECT_OPEN 1.0 1.5 0 0 1
C_1473871938_1473871942_0 RECT_OPEN 1.0 1.5 0 0 1
C_1473871938_7432244848_0 RECT_OPEN 1.0 1.5 0 0 1
C_1473871938_1473871940_0 RECT_OPEN 1.0 1.5 0 0 1
C_7432244848_7432244846_0 RECT_OPEN 1.0 1.5 0 0 1
C_7432244848_1473871938_0 RECT_OPEN 1.0 1.5 0 0 1
C_7432244848_7432244847_0 RECT_OPEN 1.0 1.5 0 0 1
C_1473871941_1473871961_0 RECT_OPEN 1.0 1.5 0 0 1
C_1473871941_1473871958_0 RECT_OPEN 1.0 1.5 0 0 1
C_1473871941_3096683823_0 RECT_OPEN 1.0 1.5 0 0 1
C_1473871941_1473871954_0 RECT_OPEN 1.0 1.5 0 0 1
C_1473871958_1473871941_0 RECT_OPEN 1.0 1.5 0 0 1
C_1473871958_10094580864_0 RECT_OPEN 1.0 1.5 0 0 1
C_1473871958_1473871955_0 RECT_OPEN 1.0 1.5 0 0 1
C_7432244847_1473871942_0 RECT_OPEN 1.0 1.5 0 0 1
C_7432244847_7432244845_0 RECT_OPEN 1.0 1.5 0 0 1
C_7432244847_7432244848_0 RECT_OPEN 1.0 1.5 0 0 1
C_7432244845_7432244847_0 RECT_OPEN 1.0 1.5 0 0 1
C_7432244845_7432244846_0 RECT_OPEN 1.0 1.5 0 0 1
C_7432244845_1473871956_0 RECT_OPEN 1.0 1.5 0 0 1
C_7432244846_1473871957_0 RECT_OPEN 1.0 1.5 0 0 1
C_7432244846_7432244848_0 RECT_OPEN 1.0 1.5 0 0 1
C_7432244846_7432244845_0 RECT_OPEN 1.0 1.5 0 0 1
C_1473885237_1473885458_0 RECT_OPEN 1.0 1.5 0 0 1
C_1473885237_1473885221_0 RECT_OPEN 1.0 1.5 0 0 1
C_1473885237_1473885226_0 RECT_OPEN 1.0 1.5 0 0 1
C_1473885223_7432244854_0 RECT_OPEN 1.0 1.5 0 0 1
C_1473885223_1473885221_0 RECT_OPEN 1.0 1.5 0 0 1
C_1473885223_6141732622_0 RECT_OPEN 1.0 1.5 0 0 1
C_7432244854_1473885223_0 RECT_OPEN 1.0 1.5 0 0 1
C_7432244854_1488556180_0 RECT_OPEN 1.0 1.5 0 0 1
C_7432244854_7432244855_0 RECT_OPEN 1.0 1.5 0 0 1
C_1473885226_1473885237_0 RECT_OPEN 1.0 1.5 0 0 1
C_1473885458_11663050338_0 RECT_OPEN 1.0 1.5 0 0 1
C_1473885458_1473885459_0 RECT_OPEN 1.0 1.5 0 0 1
C_1473885458_1473885237_0 RECT_OPEN 1.0 1.5 0 0 1
C_1473885439_1473885459_0 RECT_OPEN 1.0 1.5 0 0 1
C_11663050338_1473885458_0 RECT_OPEN 1.0 1.5 0 0 1
C_1473890785_12695945997_0 RECT_OPEN 1.0 1.5 0 0 1
C_1473890785_9189927178_0 RECT_OPEN 1.0 1.5 0 0 1
C_1473890785_6178041424_0 RECT_OPEN 1.0 1.5 0 0 1
C_1473890785_6463519072_0 RECT_OPEN 1.0 1.5 0 0 1
C_12695945997_1473890785_0 RECT_OPEN 1.0 1.5 0 0 1
C_12695945997_12695946000_0 RECT_OPEN 1.0 1.5 0 0 1
C_6178041424_6178041420_0 RECT_OPEN 1.0 1.5 0 0 1
C_6178041424_6178041422_0 RECT_OPEN 1.0 1.5 0 0 1
C_6178041424_1473890785_0 RECT_OPEN 1.0 1.5 0 0 1
C_6463519072_9189927179_0 RECT_OPEN 1.0 1.5 0 0 1
C_6463519072_3421682934_0 RECT_OPEN 1.0 1.5 0 0 1
C_6463519072_1473890785_0 RECT_OPEN 1.0 1.5 0 0 1
C_1473890791_6178041421_0 RECT_OPEN 1.0 1.5 0 0 1
C_1473890791_6178041420_0 RECT_OPEN 1.0 1.5 0 0 1
C_1473890791_12151399348_0 RECT_OPEN 1.0 1.5 0 0 1
C_6178041420_1473890791_0 RECT_OPEN 1.0 1.5 0 0 1
C_6178041420_6178041424_0 RECT_OPEN 1.0 1.5 0 0 1
C_6178041420_6178041419_0 RECT_OPEN 1.0 1.5 0 0 1
C_12151399348_6633301856_0 RECT_OPEN 1.0 1.5 0 0 1
C_12151399348_1473890791_0 RECT_OPEN 1.0 1.5 0 0 1
C_1477138900_1481366487_0 RECT_OPEN 1.0 1.5 0 0 1
C_1481354884_5388494824_0 RECT_OPEN 1.0 1.5 0 0 1
C_1481354884_6518859305_0 RECT_OPEN 1.0 1.5 0 0 1
C_1481354884_4918188104_0 RECT_OPEN 1.0 1.5 0 0 1
C_4918188104_1481354885_0 RECT_OPEN 1.0 1.5 0 0 1
C_4918188104_1481354884_0 RECT_OPEN 1.0 1.5 0 0 1
C_4918188104_4918188102_0 RECT_OPEN 1.0 1.5 0 0 1
C_6130764691_11977577698_0 RECT_OPEN 1.0 1.5 0 0 1
C_6130764691_2110371291_0 RECT_OPEN 1.0 1.5 0 0 1
C_11387517314_1481366489_0 RECT_OPEN 1.0 1.5 0 0 1
C_11387517314_10081671268_0 RECT_OPEN 1.0 1.5 0 0 1
C_1488526851_1488526909_0 RECT_OPEN 1.0 1.5 0 0 1
C_1488526851_1488526884_0 RECT_OPEN 1.0 1.5 0 0 1
C_1488526851_1488526859_0 RECT_OPEN 1.0 1.5 0 0 1
C_1488526884_1488526851_0 RECT_OPEN 1.0 1.5 0 0 1
C_1488526884_1488526913_0 RECT_OPEN 1.0 1.5 0 0 1
C_1488526884_1488526883_0 RECT_OPEN 1.0 1.5 0 0 1
C_1488526859_1488526883_0 RECT_OPEN 1.0 1.5 0 0 1
C_1488526859_1488526869_0 RECT_OPEN 1.0 1.5 0 0 1
C_1488526859_1488526851_0 RECT_OPEN 1.0 1.5 0 0 1
C_1488526883_1488526911_0 RECT_OPEN 1.0 1.5 0 0 1
C_1488526883_1488526859_0 RECT_OPEN 1.0 1.5 0 0 1
C_1488526883_1488526884_0 RECT_OPEN 1.0 1.5 0 0 1
C_1488526869_1488526859_0 RECT_OPEN 1.0 1.5 0 0 1
C_1488526869_1488526919_0 RECT_OPEN 1.0 1.5 0 0 1
C_1488526869_6152326682_0 RECT_OPEN 1.0 1.5 0 0 1
C_1488526866_5493854958_0 RECT_OPEN 1.0 1.5 0 0 1
C_1488526866_11665987959_0 RECT_OPEN 1.0 1.5 0 0 1
C_1488526866_1488526894_0 RECT_OPEN 1.0 1.5 0 0 1
C_11665987959_1488526866_0 RECT_OPEN 1.0 1.5 0 0 1
C_11665987959_5267823528_0 RECT_OPEN 1.0 1.5 0 0 1
C_11665987959_5267823530_0 RECT_OPEN 1.0 1.5 0 0 1
C_1488526894_1488526866_0 RECT_OPEN 1.0 1.5 0 0 1
C_1488526894_1488526923_0 RECT_OPEN 1.0 1.5 0 0 1
C_1488526894_4377707474_0 RECT_OPEN 1.0 1.5 0 0 1
C_1488526919_1488526869_0 RECT_OPEN 1.0 1.5 0 0 1
C_1488526919_1488526923_0 RECT_OPEN 1.0 1.5 0 0 1
C_1488526919_1488526909_0 RECT_OPEN 1.0 1.5 0 0 1
C_6152326682_2387012139_0 RECT_OPEN 1.0 1.5 0 0 1
C_6152326682_1488526869_0 RECT_OPEN 1.0 1.5 0 0 1
C_6152326682_4377707444_0 RECT_OPEN 1.0 1.5 0 0 1
C_1488526911_1488526920_0 RECT_OPEN 1.0 1.5 0 0 1
C_1488526911_1488526883_0 RECT_OPEN 1.0 1.5 0 0 1
C_1488526911_1488526913_0 RECT_OPEN 1.0 1.5 0 0 1
C_5267823528_11665987959_0 RECT_OPEN 1.0 1.5 0 0 1
C_5267823528_1488526889_0 RECT_OPEN 1.0 1.5 0 0 1
C_5267823528_5267823527_0 RECT_OPEN 1.0 1.5 0 0 1
C_5493854959_1488526892_0 RECT_OPEN 1.0 1.5 0 0 1
C_5493854959_5493854958_0 RECT_OPEN 1.0 1.5 0 0 1
C_5493854959_3168039450_0 RECT_OPEN 1.0 1.5 0 0 1
C_5493854959_5267823530_0 RECT_OPEN 1.0 1.5 0 0 1
C_6567100315_2414635978_0 RECT_OPEN 1.0 1.5 0 0 1
C_6567100315_6130692320_0 RECT_OPEN 1.0 1.5 0 0 1
C_6567100315_1488526892_0 RECT_OPEN 1.0 1.5 0 0 1
C_4377707474_1488526894_0 RECT_OPEN 1.0 1.5 0 0 1
C_4377707474_4377707480_0 RECT_OPEN 1.0 1.5 0 0 1
C_4377707474_4377707469_0 RECT_OPEN 1.0 1.5 0 0 1
C_1488526896_3168039449_0 RECT_OPEN 1.0 1.5 0 0 1
C_1488526896_3538106723_0 RECT_OPEN 1.0 1.5 0 0 1
C_1488526896_5267823527_0 RECT_OPEN 1.0 1.5 0 0 1
C_3168039449_1488526924_0 RECT_OPEN 1.0 1.5 0 0 1
C_3168039449_1488526896_0 RECT_OPEN 1.0 1.5 0 0 1
C_3168039449_5493868902_0 RECT_OPEN 1.0 1.5 0 0 1
C_3168039449_7086183227_0 RECT_OPEN 1.0 1.5 0 0 1
C_3538106723_1488526896_0 RECT_OPEN 1.0 1.5 0 0 1
C_3538106723_7432244850_0 RECT_OPEN 1.0 1.5 0 0 1
C_3538106723_7432283509_0 RECT_OPEN 1.0 1.5 0 0 1
C_5267823527_5267823530_0 RECT_OPEN 1.0 1.5 0 0 1
C_5267823527_1488526896_0 RECT_OPEN 1.0 1.5 0 0 1
C_5267823527_5267823528_0 RECT_OPEN 1.0 1.5 0 0 1
C_5267823527_5493868902_0 RECT_OPEN 1.0 1.5 0 0 1
C_7432244851_1488526913_0 RECT_OPEN 1.0 1.5 0 0 1
C_7432244851_3538106692_0 RECT_OPEN 1.0 1.5 0 0 1
C_7432244851_7432244850_0 RECT_OPEN 1.0 1.5 0 0 1
C_4377707480_4377707474_0 RECT_OPEN 1.0 1.5 0 0 1
C_4377707480_1488526915_0 RECT_OPEN 1.0 1.5 0 0 1
C_4377707480_4377707475_0 RECT_OPEN 1.0 1.5 0 0 1
C_3168039448_1488526924_0 RECT_OPEN 1.0 1.5 0 0 1
C_3168039448_5493844924_0 RECT_OPEN 1.0 1.5 0 0 1
C_3168039448_3168039450_0 RECT_OPEN 1.0 1.5 0 0 1
C_10094580887_1488556131_0 RECT_OPEN 1.0 1.5 0 0 1
C_10094580887_10094580889_0 RECT_OPEN 1.0 1.5 0 0 1
C_10094580887_10094580888_0 RECT_OPEN 1.0 1.5 0 0 1
C_10094580889_10094580887_0 RECT_OPEN 1.0 1.5 0 0 1
C_10094580889_1488556150_0 RECT_OPEN 1.0 1.5 0 0 1
C_10094580889_10094580890_0 RECT_OPEN 1.0 1.5 0 0 1
C_1608973468_12067305544_0 RECT_OPEN 1.0 1.5 0 0 1
C_12067305544_12067305543_0 RECT_OPEN 1.0 1.5 0 0 1
C_12067305544_3421682934_0 RECT_OPEN 1.0 1.5 0 0 1
C_1645178560_6463569335_0 RECT_OPEN 1.0 1.5 0 0 1
C_1645178560_650141496_0 RECT_OPEN 1.0 1.5 0 0 1
C_6463569335_3826045400_0 RECT_OPEN 1.0 1.5 0 0 1
C_1653906433_2389125034_0 RECT_OPEN 1.0 1.5 0 0 1
C_1653906433_2407745357_0 RECT_OPEN 1.0 1.5 0 0 1
C_2389125034_1653906433_0 RECT_OPEN 1.0 1.5 0 0 1
C_2389125034_11977577699_0 RECT_OPEN 1.0 1.5 0 0 1
C_2389125034_3287849054_0 RECT_OPEN 1.0 1.5 0 0 1
C_2407745357_11977577699_0 RECT_OPEN 1.0 1.5 0 0 1
C_2407745357_11374930009_0 RECT_OPEN 1.0 1.5 0 0 1
C_1653906436_11977577698_0 RECT_OPEN 1.0 1.5 0 0 1
C_1653906436_11260122965_0 RECT_OPEN 1.0 1.5 0 0 1
C_11977577698_6130764691_0 RECT_OPEN 1.0 1.5 0 0 1
C_11977577698_11892824102_0 RECT_OPEN 1.0 1.5 0 0 1
C_11260122965_2110371293_0 RECT_OPEN 1.0 1.5 0 0 1
C_2019288831_6141722653_0 RECT_OPEN 1.0 1.5 0 0 1
C_2019288831_6141722656_0 RECT_OPEN 1.0 1.5 0 0 1
C_6141722653_2019288831_0 RECT_OPEN 1.0 1.5 0 0 1
C_6141722653_2019288832_0 RECT_OPEN 1.0 1.5 0 0 1
C_6141722653_6141722654_0 RECT_OPEN 1.0 1.5 0 0 1
C_6141722653_9189927159_0 RECT_OPEN 1.0 1.5 0 0 1
C_6141722656_10094580906_0 RECT_OPEN 1.0 1.5 0 0 1
C_6141722656_2019288831_0 RECT_OPEN 1.0 1.5 0 0 1
C_6141722656_6141722654_0 RECT_OPEN 1.0 1.5 0 0 1
C_2019288832_6141722653_0 RECT_OPEN 1.0 1.5 0 0 1
C_2019288832_6141722658_0 RECT_OPEN 1.0 1.5 0 0 1
C_2019288832_2273437034_0 RECT_OPEN 1.0 1.5 0 0 1
C_6141722658_6141722654_0 RECT_OPEN 1.0 1.5 0 0 1
C_6141722658_2057491159_0 RECT_OPEN 1.0 1.5 0 0 1
C_6141722658_2019288832_0 RECT_OPEN 1.0 1.5 0 0 1
C_2110371293_11260122968_0 RECT_OPEN 1.0 1.5 0 0 1
C_2110371293_3761074303_0 RECT_OPEN 1.0 1.5 0 0 1
C_11260122968_1608973468_0 RECT_OPEN 1.0 1.5 0 0 1
C_11260122968_11892824101_0 RECT_OPEN 1.0 1.5 0 0 1
C_3761074303_4415687414_0 RECT_OPEN 1.0 1.5 0 0 1
C_3761074303_2387173529_0 RECT_OPEN 1.0 1.5 0 0 1
C_3761074303_2387173530_0 RECT_OPEN 1.0 1.5 0 0 1
C_2127279448_6884276685_0 RECT_OPEN 1.0 1.5 0 0 1
C_6884276685_6884276686_0 RECT_OPEN 1.0 1.5 0 0 1
C_2414635978_2414635979_0 RECT_OPEN 1.0 1.5 0 0 1
C_2414635978_6567100315_0 RECT_OPEN 1.0 1.5 0 0 1
C_2414635978_2273437034_0 RECT_OPEN 1.0 1.5 0 0 1
C_2385141390_650141496_0 RECT_OPEN 1.0 1.5 0 0 1
C_2385141390_3826045400_0 RECT_OPEN 1.0 1.5 0 0 1
C_3826045400_2387385680_0 RECT_OPEN 1.0 1.5 0 0 1
C_3826045400_12186005569_0 RECT_OPEN 1.0 1.5 0 0 1
C_2387017402_306614045_0 RECT_OPEN 1.0 1.5 0 0 1
C_2387017402_3304204552_0 RECT_OPEN 1.0 1.5 0 0 1
C_6130226927_2406084997_0 RECT_OPEN 1.0 1.5 0 0 1
C_6130226927_6130226929_0 RECT_OPEN 1.0 1.5 0 0 1
C_6130226927_2387017507_0 RECT_OPEN 1.0 1.5 0 0 1
C_6131800547_6131800546_0 RECT_OPEN 1.0 1.5 0 0 1
C_6131800547_2387017507_0 RECT_OPEN 1.0 1.5 0 0 1
C_2387173529_3761074303_0 RECT_OPEN 1.0 1.5 0 0 1
C_2387173529_11260122968_0 RECT_OPEN 1.0 1.5 0 0 1
C_2387173530_2407763129_0 RECT_OPEN 1.0 1.5 0 0 1
C_2387173530_1278162293_0 RECT_OPEN 1.0 1.5 0 0 1
C_2407763129_10081671286_0 RECT_OPEN 1.0 1.5 0 0 1
C_2407763129_2387173530_0 RECT_OPEN 1.0 1.5 0 0 1
C_2407763129_4415687414_0 RECT_OPEN 1.0 1.5 0 0 1
C_2388266803_2388266830_0 RECT_OPEN 1.0 1.5 0 0 1
C_2388266803_2509419434_0 RECT_OPEN 1.0 1.5 0 0 1
C_2388266803_4146210958_0 RECT_OPEN 1.0 1.5 0 0 1
C_2388266830_3543166934_0 RECT_OPEN 1.0 1.5 0 0 1
C_2388266830_2388266803_0 RECT_OPEN 1.0 1.5 0 0 1
C_2388266830_7429952410_0 RECT_OPEN 1.0 1.5 0 0 1
C_2509419434_2509419432_0 RECT_OPEN 1.0 1.5 0 0 1
C_2509419434_7432244857_0 RECT_OPEN 1.0 1.5 0 0 1
C_2509419434_2388266803_0 RECT_OPEN 1.0 1.5 0 0 1
C_4146210958_2388266836_0 RECT_OPEN 1.0 1.5 0 0 1
C_4146210958_7429952410_0 RECT_OPEN 1.0 1.5 0 0 1
C_4146210958_2388266803_0 RECT_OPEN 1.0 1.5 0 0 1
C_2388266812_2388266816_0 RECT_OPEN 1.0 1.5 0 0 1
C_2388266812_7432244869_0 RECT_OPEN 1.0 1.5 0 0 1
C_2388266812_11007263820_0 RECT_OPEN 1.0 1.5 0 0 1
C_7432244869_4146210931_0 RECT_OPEN 1.0 1.5 0 0 1
C_7432244869_7432244868_0 RECT_OPEN 1.0 1.5 0 0 1
C_7432244869_2388266812_0 RECT_OPEN 1.0 1.5 0 0 1
C_11007263820_2388266833_0 RECT_OPEN 1.0 1.5 0 0 1
C_11007263820_11007263821_0 RECT_OPEN 1.0 1.5 0 0 1
C_11007263820_2388266812_0 RECT_OPEN 1.0 1.5 0 0 1
C_4146211277_4146211273_0 RECT_OPEN 1.0 1.5 0 0 1
C_4146211277_2388266816_0 RECT_OPEN 1.0 1.5 0 0 1
C_4146211277_7432244868_0 RECT_OPEN 1.0 1.5 0 0 1
C_3543166934_2388266830_0 RECT_OPEN 1.0 1.5 0 0 1
C_3543166934_2388266833_0 RECT_OPEN 1.0 1.5 0 0 1
C_3543166934_4146210945_0 RECT_OPEN 1.0 1.5 0 0 1
C_7429952410_4146210951_0 RECT_OPEN 1.0 1.5 0 0 1
C_7429952410_4146210958_0 RECT_OPEN 1.0 1.5 0 0 1
C_7429952410_2388266830_0 RECT_OPEN 1.0 1.5 0 0 1
C_2388266833_11007263820_0 RECT_OPEN 1.0 1.5 0 0 1
C_2388266833_3543166934_0 RECT_OPEN 1.0 1.5 0 0 1
C_2388266833_2509419436_0 RECT_OPEN 1.0 1.5 0 0 1
C_2509419436_7432244857_0 RECT_OPEN 1.0 1.5 0 0 1
C_2509419436_2509419435_0 RECT_OPEN 1.0 1.5 0 0 1
C_2509419436_2388266833_0 RECT_OPEN 1.0 1.5 0 0 1
C_2388266836_5267402566_0 RECT_OPEN 1.0 1.5 0 0 1
C_2388266836_6462301371_0 RECT_OPEN 1.0 1.5 0 0 1
C_2388266836_4146210958_0 RECT_OPEN 1.0 1.5 0 0 1
C_5267402566_2388266836_0 RECT_OPEN 1.0 1.5 0 0 1
C_5267402566_5267402567_0 RECT_OPEN 1.0 1.5 0 0 1
C_5267402566_4146210953_0 RECT_OPEN 1.0 1.5 0 0 1
C_11903564939_12203527486_0 RECT_OPEN 1.0 1.5 0 0 1
C_11903564939_6462301370_0 RECT_OPEN 1.0 1.5 0 0 1
C_2389119097_3235639719_0 RECT_OPEN 1.0 1.5 0 0 1
C_2389119097_3235639716_0 RECT_OPEN 1.0 1.5 0 0 1
C_2389119097_3149523797_0 RECT_OPEN 1.0 1.5 0 0 1
C_3235639716_2389119097_0 RECT_OPEN 1.0 1.5 0 0 1
C_3235639716_12197618359_0 RECT_OPEN 1.0 1.5 0 0 1
C_3235639716_2389119100_0 RECT_OPEN 1.0 1.5 0 0 1
C_3149523797_3149523798_0 RECT_OPEN 1.0 1.5 0 0 1
C_3149523797_2389119097_0 RECT_OPEN 1.0 1.5 0 0 1
C_3149523797_3149523799_0 RECT_OPEN 1.0 1.5 0 0 1
C_11977577699_11374930007_0 RECT_OPEN 1.0 1.5 0 0 1
C_2399992907_12196455086_0 RECT_OPEN 1.0 1.5 0 0 1
C_10094504108_4146211261_0 RECT_OPEN 1.0 1.5 0 0 1
C_10094504108_10094504110_0 RECT_OPEN 1.0 1.5 0 0 1
C_10094504108_2406084993_0 RECT_OPEN 1.0 1.5 0 0 1
C_10094504105_2406084995_0 RECT_OPEN 1.0 1.5 0 0 1
C_10094504105_4146211263_0 RECT_OPEN 1.0 1.5 0 0 1
C_10094504105_10094504106_0 RECT_OPEN 1.0 1.5 0 0 1
C_3298857094_3298857093_0 RECT_OPEN 1.0 1.5 0 0 1
C_3298857094_2406084997_0 RECT_OPEN 1.0 1.5 0 0 1
C_3298857094_2414635984_0 RECT_OPEN 1.0 1.5 0 0 1
C_3287849051_2407745349_0 RECT_OPEN 1.0 1.5 0 0 1
C_3287849051_12067305543_0 RECT_OPEN 1.0 1.5 0 0 1
C_11374930009_11374930007_0 RECT_OPEN 1.0 1.5 0 0 1
C_11374930009_11374930008_0 RECT_OPEN 1.0 1.5 0 0 1
C_10081671286_2407763129_0 RECT_OPEN 1.0 1.5 0 0 1
C_2407764622_6454862031_0 RECT_OPEN 1.0 1.5 0 0 1
C_2407764622_6531845897_0 RECT_OPEN 1.0 1.5 0 0 1
C_2407764622_6531845895_0 RECT_OPEN 1.0 1.5 0 0 1
C_6531845897_13410465225_0 RECT_OPEN 1.0 1.5 0 0 1
C_6531845897_2407764622_0 RECT_OPEN 1.0 1.5 0 0 1
C_6531845897_6454862032_0 RECT_OPEN 1.0 1.5 0 0 1
C_6531845895_11387496338_0 RECT_OPEN 1.0 1.5 0 0 1
C_6531845895_13410465225_0 RECT_OPEN 1.0 1.5 0 0 1
C_6531845895_2407764622_0 RECT_OPEN 1.0 1.5 0 0 1
C_2414626606_6887565739_0 RECT_OPEN 1.0 1.5 0 0 1
C_2414626606_11178931799_0 RECT_OPEN 1.0 1.5 0 0 1
C_6887565739_11178931802_0 RECT_OPEN 1.0 1.5 0 0 1
C_6887565739_12680448312_0 RECT_OPEN 1.0 1.5 0 0 1
C_2447310402_13475843621_0 RECT_OPEN 1.0 1.5 0 0 1
C_2447310402_2447310404_0 RECT_OPEN 1.0 1.5 0 0 1
C_2447310402_7432244856_0 RECT_OPEN 1.0 1.5 0 0 1
C_2447310404_2447310402_0 RECT_OPEN 1.0 1.5 0 0 1
C_2447310404_2447310403_0 RECT_OPEN 1.0 1.5 0 0 1
C_2447310404_6130226931_0 RECT_OPEN 1.0 1.5 0 0 1
C_2447310404_2447310406_0 RECT_OPEN 1.0 1.5 0 0 1
C_2447310403_6130226930_0 RECT_OPEN 1.0 1.5 0 0 1
C_2447310403_2447310404_0 RECT_OPEN 1.0 1.5 0 0 1
C_2447310403_2447310406_0 RECT_OPEN 1.0 1.5 0 0 1
C_6130226930_2447310403_0 RECT_OPEN 1.0 1.5 0 0 1
C_6130226930_6130226928_0 RECT_OPEN 1.0 1.5 0 0 1
C_6130226930_11063510865_0 RECT_OPEN 1.0 1.5 0 0 1
C_6130226930_9189234398_0 RECT_OPEN 1.0 1.5 0 0 1
C_2447310406_2447310404_0 RECT_OPEN 1.0 1.5 0 0 1
C_2447310406_2447310407_0 RECT_OPEN 1.0 1.5 0 0 1
C_2447310406_2447310403_0 RECT_OPEN 1.0 1.5 0 0 1
C_6130226931_2447310404_0 RECT_OPEN 1.0 1.5 0 0 1
C_6130226931_6196261538_0 RECT_OPEN 1.0 1.5 0 0 1
C_6130226931_11063510865_0 RECT_OPEN 1.0 1.5 0 0 1
C_6131800546_2447310407_0 RECT_OPEN 1.0 1.5 0 0 1
C_6131800546_6131800547_0 RECT_OPEN 1.0 1.5 0 0 1
C_6131800546_6130226928_0 RECT_OPEN 1.0 1.5 0 0 1
C_2450399417_9792476719_0 RECT_OPEN 1.0 1.5 0 0 1
C_2450399417_2450399406_0 RECT_OPEN 1.0 1.5 0 0 1
C_2450399417_11259448953_0 RECT_OPEN 1.0 1.5 0 0 1
C_2450399435_2450399406_0 RECT_OPEN 1.0 1.5 0 0 1
C_2450399435_2450399433_0 RECT_OPEN 1.0 1.5 0 0 1
C_2450399435_2450399408_0 RECT_OPEN 1.0 1.5 0 0 1
C_2450399435_2450399422_0 RECT_OPEN 1.0 1.5 0 0 1
C_2450399416_2450399408_0 RECT_OPEN 1.0 1.5 0 0 1
C_2450399416_2450399430_0 RECT_OPEN 1.0 1.5 0 0 1
C_2450399416_2450399433_0 RECT_OPEN 1.0 1.5 0 0 1
C_2450399415_2450399433_0 RECT_OPEN 1.0 1.5 0 0 1
C_2450399415_2450399430_0 RECT_OPEN 1.0 1.5 0 0 1
C_2450399415_2450399429_0 RECT_OPEN 1.0 1.5 0 0 1
C_2450399433_2450399416_0 RECT_OPEN 1.0 1.5 0 0 1
C_2450399433_2450399435_0 RECT_OPEN 1.0 1.5 0 0 1
C_2450399433_2450399415_0 RECT_OPEN 1.0 1.5 0 0 1
C_2450399429_6528148976_0 RECT_OPEN 1.0 1.5 0 0 1
C_2450399429_2450399415_0 RECT_OPEN 1.0 1.5 0 0 1
C_2450399429_10172729085_0 RECT_OPEN 1.0 1.5 0 0 1
C_11259448953_11259448961_0 RECT_OPEN 1.0 1.5 0 0 1
C_11259448953_2450399417_0 RECT_OPEN 1.0 1.5 0 0 1
C_6528148976_2450399422_0 RECT_OPEN 1.0 1.5 0 0 1
C_6528148976_2450399429_0 RECT_OPEN 1.0 1.5 0 0 1
C_6528148976_6528148975_0 RECT_OPEN 1.0 1.5 0 0 1
C_3149523809_2450399427_0 RECT_OPEN 1.0 1.5 0 0 1
C_3149523809_3149523808_0 RECT_OPEN 1.0 1.5 0 0 1
C_3149523809_3149523804_0 RECT_OPEN 1.0 1.5 0 0 1
C_3149523807_2450399427_0 RECT_OPEN 1.0 1.5 0 0 1
C_3149523807_3149523802_0 RECT_OPEN 1.0 1.5 0 0 1
C_3149523807_3149523806_0 RECT_OPEN 1.0 1.5 0 0 1
C_10172729085_2450399429_0 RECT_OPEN 1.0 1.5 0 0 1
C_10172729085_10081671389_0 RECT_OPEN 1.0 1.5 0 0 1
C_10172729085_3235639720_0 RECT_OPEN 1.0 1.5 0 0 1
C_2509419432_2509419434_0 RECT_OPEN 1.0 1.5 0 0 1
C_2509419432_12073866974_0 RECT_OPEN 1.0 1.5 0 0 1
C_2509419432_2387017508_0 RECT_OPEN 1.0 1.5 0 0 1
C_12073866974_2509419432_0 RECT_OPEN 1.0 1.5 0 0 1
C_12073866974_650141020_0 RECT_OPEN 1.0 1.5 0 0 1
C_7432244857_2509419436_0 RECT_OPEN 1.0 1.5 0 0 1
C_7432244857_7432244856_0 RECT_OPEN 1.0 1.5 0 0 1
C_7432244857_2509419434_0 RECT_OPEN 1.0 1.5 0 0 1
C_2509419435_2509419436_0 RECT_OPEN 1.0 1.5 0 0 1
C_3161269196_3096683823_0 RECT_OPEN 1.0 1.5 0 0 1
C_3161269196_3504751071_0 RECT_OPEN 1.0 1.5 0 0 1
C_3161269196_11353404310_0 RECT_OPEN 1.0 1.5 0 0 1
C_6901563123_3096683823_0 RECT_OPEN 1.0 1.5 0 0 1
C_7086183227_7086183230_0 RECT_OPEN 1.0 1.5 0 0 1
C_7086183227_3096683824_0 RECT_OPEN 1.0 1.5 0 0 1
C_7086183227_3168039449_0 RECT_OPEN 1.0 1.5 0 0 1
C_3149523798_3149523802_0 RECT_OPEN 1.0 1.5 0 0 1
C_3149523798_3149523797_0 RECT_OPEN 1.0 1.5 0 0 1
C_3149523798_3149523801_0 RECT_OPEN 1.0 1.5 0 0 1
C_3149523798_3149523800_0 RECT_OPEN 1.0 1.5 0 0 1
C_3149523799_3149523797_0 RECT_OPEN 1.0 1.5 0 0 1
C_3149523802_3149523807_0 RECT_OPEN 1.0 1.5 0 0 1
C_3149523802_3149523798_0 RECT_OPEN 1.0 1.5 0 0 1
C_3149523802_3149523803_0 RECT_OPEN 1.0 1.5 0 0 1
C_3149523800_3149523798_0 RECT_OPEN 1.0 1.5 0 0 1
C_3149523803_3149523802_0 RECT_OPEN 1.0 1.5 0 0 1
C_3149523804_3149523809_0 RECT_OPEN 1.0 1.5 0 0 1
C_3149523806_3149523807_0 RECT_OPEN 1.0 1.5 0 0 1
C_5389382766_3149542147_0 RECT_OPEN 1.0 1.5 0 0 1
C_5389382766_3149541686_0 RECT_OPEN 1.0 1.5 0 0 1
C_5389382766_3149541689_0 RECT_OPEN 1.0 1.5 0 0 1
C_3149541696_3149541706_0 RECT_OPEN 1.0 1.5 0 0 1
C_3149541696_3149541705_0 RECT_OPEN 1.0 1.5 0 0 1
C_3149541696_10081671262_0 RECT_OPEN 1.0 1.5 0 0 1
C_3149541706_3149541707_0 RECT_OPEN 1.0 1.5 0 0 1
C_3149541706_10081671274_0 RECT_OPEN 1.0 1.5 0 0 1
C_3149541706_3149541696_0 RECT_OPEN 1.0 1.5 0 0 1
C_3149541705_3149541704_0 RECT_OPEN 1.0 1.5 0 0 1
C_3149541705_3149541696_0 RECT_OPEN 1.0 1.5 0 0 1
C_10081671278_10081671276_0 RECT_OPEN 1.0 1.5 0 0 1
C_10081671278_10081671277_0 RECT_OPEN 1.0 1.5 0 0 1
C_10081671278_3149541700_0 RECT_OPEN 1.0 1.5 0 0 1
C_3149541704_3149541705_0 RECT_OPEN 1.0 1.5 0 0 1
C_3149541707_3149541706_0 RECT_OPEN 1.0 1.5 0 0 1
C_10081671274_3149541708_0 RECT_OPEN 1.0 1.5 0 0 1
C_10081671274_3149541706_0 RECT_OPEN 1.0 1.5 0 0 1
C_10081671274_10081671273_0 RECT_OPEN 1.0 1.5 0 0 1
C_3149541708_10081671276_0 RECT_OPEN 1.0 1.5 0 0 1
C_3149541708_10081671274_0 RECT_OPEN 1.0 1.5 0 0 1
C_3149541708_10081671275_0 RECT_OPEN 1.0 1.5 0 0 1
C_10081671276_10081671278_0 RECT_OPEN 1.0 1.5 0 0 1
C_10081671276_3149541708_0 RECT_OPEN 1.0 1.5 0 0 1
C_10081671276_10081671275_0 RECT_OPEN 1.0 1.5 0 0 1
C_10081671275_10081671277_0 RECT_OPEN 1.0 1.5 0 0 1
C_10081671275_10081671276_0 RECT_OPEN 1.0 1.5 0 0 1
C_10081671275_3149541708_0 RECT_OPEN 1.0 1.5 0 0 1
C_3149541710_10081671277_0 RECT_OPEN 1.0 1.5 0 0 1
C_10081671277_3149541710_0 RECT_OPEN 1.0 1.5 0 0 1
C_10081671277_10081671275_0 RECT_OPEN 1.0 1.5 0 0 1
C_10081671277_10081671278_0 RECT_OPEN 1.0 1.5 0 0 1
C_3149542132_3158788637_0 RECT_OPEN 1.0 1.5 0 0 1
C_3149542132_3158788638_0 RECT_OPEN 1.0 1.5 0 0 1
C_3149542132_6137799426_0 RECT_OPEN 1.0 1.5 0 0 1
C_3158788637_3149542132_0 RECT_OPEN 1.0 1.5 0 0 1
C_3158788637_3158788639_0 RECT_OPEN 1.0 1.5 0 0 1
C_3158788637_3158788636_0 RECT_OPEN 1.0 1.5 0 0 1
C_3158788638_3149542132_0 RECT_OPEN 1.0 1.5 0 0 1
C_6137799426_3149542132_0 RECT_OPEN 1.0 1.5 0 0 1
C_3149542136_3158788639_0 RECT_OPEN 1.0 1.5 0 0 1
C_3149542136_3158788641_0 RECT_OPEN 1.0 1.5 0 0 1
C_3158788639_3158788637_0 RECT_OPEN 1.0 1.5 0 0 1
C_3158788639_3149542136_0 RECT_OPEN 1.0 1.5 0 0 1
C_3158788639_3158788640_0 RECT_OPEN 1.0 1.5 0 0 1
C_3158788641_3149542136_0 RECT_OPEN 1.0 1.5 0 0 1
C_3158788641_13279121428_0 RECT_OPEN 1.0 1.5 0 0 1
C_3158788641_3158788642_0 RECT_OPEN 1.0 1.5 0 0 1
C_9840710126_3149542145_0 RECT_OPEN 1.0 1.5 0 0 1
C_9840710126_9813619345_0 RECT_OPEN 1.0 1.5 0 0 1
C_9840710126_3158788135_0 RECT_OPEN 1.0 1.5 0 0 1
C_3158788131_3158788124_0 RECT_OPEN 1.0 1.5 0 0 1
C_3158788131_3158788132_0 RECT_OPEN 1.0 1.5 0 0 1
C_3158788131_3149542145_0 RECT_OPEN 1.0 1.5 0 0 1
C_3149542146_3158788114_0 RECT_OPEN 1.0 1.5 0 0 1
C_3149542146_3158788120_0 RECT_OPEN 1.0 1.5 0 0 1
C_3149542146_3149542147_0 RECT_OPEN 1.0 1.5 0 0 1
C_3158788114_3158788112_0 RECT_OPEN 1.0 1.5 0 0 1
C_3158788114_3149542146_0 RECT_OPEN 1.0 1.5 0 0 1
C_3158788114_3158788115_0 RECT_OPEN 1.0 1.5 0 0 1
C_3158788105_3158788145_0 RECT_OPEN 1.0 1.5 0 0 1
C_3158788105_3158788662_0 RECT_OPEN 1.0 1.5 0 0 1
C_3158788105_13415111434_0 RECT_OPEN 1.0 1.5 0 0 1
C_3158788145_7432244830_0 RECT_OPEN 1.0 1.5 0 0 1
C_3158788145_3158788105_0 RECT_OPEN 1.0 1.5 0 0 1
C_3158788145_3158788571_0 RECT_OPEN 1.0 1.5 0 0 1
C_3158788662_3158788105_0 RECT_OPEN 1.0 1.5 0 0 1
C_13415111434_3158788105_0 RECT_OPEN 1.0 1.5 0 0 1
C_13415111434_7429952388_0 RECT_OPEN 1.0 1.5 0 0 1
C_13415111434_13415111431_0 RECT_OPEN 1.0 1.5 0 0 1
C_3158788107_3158788108_0 RECT_OPEN 1.0 1.5 0 0 1
C_3158788107_7432244830_0 RECT_OPEN 1.0 1.5 0 0 1
C_3158788107_5388494832_0 RECT_OPEN 1.0 1.5 0 0 1
C_3158788108_3158788608_0 RECT_OPEN 1.0 1.5 0 0 1
C_3158788108_3158788107_0 RECT_OPEN 1.0 1.5 0 0 1
C_3158788108_3158788144_0 RECT_OPEN 1.0 1.5 0 0 1
C_3158788108_13410902781_0 RECT_OPEN 1.0 1.5 0 0 1
C_7432244830_3158788107_0 RECT_OPEN 1.0 1.5 0 0 1
C_7432244830_3158788145_0 RECT_OPEN 1.0 1.5 0 0 1
C_7432244830_7432244831_0 RECT_OPEN 1.0 1.5 0 0 1
C_5388494832_3158788107_0 RECT_OPEN 1.0 1.5 0 0 1
C_3158788608_3158788141_0 RECT_OPEN 1.0 1.5 0 0 1
C_3158788608_3158788108_0 RECT_OPEN 1.0 1.5 0 0 1
C_3158788608_3158788611_0 RECT_OPEN 1.0 1.5 0 0 1
C_3158788144_3158788108_0 RECT_OPEN 1.0 1.5 0 0 1
C_13410902781_3158788108_0 RECT_OPEN 1.0 1.5 0 0 1
C_3158788110_11012063564_0 RECT_OPEN 1.0 1.5 0 0 1
C_3158788110_7432244839_0 RECT_OPEN 1.0 1.5 0 0 1
C_3158788110_3158788140_0 RECT_OPEN 1.0 1.5 0 0 1
C_7432244839_3158788110_0 RECT_OPEN 1.0 1.5 0 0 1
C_7432244839_3158788141_0 RECT_OPEN 1.0 1.5 0 0 1
C_7432244839_7432244838_0 RECT_OPEN 1.0 1.5 0 0 1
C_3158788140_3158788110_0 RECT_OPEN 1.0 1.5 0 0 1
C_3158788112_11385670152_0 RECT_OPEN 1.0 1.5 0 0 1
C_3158788112_3158788114_0 RECT_OPEN 1.0 1.5 0 0 1
C_3158788112_3158788116_0 RECT_OPEN 1.0 1.5 0 0 1
C_3158788116_3158788118_0 RECT_OPEN 1.0 1.5 0 0 1
C_3158788116_3158788112_0 RECT_OPEN 1.0 1.5 0 0 1
C_3158788116_3158788117_0 RECT_OPEN 1.0 1.5 0 0 1
C_3158788113_3158788118_0 RECT_OPEN 1.0 1.5 0 0 1
C_3158788113_7478257546_0 RECT_OPEN 1.0 1.5 0 0 1
C_3158788113_11385670151_0 RECT_OPEN 1.0 1.5 0 0 1
C_3158788118_3158788113_0 RECT_OPEN 1.0 1.5 0 0 1
C_3158788118_3158788116_0 RECT_OPEN 1.0 1.5 0 0 1
C_3158788118_3158788119_0 RECT_OPEN 1.0 1.5 0 0 1
C_11385670151_10081671261_0 RECT_OPEN 1.0 1.5 0 0 1
C_11385670151_6531845894_0 RECT_OPEN 1.0 1.5 0 0 1
C_11385670151_3158788113_0 RECT_OPEN 1.0 1.5 0 0 1
C_3158788117_3158788116_0 RECT_OPEN 1.0 1.5 0 0 1
C_3158788119_3158788118_0 RECT_OPEN 1.0 1.5 0 0 1
C_3158788124_3158788120_0 RECT_OPEN 1.0 1.5 0 0 1
C_3158788124_3158788131_0 RECT_OPEN 1.0 1.5 0 0 1
C_3158788124_4579649727_0 RECT_OPEN 1.0 1.5 0 0 1
C_4579649727_3158788124_0 RECT_OPEN 1.0 1.5 0 0 1
C_4579649727_11385626668_0 RECT_OPEN 1.0 1.5 0 0 1
C_4579649727_3158788129_0 RECT_OPEN 1.0 1.5 0 0 1
C_3158788129_4579649727_0 RECT_OPEN 1.0 1.5 0 0 1
C_3158788132_10153868766_0 RECT_OPEN 1.0 1.5 0 0 1
C_3158788132_3158788131_0 RECT_OPEN 1.0 1.5 0 0 1
C_3158788132_10153868767_0 RECT_OPEN 1.0 1.5 0 0 1
C_10153868766_3158788133_0 RECT_OPEN 1.0 1.5 0 0 1
C_10153868766_3158788132_0 RECT_OPEN 1.0 1.5 0 0 1
C_10153868766_10153868767_0 RECT_OPEN 1.0 1.5 0 0 1
C_10153868767_3158788134_0 RECT_OPEN 1.0 1.5 0 0 1
C_10153868767_10153868766_0 RECT_OPEN 1.0 1.5 0 0 1
C_10153868767_3158788132_0 RECT_OPEN 1.0 1.5 0 0 1
C_3158788612_3158788629_0 RECT_OPEN 1.0 1.5 0 0 1
C_3158788612_3158788615_0 RECT_OPEN 1.0 1.5 0 0 1
C_3158788612_3158788135_0 RECT_OPEN 1.0 1.5 0 0 1
C_3158788141_7432244839_0 RECT_OPEN 1.0 1.5 0 0 1
C_3158788141_3158788608_0 RECT_OPEN 1.0 1.5 0 0 1
C_3158788141_3158788142_0 RECT_OPEN 1.0 1.5 0 0 1
C_3158788142_3158788141_0 RECT_OPEN 1.0 1.5 0 0 1
C_3158788571_3158788145_0 RECT_OPEN 1.0 1.5 0 0 1
C_3158788565_7429952388_0 RECT_OPEN 1.0 1.5 0 0 1
C_7429952388_3158788565_0 RECT_OPEN 1.0 1.5 0 0 1
C_7429952388_13415111434_0 RECT_OPEN 1.0 1.5 0 0 1
C_7429952388_7429952389_0 RECT_OPEN 1.0 1.5 0 0 1
C_10153862358_3158788574_0 RECT_OPEN 1.0 1.5 0 0 1
C_10153862358_10153862359_0 RECT_OPEN 1.0 1.5 0 0 1
C_10153862358_7432244829_0 RECT_OPEN 1.0 1.5 0 0 1
C_3158788611_3158788608_0 RECT_OPEN 1.0 1.5 0 0 1
C_3158788629_3158788612_0 RECT_OPEN 1.0 1.5 0 0 1
C_3158788629_3158788633_0 RECT_OPEN 1.0 1.5 0 0 1
C_3158788629_3158788632_0 RECT_OPEN 1.0 1.5 0 0 1
C_3158788615_3158788612_0 RECT_OPEN 1.0 1.5 0 0 1
C_3158788616_3158788620_0 RECT_OPEN 1.0 1.5 0 0 1
C_3158788620_3158788616_0 RECT_OPEN 1.0 1.5 0 0 1
C_3158788620_7432244836_0 RECT_OPEN 1.0 1.5 0 0 1
C_7432244836_1278162256_0 RECT_OPEN 1.0 1.5 0 0 1
C_7432244836_7432244837_0 RECT_OPEN 1.0 1.5 0 0 1
C_3158788621_3158788624_0 RECT_OPEN 1.0 1.5 0 0 1
C_3158788632_3158788629_0 RECT_OPEN 1.0 1.5 0 0 1
C_3158788635_3158788633_0 RECT_OPEN 1.0 1.5 0 0 1
C_3158788636_3158788637_0 RECT_OPEN 1.0 1.5 0 0 1
C_3158788640_3158788639_0 RECT_OPEN 1.0 1.5 0 0 1
C_3158788642_3158788641_0 RECT_OPEN 1.0 1.5 0 0 1
C_3161118525_6131076159_0 RECT_OPEN 1.0 1.5 0 0 1
C_6131076159_12067305554_0 RECT_OPEN 1.0 1.5 0 0 1
C_10081725549_3161268847_0 RECT_OPEN 1.0 1.5 0 0 1
C_10081725549_3161269161_0 RECT_OPEN 1.0 1.5 0 0 1
C_3161269161_10081725549_0 RECT_OPEN 1.0 1.5 0 0 1
C_3161269161_3161269162_0 RECT_OPEN 1.0 1.5 0 0 1
C_3161269162_3161269161_0 RECT_OPEN 1.0 1.5 0 0 1
C_3161269162_3221362713_0 RECT_OPEN 1.0 1.5 0 0 1
C_3221362713_3161269162_0 RECT_OPEN 1.0 1.5 0 0 1
C_3221362713_3161269164_0 RECT_OPEN 1.0 1.5 0 0 1
C_3221362713_3965281000_0 RECT_OPEN 1.0 1.5 0 0 1
C_3504751071_3161269196_0 RECT_OPEN 1.0 1.5 0 0 1
C_11353404310_5267823525_0 RECT_OPEN 1.0 1.5 0 0 1
C_11353404310_3161269196_0 RECT_OPEN 1.0 1.5 0 0 1
C_11353404310_7432244842_0 RECT_OPEN 1.0 1.5 0 0 1
C_3161269197_3161269199_0 RECT_OPEN 1.0 1.5 0 0 1
C_8979004920_3965280999_0 RECT_OPEN 1.0 1.5 0 0 1
C_8979004920_3161269200_0 RECT_OPEN 1.0 1.5 0 0 1
C_8979004920_8979004921_0 RECT_OPEN 1.0 1.5 0 0 1
C_8979004919_3161269200_0 RECT_OPEN 1.0 1.5 0 0 1
C_3168039450_5493868901_0 RECT_OPEN 1.0 1.5 0 0 1
C_3168039450_3168039448_0 RECT_OPEN 1.0 1.5 0 0 1
C_3168039450_5493854959_0 RECT_OPEN 1.0 1.5 0 0 1
C_5493868902_5493868901_0 RECT_OPEN 1.0 1.5 0 0 1
C_5493868902_3168039449_0 RECT_OPEN 1.0 1.5 0 0 1
C_5493868902_5267823527_0 RECT_OPEN 1.0 1.5 0 0 1
C_5493868901_3168039450_0 RECT_OPEN 1.0 1.5 0 0 1
C_5493868901_5493868902_0 RECT_OPEN 1.0 1.5 0 0 1
C_5493868901_5267823530_0 RECT_OPEN 1.0 1.5 0 0 1
C_3965281000_3965280999_0 RECT_OPEN 1.0 1.5 0 0 1
C_3965281000_3965280995_0 RECT_OPEN 1.0 1.5 0 0 1
C_3965281000_3221362713_0 RECT_OPEN 1.0 1.5 0 0 1
C_10081671392_10081671391_0 RECT_OPEN 1.0 1.5 0 0 1
C_10081671392_3235639721_0 RECT_OPEN 1.0 1.5 0 0 1
C_10081671392_3235639712_0 RECT_OPEN 1.0 1.5 0 0 1
C_12197618359_3235639716_0 RECT_OPEN 1.0 1.5 0 0 1
C_12197618359_12197618361_0 RECT_OPEN 1.0 1.5 0 0 1
C_12197618359_12197618360_0 RECT_OPEN 1.0 1.5 0 0 1
C_3235639717_3235639718_0 RECT_OPEN 1.0 1.5 0 0 1
C_3235639718_3235639719_0 RECT_OPEN 1.0 1.5 0 0 1
C_3235639718_3235639721_0 RECT_OPEN 1.0 1.5 0 0 1
C_3235639718_3235639720_0 RECT_OPEN 1.0 1.5 0 0 1
C_3235639718_3235639717_0 RECT_OPEN 1.0 1.5 0 0 1
C_3235639721_12197618361_0 RECT_OPEN 1.0 1.5 0 0 1
C_3235639721_3235639718_0 RECT_OPEN 1.0 1.5 0 0 1
C_3235639721_10081671392_0 RECT_OPEN 1.0 1.5 0 0 1
C_12197618361_12197618359_0 RECT_OPEN 1.0 1.5 0 0 1
C_12197618361_3235639721_0 RECT_OPEN 1.0 1.5 0 0 1
C_12197618361_12197618362_0 RECT_OPEN 1.0 1.5 0 0 1
C_12067305543_11260122965_0 RECT_OPEN 1.0 1.5 0 0 1
C_12067305543_2389125034_0 RECT_OPEN 1.0 1.5 0 0 1
C_3298864776_5961715635_0 RECT_OPEN 1.0 1.5 0 0 1
C_11865527609_6567395226_0 RECT_OPEN 1.0 1.5 0 0 1
C_11865527609_6143210301_0 RECT_OPEN 1.0 1.5 0 0 1
C_11865527609_3298878307_0 RECT_OPEN 1.0 1.5 0 0 1
C_5780852347_3298878325_0 RECT_OPEN 1.0 1.5 0 0 1
C_3421682934_12695960102_0 RECT_OPEN 1.0 1.5 0 0 1
C_3421682934_6463519072_0 RECT_OPEN 1.0 1.5 0 0 1
C_12695960102_12695946000_0 RECT_OPEN 1.0 1.5 0 0 1
C_12695960102_12695945997_0 RECT_OPEN 1.0 1.5 0 0 1
C_3538106692_7432244851_0 RECT_OPEN 1.0 1.5 0 0 1
C_3538106692_7086183230_0 RECT_OPEN 1.0 1.5 0 0 1
C_3538106692_7086183228_0 RECT_OPEN 1.0 1.5 0 0 1
C_7086183230_3538106692_0 RECT_OPEN 1.0 1.5 0 0 1
C_7086183230_7086183227_0 RECT_OPEN 1.0 1.5 0 0 1
C_7086183230_7086183229_0 RECT_OPEN 1.0 1.5 0 0 1
C_7086183228_7432283509_0 RECT_OPEN 1.0 1.5 0 0 1
C_7086183228_3538106692_0 RECT_OPEN 1.0 1.5 0 0 1
C_7086183228_7086183229_0 RECT_OPEN 1.0 1.5 0 0 1
C_7432283509_3538106723_0 RECT_OPEN 1.0 1.5 0 0 1
C_7432283509_7086183228_0 RECT_OPEN 1.0 1.5 0 0 1
C_7432283509_7086183229_0 RECT_OPEN 1.0 1.5 0 0 1
C_4146210945_6457067893_0 RECT_OPEN 1.0 1.5 0 0 1
C_4146210945_4146210951_0 RECT_OPEN 1.0 1.5 0 0 1
C_4146210945_3543166934_0 RECT_OPEN 1.0 1.5 0 0 1
C_3549123725_5267369424_0 RECT_OPEN 1.0 1.5 0 0 1
C_3549123725_5267369426_0 RECT_OPEN 1.0 1.5 0 0 1
C_3549123725_3549123729_0 RECT_OPEN 1.0 1.5 0 0 1
C_5267369426_3549123725_0 RECT_OPEN 1.0 1.5 0 0 1
C_5267369426_5267369428_0 RECT_OPEN 1.0 1.5 0 0 1
C_5267369426_5267369427_0 RECT_OPEN 1.0 1.5 0 0 1
C_5267369427_3549123729_0 RECT_OPEN 1.0 1.5 0 0 1
C_5267369427_5267369429_0 RECT_OPEN 1.0 1.5 0 0 1
C_5267369427_5267369426_0 RECT_OPEN 1.0 1.5 0 0 1
C_5267369429_5267369427_0 RECT_OPEN 1.0 1.5 0 0 1
C_5267369429_3549123747_0 RECT_OPEN 1.0 1.5 0 0 1
C_5267369429_5267369428_0 RECT_OPEN 1.0 1.5 0 0 1
C_3549124813_3549124910_0 RECT_OPEN 1.0 1.5 0 0 1
C_3549124813_3549124811_0 RECT_OPEN 1.0 1.5 0 0 1
C_3549124813_3549124818_0 RECT_OPEN 1.0 1.5 0 0 1
C_3549124818_3549124909_0 RECT_OPEN 1.0 1.5 0 0 1
C_3549124818_3549124813_0 RECT_OPEN 1.0 1.5 0 0 1
C_3549124818_3549124822_0 RECT_OPEN 1.0 1.5 0 0 1
C_3549124909_3549124908_0 RECT_OPEN 1.0 1.5 0 0 1
C_3549124909_3549124910_0 RECT_OPEN 1.0 1.5 0 0 1
C_3549124909_3549124818_0 RECT_OPEN 1.0 1.5 0 0 1
C_3549124822_3549124908_0 RECT_OPEN 1.0 1.5 0 0 1
C_3549124822_3549124818_0 RECT_OPEN 1.0 1.5 0 0 1
C_3549124822_3549124825_0 RECT_OPEN 1.0 1.5 0 0 1
C_12186005569_12186005568_0 RECT_OPEN 1.0 1.5 0 0 1
C_12186005569_6017833807_0 RECT_OPEN 1.0 1.5 0 0 1
C_3965280993_3965280999_0 RECT_OPEN 1.0 1.5 0 0 1
C_3965280999_3965281000_0 RECT_OPEN 1.0 1.5 0 0 1
C_3965280999_8979004920_0 RECT_OPEN 1.0 1.5 0 0 1
C_3965280999_3965280993_0 RECT_OPEN 1.0 1.5 0 0 1
C_3965280995_3965281000_0 RECT_OPEN 1.0 1.5 0 0 1
C_4146210931_7432244869_0 RECT_OPEN 1.0 1.5 0 0 1
C_4146210931_6457067893_0 RECT_OPEN 1.0 1.5 0 0 1
C_4146210931_4146210932_0 RECT_OPEN 1.0 1.5 0 0 1
C_6457067893_4146210945_0 RECT_OPEN 1.0 1.5 0 0 1
C_6457067893_4146210931_0 RECT_OPEN 1.0 1.5 0 0 1
C_6457067893_6457067894_0 RECT_OPEN 1.0 1.5 0 0 1
C_4146210932_6458176794_0 RECT_OPEN 1.0 1.5 0 0 1
C_4146210932_6458176792_0 RECT_OPEN 1.0 1.5 0 0 1
C_4146210932_4146210931_0 RECT_OPEN 1.0 1.5 0 0 1
C_6458176794_4146210932_0 RECT_OPEN 1.0 1.5 0 0 1
C_6458176794_4146210944_0 RECT_OPEN 1.0 1.5 0 0 1
C_6458176794_11007259534_0 RECT_OPEN 1.0 1.5 0 0 1
C_6458176792_6504556325_0 RECT_OPEN 1.0 1.5 0 0 1
C_6458176792_7432244868_0 RECT_OPEN 1.0 1.5 0 0 1
C_6458176792_4146211275_0 RECT_OPEN 1.0 1.5 0 0 1
C_6458176792_4146210932_0 RECT_OPEN 1.0 1.5 0 0 1
C_4146210944_6457067894_0 RECT_OPEN 1.0 1.5 0 0 1
C_4146210944_6196907479_0 RECT_OPEN 1.0 1.5 0 0 1
C_4146210944_6458176794_0 RECT_OPEN 1.0 1.5 0 0 1
C_6457067894_11007254971_0 RECT_OPEN 1.0 1.5 0 0 1
C_6457067894_4146210944_0 RECT_OPEN 1.0 1.5 0 0 1
C_6457067894_6457067893_0 RECT_OPEN 1.0 1.5 0 0 1
C_4146210951_4146210945_0 RECT_OPEN 1.0 1.5 0 0 1
C_4146210951_7429952410_0 RECT_OPEN 1.0 1.5 0 0 1
C_4146210951_4146210953_0 RECT_OPEN 1.0 1.5 0 0 1
C_4146210953_4146210951_0 RECT_OPEN 1.0 1.5 0 0 1
C_4146210953_5267402566_0 RECT_OPEN 1.0 1.5 0 0 1
C_4146210953_11007254971_0 RECT_OPEN 1.0 1.5 0 0 1
C_11007254971_6457067894_0 RECT_OPEN 1.0 1.5 0 0 1
C_11007254971_4146210953_0 RECT_OPEN 1.0 1.5 0 0 1
C_11007254971_11007254966_0 RECT_OPEN 1.0 1.5 0 0 1
C_4146211263_7432244870_0 RECT_OPEN 1.0 1.5 0 0 1
C_4146211263_4146211262_0 RECT_OPEN 1.0 1.5 0 0 1
C_4146211263_10094504105_0 RECT_OPEN 1.0 1.5 0 0 1
C_4146211263_4146211266_0 RECT_OPEN 1.0 1.5 0 0 1
C_4146211265_4146211266_0 RECT_OPEN 1.0 1.5 0 0 1
C_4146211265_4146211268_0 RECT_OPEN 1.0 1.5 0 0 1
C_4146211265_4146211262_0 RECT_OPEN 1.0 1.5 0 0 1
C_4146211266_4146211265_0 RECT_OPEN 1.0 1.5 0 0 1
C_4146211266_4146211263_0 RECT_OPEN 1.0 1.5 0 0 1
C_4146211266_4146211267_0 RECT_OPEN 1.0 1.5 0 0 1
C_6196261541_6130226929_0 RECT_OPEN 1.0 1.5 0 0 1
C_6196261541_4146211264_0 RECT_OPEN 1.0 1.5 0 0 1
C_6196261541_9189234398_0 RECT_OPEN 1.0 1.5 0 0 1
C_4146211267_4146211269_0 RECT_OPEN 1.0 1.5 0 0 1
C_4146211267_4146211266_0 RECT_OPEN 1.0 1.5 0 0 1
C_4146211267_4146211270_0 RECT_OPEN 1.0 1.5 0 0 1
C_4146211269_4146211267_0 RECT_OPEN 1.0 1.5 0 0 1
C_4146211270_4146211268_0 RECT_OPEN 1.0 1.5 0 0 1
C_4146211270_4146211267_0 RECT_OPEN 1.0 1.5 0 0 1
C_4146211270_7429952406_0 RECT_OPEN 1.0 1.5 0 0 1
C_7429952406_4146211270_0 RECT_OPEN 1.0 1.5 0 0 1
C_7429952406_4146211273_0 RECT_OPEN 1.0 1.5 0 0 1
C_7429952406_7429952405_0 RECT_OPEN 1.0 1.5 0 0 1
C_6504556325_6458176792_0 RECT_OPEN 1.0 1.5 0 0 1
C_6504556325_4146211273_0 RECT_OPEN 1.0 1.5 0 0 1
C_6504556325_4146211272_0 RECT_OPEN 1.0 1.5 0 0 1
C_4146211279_5267402569_0 RECT_OPEN 1.0 1.5 0 0 1
C_4146211279_4146211272_0 RECT_OPEN 1.0 1.5 0 0 1
C_4146211279_4146211283_0 RECT_OPEN 1.0 1.5 0 0 1
C_4146211273_6504556325_0 RECT_OPEN 1.0 1.5 0 0 1
C_4146211273_7429952406_0 RECT_OPEN 1.0 1.5 0 0 1
C_4146211273_4146211277_0 RECT_OPEN 1.0 1.5 0 0 1
C_4146211275_6458176792_0 RECT_OPEN 1.0 1.5 0 0 1
C_7432244868_4146211277_0 RECT_OPEN 1.0 1.5 0 0 1
C_7432244868_6458176792_0 RECT_OPEN 1.0 1.5 0 0 1
C_7432244868_7432244869_0 RECT_OPEN 1.0 1.5 0 0 1
C_4146211283_4146211281_0 RECT_OPEN 1.0 1.5 0 0 1
C_4146211283_4146211279_0 RECT_OPEN 1.0 1.5 0 0 1
C_4146211283_4146211288_0 RECT_OPEN 1.0 1.5 0 0 1
C_7432244867_4146211280_0 RECT_OPEN 1.0 1.5 0 0 1
C_7432244867_7432244865_0 RECT_OPEN 1.0 1.5 0 0 1
C_7432244867_4146211286_0 RECT_OPEN 1.0 1.5 0 0 1
C_4146211281_4146211280_0 RECT_OPEN 1.0 1.5 0 0 1
C_4146211281_4146211283_0 RECT_OPEN 1.0 1.5 0 0 1
C_4146211281_4146211286_0 RECT_OPEN 1.0 1.5 0 0 1
C_4146211286_4146211288_0 RECT_OPEN 1.0 1.5 0 0 1
C_4146211286_7432244867_0 RECT_OPEN 1.0 1.5 0 0 1
C_4146211286_4146211281_0 RECT_OPEN 1.0 1.5 0 0 1
C_4146211286_10211111398_0 RECT_OPEN 1.0 1.5 0 0 1
C_4918188101_4918203529_0 RECT_OPEN 1.0 1.5 0 0 1
C_4918188101_4918203528_0 RECT_OPEN 1.0 1.5 0 0 1
C_4918188101_4918188103_0 RECT_OPEN 1.0 1.5 0 0 1
C_4918203528_4918188101_0 RECT_OPEN 1.0 1.5 0 0 1
C_4918203528_4918203529_0 RECT_OPEN 1.0 1.5 0 0 1
C_5267402562_5267402561_0 RECT_OPEN 1.0 1.5 0 0 1
C_5267402562_6567395226_0 RECT_OPEN 1.0 1.5 0 0 1
C_5267402562_7432244881_0 RECT_OPEN 1.0 1.5 0 0 1
C_5267402562_7432244880_0 RECT_OPEN 1.0 1.5 0 0 1
C_10049434084_5267402564_0 RECT_OPEN 1.0 1.5 0 0 1
C_5267402567_5267402566_0 RECT_OPEN 1.0 1.5 0 0 1
C_5267822919_5267823525_0 RECT_OPEN 1.0 1.5 0 0 1
C_5267822919_5267822920_0 RECT_OPEN 1.0 1.5 0 0 1
C_5267822919_5267823523_0 RECT_OPEN 1.0 1.5 0 0 1
C_5267823525_5267822919_0 RECT_OPEN 1.0 1.5 0 0 1
C_5267823525_11353404310_0 RECT_OPEN 1.0 1.5 0 0 1
C_5267823525_5267823526_0 RECT_OPEN 1.0 1.5 0 0 1
C_5267822920_5267822919_0 RECT_OPEN 1.0 1.5 0 0 1
C_5267823523_5267823521_0 RECT_OPEN 1.0 1.5 0 0 1
C_5267823523_5267823524_0 RECT_OPEN 1.0 1.5 0 0 1
C_5267823523_5267822919_0 RECT_OPEN 1.0 1.5 0 0 1
C_5267823522_5267823521_0 RECT_OPEN 1.0 1.5 0 0 1
C_5267823524_5267823523_0 RECT_OPEN 1.0 1.5 0 0 1
C_5267823526_5267823525_0 RECT_OPEN 1.0 1.5 0 0 1
C_5267823530_5267823527_0 RECT_OPEN 1.0 1.5 0 0 1
C_5267823530_5493854959_0 RECT_OPEN 1.0 1.5 0 0 1
C_5267823530_11665987959_0 RECT_OPEN 1.0 1.5 0 0 1
C_5267823530_5493868901_0 RECT_OPEN 1.0 1.5 0 0 1
C_5292923939_5292923940_0 RECT_OPEN 1.0 1.5 0 0 1
C_5388479540_10153868763_0 RECT_OPEN 1.0 1.5 0 0 1
C_5388494831_5388494824_0 RECT_OPEN 1.0 1.5 0 0 1
C_6884276481_2127279448_0 RECT_OPEN 1.0 1.5 0 0 1
C_12181798460_266302974_0 RECT_OPEN 1.0 1.5 0 0 1
C_6017833806_6131076159_0 RECT_OPEN 1.0 1.5 0 0 1
C_6017833807_6017833806_0 RECT_OPEN 1.0 1.5 0 0 1
C_6017833807_2406072874_0 RECT_OPEN 1.0 1.5 0 0 1
C_6130226929_6130226928_0 RECT_OPEN 1.0 1.5 0 0 1
C_6130226929_6196261541_0 RECT_OPEN 1.0 1.5 0 0 1
C_6130226929_6130226927_0 RECT_OPEN 1.0 1.5 0 0 1
C_6130226928_6130226929_0 RECT_OPEN 1.0 1.5 0 0 1
C_6130226928_6130226930_0 RECT_OPEN 1.0 1.5 0 0 1
C_6130226928_6131800546_0 RECT_OPEN 1.0 1.5 0 0 1
C_11063510865_11063510864_0 RECT_OPEN 1.0 1.5 0 0 1
C_11063510865_6130226930_0 RECT_OPEN 1.0 1.5 0 0 1
C_11063510865_6130226931_0 RECT_OPEN 1.0 1.5 0 0 1
C_9189234398_6196261541_0 RECT_OPEN 1.0 1.5 0 0 1
C_9189234398_6196261542_0 RECT_OPEN 1.0 1.5 0 0 1
C_9189234398_6130226930_0 RECT_OPEN 1.0 1.5 0 0 1
C_6196261538_6196261537_0 RECT_OPEN 1.0 1.5 0 0 1
C_6196261538_6196261540_0 RECT_OPEN 1.0 1.5 0 0 1
C_6196261538_6130226931_0 RECT_OPEN 1.0 1.5 0 0 1
C_12067305554_6017833807_0 RECT_OPEN 1.0 1.5 0 0 1
C_12067305554_12186005568_0 RECT_OPEN 1.0 1.5 0 0 1
C_6132603450_6131903446_0 RECT_OPEN 1.0 1.5 0 0 1
C_11476594021_6132249479_0 RECT_OPEN 1.0 1.5 0 0 1
C_6141722654_6141722653_0 RECT_OPEN 1.0 1.5 0 0 1
C_6141722654_6141722658_0 RECT_OPEN 1.0 1.5 0 0 1
C_6141722654_6141722656_0 RECT_OPEN 1.0 1.5 0 0 1
C_9189927159_6141722653_0 RECT_OPEN 1.0 1.5 0 0 1
C_10094580906_6141722656_0 RECT_OPEN 1.0 1.5 0 0 1
C_7432244855_6141732621_0 RECT_OPEN 1.0 1.5 0 0 1
C_7432244855_6141732622_0 RECT_OPEN 1.0 1.5 0 0 1
C_7432244855_7432244854_0 RECT_OPEN 1.0 1.5 0 0 1
C_7432244855_7432244853_0 RECT_OPEN 1.0 1.5 0 0 1
C_6567395238_6567395235_0 RECT_OPEN 1.0 1.5 0 0 1
C_6567395238_6143210298_0 RECT_OPEN 1.0 1.5 0 0 1
C_6567395238_6567395228_0 RECT_OPEN 1.0 1.5 0 0 1
C_6567395227_6567395226_0 RECT_OPEN 1.0 1.5 0 0 1
C_6567395227_6567395228_0 RECT_OPEN 1.0 1.5 0 0 1
C_6567395227_6143210298_0 RECT_OPEN 1.0 1.5 0 0 1
C_6567395227_6143210301_0 RECT_OPEN 1.0 1.5 0 0 1
C_6144301681_10839366478_0 RECT_OPEN 1.0 1.5 0 0 1
C_6178041419_6178041420_0 RECT_OPEN 1.0 1.5 0 0 1
C_6178041419_6178041421_0 RECT_OPEN 1.0 1.5 0 0 1
C_6178041419_6178041422_0 RECT_OPEN 1.0 1.5 0 0 1
C_6178041422_6178041423_0 RECT_OPEN 1.0 1.5 0 0 1
C_6178041422_6178041424_0 RECT_OPEN 1.0 1.5 0 0 1
C_6178041422_6178041419_0 RECT_OPEN 1.0 1.5 0 0 1
C_10094529581_6193921850_0 RECT_OPEN 1.0 1.5 0 0 1
C_10094529581_6193921852_0 RECT_OPEN 1.0 1.5 0 0 1
C_10094529581_10094529582_0 RECT_OPEN 1.0 1.5 0 0 1
C_6196261537_6196261538_0 RECT_OPEN 1.0 1.5 0 0 1
C_6196261540_6196261539_0 RECT_OPEN 1.0 1.5 0 0 1
C_6196261540_6196261542_0 RECT_OPEN 1.0 1.5 0 0 1
C_6196261540_6196261538_0 RECT_OPEN 1.0 1.5 0 0 1
C_6196261539_6196261540_0 RECT_OPEN 1.0 1.5 0 0 1
C_6196261542_9189234398_0 RECT_OPEN 1.0 1.5 0 0 1
C_6196261542_6196261543_0 RECT_OPEN 1.0 1.5 0 0 1
C_6196261542_6196261540_0 RECT_OPEN 1.0 1.5 0 0 1
C_11007259534_6458176794_0 RECT_OPEN 1.0 1.5 0 0 1
C_6462301370_6462301371_0 RECT_OPEN 1.0 1.5 0 0 1
C_6462301370_2509419432_0 RECT_OPEN 1.0 1.5 0 0 1
C_6518859304_6518859305_0 RECT_OPEN 1.0 1.5 0 0 1
C_10839341172_6518859320_0 RECT_OPEN 1.0 1.5 0 0 1
C_6528148940_10081671376_0 RECT_OPEN 1.0 1.5 0 0 1
C_6528148951_6528148952_0 RECT_OPEN 1.0 1.5 0 0 1
C_6528148953_6528148954_0 RECT_OPEN 1.0 1.5 0 0 1
C_6528148955_10989273453_0 RECT_OPEN 1.0 1.5 0 0 1
C_6528148956_6528148957_0 RECT_OPEN 1.0 1.5 0 0 1
C_10081706681_10081706684_0 RECT_OPEN 1.0 1.5 0 0 1
C_10081706681_10081706683_0 RECT_OPEN 1.0 1.5 0 0 1
C_6528148963_6528148964_0 RECT_OPEN 1.0 1.5 0 0 1
C_6528148965_6528148966_0 RECT_OPEN 1.0 1.5 0 0 1
C_6528148970_6528148973_0 RECT_OPEN 1.0 1.5 0 0 1
C_6528148975_6528148976_0 RECT_OPEN 1.0 1.5 0 0 1
C_6529626685_6529626686_0 RECT_OPEN 1.0 1.5 0 0 1
C_6531845894_11385670151_0 RECT_OPEN 1.0 1.5 0 0 1
C_13410465225_6531845897_0 RECT_OPEN 1.0 1.5 0 0 1
C_13410465225_13410465226_0 RECT_OPEN 1.0 1.5 0 0 1
C_13410465225_6531845895_0 RECT_OPEN 1.0 1.5 0 0 1
C_10081671279_6531845899_0 RECT_OPEN 1.0 1.5 0 0 1
C_7432359269_7432359284_0 RECT_OPEN 1.0 1.5 0 0 1
C_7432359269_2387017402_0 RECT_OPEN 1.0 1.5 0 0 1
C_6567395228_6567395227_0 RECT_OPEN 1.0 1.5 0 0 1
C_6567395228_6567395229_0 RECT_OPEN 1.0 1.5 0 0 1
C_6567395228_6567395238_0 RECT_OPEN 1.0 1.5 0 0 1
C_6567395228_6567395240_0 RECT_OPEN 1.0 1.5 0 0 1
C_6567395229_6567395228_0 RECT_OPEN 1.0 1.5 0 0 1
C_6567395229_12174205245_0 RECT_OPEN 1.0 1.5 0 0 1
C_6567395229_6567395235_0 RECT_OPEN 1.0 1.5 0 0 1
C_6567395229_6567395237_0 RECT_OPEN 1.0 1.5 0 0 1
C_12174205245_6567395229_0 RECT_OPEN 1.0 1.5 0 0 1
C_12174205245_6567395231_0 RECT_OPEN 1.0 1.5 0 0 1
C_12174205245_6567395234_0 RECT_OPEN 1.0 1.5 0 0 1
C_6567395235_6567395231_0 RECT_OPEN 1.0 1.5 0 0 1
C_6567395235_6567395238_0 RECT_OPEN 1.0 1.5 0 0 1
C_6567395235_6567395229_0 RECT_OPEN 1.0 1.5 0 0 1
C_6567395237_6567395229_0 RECT_OPEN 1.0 1.5 0 0 1
C_6567395237_6567395234_0 RECT_OPEN 1.0 1.5 0 0 1
C_6567395237_6567395240_0 RECT_OPEN 1.0 1.5 0 0 1
C_6633301856_7432359269_0 RECT_OPEN 1.0 1.5 0 0 1
C_6633301856_11982570360_0 RECT_OPEN 1.0 1.5 0 0 1
C_6884276477_5780852321_0 RECT_OPEN 1.0 1.5 0 0 1
C_6884276477_6884276481_0 RECT_OPEN 1.0 1.5 0 0 1
C_6884276686_266268380_0 RECT_OPEN 1.0 1.5 0 0 1
C_6884276686_6884276690_0 RECT_OPEN 1.0 1.5 0 0 1
C_11374930012_11374930008_0 RECT_OPEN 1.0 1.5 0 0 1
C_11374930012_306611195_0 RECT_OPEN 1.0 1.5 0 0 1
C_11178931802_11178931803_0 RECT_OPEN 1.0 1.5 0 0 1
C_11178931802_6887565743_0 RECT_OPEN 1.0 1.5 0 0 1
C_6887565743_11178931798_0 RECT_OPEN 1.0 1.5 0 0 1
C_6887565743_266177660_0 RECT_OPEN 1.0 1.5 0 0 1
C_11178931798_6887565743_0 RECT_OPEN 1.0 1.5 0 0 1
C_11178931798_11178931803_0 RECT_OPEN 1.0 1.5 0 0 1
C_7086183229_7086183228_0 RECT_OPEN 1.0 1.5 0 0 1
C_7086183229_7086183230_0 RECT_OPEN 1.0 1.5 0 0 1
C_7086183229_7432283509_0 RECT_OPEN 1.0 1.5 0 0 1
C_7429952389_7429952388_0 RECT_OPEN 1.0 1.5 0 0 1
C_7429952390_7429952391_0 RECT_OPEN 1.0 1.5 0 0 1
C_7429952391_10153862361_0 RECT_OPEN 1.0 1.5 0 0 1
C_7429952391_7429952390_0 RECT_OPEN 1.0 1.5 0 0 1
C_10153862361_7429952393_0 RECT_OPEN 1.0 1.5 0 0 1
C_10153862361_13410902898_0 RECT_OPEN 1.0 1.5 0 0 1
C_7429952393_6017833806_0 RECT_OPEN 1.0 1.5 0 0 1
C_7429952393_7429952399_0 RECT_OPEN 1.0 1.5 0 0 1
C_7429952399_7429952393_0 RECT_OPEN 1.0 1.5 0 0 1
C_7429952405_7429952406_0 RECT_OPEN 1.0 1.5 0 0 1
C_7432244829_10153862358_0 RECT_OPEN 1.0 1.5 0 0 1
C_7432244831_7432244830_0 RECT_OPEN 1.0 1.5 0 0 1
C_7432244835_7432244834_0 RECT_OPEN 1.0 1.5 0 0 1
C_7432244837_7432244836_0 RECT_OPEN 1.0 1.5 0 0 1
C_7432244838_7432244839_0 RECT_OPEN 1.0 1.5 0 0 1
C_7432244842_11353404310_0 RECT_OPEN 1.0 1.5 0 0 1
C_7432244862_7432244864_0 RECT_OPEN 1.0 1.5 0 0 1
C_7432244864_7432244866_0 RECT_OPEN 1.0 1.5 0 0 1
C_7432244864_7432244863_0 RECT_OPEN 1.0 1.5 0 0 1
C_7432244864_7432244862_0 RECT_OPEN 1.0 1.5 0 0 1
C_7432244864_11431805314_0 RECT_OPEN 1.0 1.5 0 0 1
C_7432244865_7432244867_0 RECT_OPEN 1.0 1.5 0 0 1
C_7432244865_7432244863_0 RECT_OPEN 1.0 1.5 0 0 1
C_7432244865_7432244866_0 RECT_OPEN 1.0 1.5 0 0 1
C_7432244866_10211111398_0 RECT_OPEN 1.0 1.5 0 0 1
C_7432244866_7432244864_0 RECT_OPEN 1.0 1.5 0 0 1
C_7432244866_7432244865_0 RECT_OPEN 1.0 1.5 0 0 1
C_7432244871_7432244870_0 RECT_OPEN 1.0 1.5 0 0 1
C_7432244873_7432244872_0 RECT_OPEN 1.0 1.5 0 0 1
C_7432359284_7432359283_0 RECT_OPEN 1.0 1.5 0 0 1
C_7432359284_7432382393_0 RECT_OPEN 1.0 1.5 0 0 1
C_7432359283_6633301856_0 RECT_OPEN 1.0 1.5 0 0 1
C_7432359283_12695960101_0 RECT_OPEN 1.0 1.5 0 0 1
C_12695960101_12695960103_0 RECT_OPEN 1.0 1.5 0 0 1
C_7432382398_266163778_0 RECT_OPEN 1.0 1.5 0 0 1
C_7432382398_11663109186_0 RECT_OPEN 1.0 1.5 0 0 1
C_7478115637_7478115641_0 RECT_OPEN 1.0 1.5 0 0 1
C_7478257545_7478257546_0 RECT_OPEN 1.0 1.5 0 0 1
C_8979004921_8979004920_0 RECT_OPEN 1.0 1.5 0 0 1
C_8984867007_8984867006_0 RECT_OPEN 1.0 1.5 0 0 1
C_9189234403_11385670152_0 RECT_OPEN 1.0 1.5 0 0 1
C_9813619345_9840710126_0 RECT_OPEN 1.0 1.5 0 0 1
C_9918817333_10081671362_0 RECT_OPEN 1.0 1.5 0 0 1
C_10081671261_11385670151_0 RECT_OPEN 1.0 1.5 0 0 1
C_10081671263_10081671262_0 RECT_OPEN 1.0 1.5 0 0 1
C_10081671268_11387517314_0 RECT_OPEN 1.0 1.5 0 0 1
C_10081671273_10081671274_0 RECT_OPEN 1.0 1.5 0 0 1
C_10081671388_10081671389_0 RECT_OPEN 1.0 1.5 0 0 1
C_10081671389_10081671388_0 RECT_OPEN 1.0 1.5 0 0 1
C_10081671389_10081671390_0 RECT_OPEN 1.0 1.5 0 0 1
C_10081671389_10172729085_0 RECT_OPEN 1.0 1.5 0 0 1
C_10081671390_10081671389_0 RECT_OPEN 1.0 1.5 0 0 1
C_10081671391_10081671392_0 RECT_OPEN 1.0 1.5 0 0 1
C_10081671393_10081671394_0 RECT_OPEN 1.0 1.5 0 0 1
C_10081706679_10081706678_0 RECT_OPEN 1.0 1.5 0 0 1
C_10081706684_10081706686_0 RECT_OPEN 1.0 1.5 0 0 1
C_10081706683_10081706681_0 RECT_OPEN 1.0 1.5 0 0 1
C_10081706686_10081706684_0 RECT_OPEN 1.0 1.5 0 0 1
C_10081725589_10081725588_0 RECT_OPEN 1.0 1.5 0 0 1
C_10081725590_10081725592_0 RECT_OPEN 1.0 1.5 0 0 1
C_10081725592_10081725591_0 RECT_OPEN 1.0 1.5 0 0 1
C_10081725592_10081725590_0 RECT_OPEN 1.0 1.5 0 0 1
C_10081725592_12196366168_0 RECT_OPEN 1.0 1.5 0 0 1
C_10848086334_10081725591_0 RECT_OPEN 1.0 1.5 0 0 1
C_12196366168_10081725592_0 RECT_OPEN 1.0 1.5 0 0 1
C_10094504106_10094504105_0 RECT_OPEN 1.0 1.5 0 0 1
C_10094529582_10094529581_0 RECT_OPEN 1.0 1.5 0 0 1
C_10094580865_10094580864_0 RECT_OPEN 1.0 1.5 0 0 1
C_10094580888_10094580887_0 RECT_OPEN 1.0 1.5 0 0 1
C_10094580890_10094580889_0 RECT_OPEN 1.0 1.5 0 0 1
C_10094586220_10094586219_0 RECT_OPEN 1.0 1.5 0 0 1
C_10153862359_10153862358_0 RECT_OPEN 1.0 1.5 0 0 1
C_13410902898_10153862361_0 RECT_OPEN 1.0 1.5 0 0 1
C_10153868765_10153868763_0 RECT_OPEN 1.0 1.5 0 0 1
C_10989273452_10989273453_0 RECT_OPEN 1.0 1.5 0 0 1
C_10989273454_10989273453_0 RECT_OPEN 1.0 1.5 0 0 1
C_10994556963_10994556964_0 RECT_OPEN 1.0 1.5 0 0 1
C_11006990856_11387496338_0 RECT_OPEN 1.0 1.5 0 0 1
C_11007263821_11007263820_0 RECT_OPEN 1.0 1.5 0 0 1
C_11007435039_11007435038_0 RECT_OPEN 1.0 1.5 0 0 1
C_11012063565_11012063564_0 RECT_OPEN 1.0 1.5 0 0 1
C_11063510864_11063510865_0 RECT_OPEN 1.0 1.5 0 0 1
C_11178931803_2414626606_0 RECT_OPEN 1.0 1.5 0 0 1
C_11178931803_12181798460_0 RECT_OPEN 1.0 1.5 0 0 1
C_11259448961_11259448960_0 RECT_OPEN 1.0 1.5 0 0 1
C_11259448961_11259448969_0 RECT_OPEN 1.0 1.5 0 0 1
C_11259448963_11259448962_0 RECT_OPEN 1.0 1.5 0 0 1
C_11259448963_11259448973_0 RECT_OPEN 1.0 1.5 0 0 1
C_11259448962_11259448953_0 RECT_OPEN 1.0 1.5 0 0 1
C_11892824101_11892824102_0 RECT_OPEN 1.0 1.5 0 0 1
C_11892824101_2385141390_0 RECT_OPEN 1.0 1.5 0 0 1
C_11374930007_11374930012_0 RECT_OPEN 1.0 1.5 0 0 1
C_11374930007_306612914_0 RECT_OPEN 1.0 1.5 0 0 1
C_11374930008_11374930010_0 RECT_OPEN 1.0 1.5 0 0 1
C_11374930008_2619300330_0 RECT_OPEN 1.0 1.5 0 0 1
C_11374930010_11374930011_0 RECT_OPEN 1.0 1.5 0 0 1
C_11374930011_11374930009_0 RECT_OPEN 1.0 1.5 0 0 1
C_11374930011_1653906436_0 RECT_OPEN 1.0 1.5 0 0 1
C_11663109187_11663109186_0 RECT_OPEN 1.0 1.5 0 0 1
C_11892824102_650141428_0 RECT_OPEN 1.0 1.5 0 0 1
C_12203527486_6463569335_0 RECT_OPEN 1.0 1.5 0 0 1
C_12186005568_12186005569_0 RECT_OPEN 1.0 1.5 0 0 1
C_12186005568_2387385680_0 RECT_OPEN 1.0 1.5 0 0 1
C_12197618360_12197618359_0 RECT_OPEN 1.0 1.5 0 0 1
C_12197618362_12197618361_0 RECT_OPEN 1.0 1.5 0 0 1
C_12695946000_12695960101_0 RECT_OPEN 1.0 1.5 0 0 1
C_12695946000_12151399348_0 RECT_OPEN 1.0 1.5 0 0 1
C_12695960103_12695960102_0 RECT_OPEN 1.0 1.5 0 0 1
C_12695960103_3287849051_0 RECT_OPEN 1.0 1.5 0 0 1
C_13152778981_13152778980_0 RECT_OPEN 1.0 1.5 0 0 1
C_13410465226_13410465225_0 RECT_OPEN 1.0 1.5 0 0 1
C_13410465941_13410465942_0 RECT_OPEN 1.0 1.5 0 0 1
C_13415111431_13415111434_0 RECT_OPEN 1.0 1.5 0 0 1
C_13475843622_13475843621_0 RECT_OPEN 1.0 1.5 0 0 1
C_outfall RECT_OPEN 1.0 1.5 0 0 1

