[TITLE]
UrbanFlow-GNN SWMM Regional Simulation

[OPTIONS]
FLOW_UNITS CMS
INFILTRATION HORTON
FLOW_ROUTING DYNWAVE
START_DATE 01/01/2026
START_TIME 00:00:00
REPORT_START_DATE 01/01/2026
REPORT_START_TIME 00:00:00
END_DATE 01/01/2026
END_TIME 02:00:00
REPORT_STEP 00:01:00
WET_STEP 00:00:10
DRY_STEP 00:01:00

[EVAPORATION]
CONSTANT 0.0

[REPORT]
INPUT NO
SUBCATCHMENTS ALL
NODES ALL
LINKS ALL

[RAINGAGES]
Gage1 INTENSITY 0:05 1.0 TIMESERIES RainTS

[TIMESERIES]
RainTS 00:00 150.0
RainTS 01:00 150.0
RainTS 01:05 0.0

[SUBCATCHMENTS]
;;Name RainGage Outlet Area %Imperv Width Slope CurbLen
S_260908311 Gage1 J_260908311 0.5 66.4 50 0.5 0
S_10721527309 Gage1 J_10721527309 0.5 33.5 50 0.5 0
S_4472266108 Gage1 J_4472266108 0.5 44.5 50 0.5 0
S_262268684 Gage1 J_262268684 0.5 54.4 50 0.5 0
S_266371138 Gage1 J_266371138 0.5 60.1 50 0.5 0
S_9828511707 Gage1 J_9828511707 0.5 63.2 50 0.5 0
S_3870651477 Gage1 J_3870651477 0.5 36.2 50 0.5 0
S_262268685 Gage1 J_262268685 0.5 56.9 50 0.5 0
S_7298619223 Gage1 J_7298619223 0.5 39.0 50 0.5 0
S_349027597 Gage1 J_349027597 0.5 62.8 50 0.5 0
S_3870651479 Gage1 J_3870651479 0.5 60.9 50 0.5 0
S_3149622374 Gage1 J_3149622374 0.5 25.1 50 0.5 0
S_262459524 Gage1 J_262459524 0.5 54.1 50 0.5 0
S_13144006534 Gage1 J_13144006534 0.5 43.6 50 0.5 0
S_262459526 Gage1 J_262459526 0.5 52.8 50 0.5 0
S_12655271583 Gage1 J_12655271583 0.5 45.2 50 0.5 0
S_3149619842 Gage1 J_3149619842 0.5 30.0 50 0.5 0
S_262459527 Gage1 J_262459527 0.5 54.9 50 0.5 0
S_264129270 Gage1 J_264129270 0.5 42.2 50 0.5 0
S_12183845711 Gage1 J_12183845711 0.5 26.1 50 0.5 0
S_264129289 Gage1 J_264129289 0.5 43.5 50 0.5 0
S_264141527 Gage1 J_264141527 0.5 50.5 50 0.5 0
S_9179098227 Gage1 J_9179098227 0.5 18.0 50 0.5 0
S_3141425534 Gage1 J_3141425534 0.5 39.4 50 0.5 0
S_264129319 Gage1 J_264129319 0.5 27.9 50 0.5 0
S_264147890 Gage1 J_264147890 0.5 67.5 50 0.5 0
S_5724583886 Gage1 J_5724583886 0.5 22.4 50 0.5 0
S_5930997555 Gage1 J_5930997555 0.5 37.8 50 0.5 0
S_3141425542 Gage1 J_3141425542 0.5 26.2 50 0.5 0
S_3161309799 Gage1 J_3161309799 0.5 61.6 50 0.5 0
S_264189089 Gage1 J_264189089 0.5 55.9 50 0.5 0
S_3149619847 Gage1 J_3149619847 0.5 50.0 50 0.5 0
S_3149619851 Gage1 J_3149619851 0.5 23.0 50 0.5 0
S_3149619853 Gage1 J_3149619853 0.5 37.7 50 0.5 0
S_6536271335 Gage1 J_6536271335 0.5 38.3 50 0.5 0
S_264845660 Gage1 J_264845660 0.5 50.0 50 0.5 0
S_13135627938 Gage1 J_13135627938 0.5 63.1 50 0.5 0
S_2389701677 Gage1 J_2389701677 0.5 42.3 50 0.5 0
S_264845710 Gage1 J_264845710 0.5 29.9 50 0.5 0
S_3148667904 Gage1 J_3148667904 0.5 42.8 50 0.5 0
S_3148667896 Gage1 J_3148667896 0.5 37.7 50 0.5 0
S_9859790834 Gage1 J_9859790834 0.5 19.2 50 0.5 0
S_264845740 Gage1 J_264845740 0.5 43.2 50 0.5 0
S_1315048083 Gage1 J_1315048083 0.5 62.8 50 0.5 0
S_3872540688 Gage1 J_3872540688 0.5 47.0 50 0.5 0
S_3872540686 Gage1 J_3872540686 0.5 37.4 50 0.5 0
S_264845751 Gage1 J_264845751 0.5 50.1 50 0.5 0
S_3872533488 Gage1 J_3872533488 0.5 27.0 50 0.5 0
S_3872533478 Gage1 J_3872533478 0.5 35.9 50 0.5 0
S_2206930282 Gage1 J_2206930282 0.5 29.5 50 0.5 0
S_1644166489 Gage1 J_1644166489 0.5 45.6 50 0.5 0
S_267210547 Gage1 J_267210547 0.5 18.7 50 0.5 0
S_267210550 Gage1 J_267210550 0.5 58.8 50 0.5 0
S_7147115841 Gage1 J_7147115841 0.5 53.6 50 0.5 0
S_2099691667 Gage1 J_2099691667 0.5 21.7 50 0.5 0
S_5919853090 Gage1 J_5919853090 0.5 31.8 50 0.5 0
S_267215656 Gage1 J_267215656 0.5 40.4 50 0.5 0
S_13075849008 Gage1 J_13075849008 0.5 64.3 50 0.5 0
S_3148580198 Gage1 J_3148580198 0.5 33.4 50 0.5 0
S_2206930283 Gage1 J_2206930283 0.5 32.1 50 0.5 0
S_274569246 Gage1 J_274569246 0.5 67.5 50 0.5 0
S_12176161387 Gage1 J_12176161387 0.5 36.7 50 0.5 0
S_274569296 Gage1 J_274569296 0.5 66.2 50 0.5 0
S_3141473152 Gage1 J_3141473152 0.5 50.4 50 0.5 0
S_7328379155 Gage1 J_7328379155 0.5 63.3 50 0.5 0
S_274569309 Gage1 J_274569309 0.5 67.7 50 0.5 0
S_274570242 Gage1 J_274570242 0.5 40.2 50 0.5 0
S_7328379172 Gage1 J_7328379172 0.5 22.1 50 0.5 0
S_274569328 Gage1 J_274569328 0.5 62.4 50 0.5 0
S_7328379173 Gage1 J_7328379173 0.5 61.2 50 0.5 0
S_3141473132 Gage1 J_3141473132 0.5 29.2 50 0.5 0
S_3141472722 Gage1 J_3141472722 0.5 32.9 50 0.5 0
S_274569348 Gage1 J_274569348 0.5 59.6 50 0.5 0
S_3141473140 Gage1 J_3141473140 0.5 19.7 50 0.5 0
S_3141473150 Gage1 J_3141473150 0.5 64.0 50 0.5 0
S_3141473145 Gage1 J_3141473145 0.5 59.2 50 0.5 0
S_3170006930 Gage1 J_3170006930 0.5 38.3 50 0.5 0
S_11563497460 Gage1 J_11563497460 0.5 55.5 50 0.5 0
S_274570292 Gage1 J_274570292 0.5 55.1 50 0.5 0
S_1387622103 Gage1 J_1387622103 0.5 38.7 50 0.5 0
S_4824673767 Gage1 J_4824673767 0.5 45.0 50 0.5 0
S_7328379200 Gage1 J_7328379200 0.5 47.2 50 0.5 0
S_274576719 Gage1 J_274576719 0.5 60.8 50 0.5 0
S_4475150582 Gage1 J_4475150582 0.5 54.1 50 0.5 0
S_2268546167 Gage1 J_2268546167 0.5 61.2 50 0.5 0
S_292565231 Gage1 J_292565231 0.5 45.2 50 0.5 0
S_7479630325 Gage1 J_7479630325 0.5 32.9 50 0.5 0
S_7479630930 Gage1 J_7479630930 0.5 36.0 50 0.5 0
S_7479630950 Gage1 J_7479630950 0.5 65.1 50 0.5 0
S_292565243 Gage1 J_292565243 0.5 42.9 50 0.5 0
S_7478154729 Gage1 J_7478154729 0.5 65.8 50 0.5 0
S_7478154719 Gage1 J_7478154719 0.5 41.2 50 0.5 0
S_7479630320 Gage1 J_7479630320 0.5 62.8 50 0.5 0
S_293709519 Gage1 J_293709519 0.5 52.7 50 0.5 0
S_2034648224 Gage1 J_2034648224 0.5 60.5 50 0.5 0
S_3771990524 Gage1 J_3771990524 0.5 38.5 50 0.5 0
S_2268546111 Gage1 J_2268546111 0.5 37.4 50 0.5 0
S_293709525 Gage1 J_293709525 0.5 29.8 50 0.5 0
S_3771990505 Gage1 J_3771990505 0.5 57.0 50 0.5 0
S_7328379022 Gage1 J_7328379022 0.5 45.2 50 0.5 0
S_7328379067 Gage1 J_7328379067 0.5 32.4 50 0.5 0
S_302499540 Gage1 J_302499540 0.5 29.8 50 0.5 0
S_6197379428 Gage1 J_6197379428 0.5 26.7 50 0.5 0
S_1748486107 Gage1 J_1748486107 0.5 62.3 50 0.5 0
S_5778474214 Gage1 J_5778474214 0.5 51.1 50 0.5 0
S_307401420 Gage1 J_307401420 0.5 56.2 50 0.5 0
S_429781973 Gage1 J_429781973 0.5 43.6 50 0.5 0
S_11070754936 Gage1 J_11070754936 0.5 62.5 50 0.5 0
S_590698291 Gage1 J_590698291 0.5 47.7 50 0.5 0
S_3715148292 Gage1 J_3715148292 0.5 21.9 50 0.5 0
S_429780762 Gage1 J_429780762 0.5 59.3 50 0.5 0
S_429780764 Gage1 J_429780764 0.5 46.6 50 0.5 0
S_590698298 Gage1 J_590698298 0.5 33.9 50 0.5 0
S_9828540923 Gage1 J_9828540923 0.5 39.8 50 0.5 0
S_590698311 Gage1 J_590698311 0.5 42.9 50 0.5 0
S_590698302 Gage1 J_590698302 0.5 34.9 50 0.5 0
S_429781781 Gage1 J_429781781 0.5 29.3 50 0.5 0
S_590698314 Gage1 J_590698314 0.5 27.1 50 0.5 0
S_2483733242 Gage1 J_2483733242 0.5 67.4 50 0.5 0
S_590698312 Gage1 J_590698312 0.5 26.3 50 0.5 0
S_429781782 Gage1 J_429781782 0.5 40.0 50 0.5 0
S_650076942 Gage1 J_650076942 0.5 19.9 50 0.5 0
S_3150107472 Gage1 J_3150107472 0.5 39.4 50 0.5 0
S_3150107471 Gage1 J_3150107471 0.5 23.2 50 0.5 0
S_429783956 Gage1 J_429783956 0.5 46.0 50 0.5 0
S_12059211981 Gage1 J_12059211981 0.5 24.6 50 0.5 0
S_5930945945 Gage1 J_5930945945 0.5 54.6 50 0.5 0
S_429783966 Gage1 J_429783966 0.5 47.3 50 0.5 0
S_1694231991 Gage1 J_1694231991 0.5 37.1 50 0.5 0
S_961816867 Gage1 J_961816867 0.5 20.2 50 0.5 0
S_515736998 Gage1 J_515736998 0.5 66.9 50 0.5 0
S_11891216393 Gage1 J_11891216393 0.5 31.4 50 0.5 0
S_574762971 Gage1 J_574762971 0.5 37.0 50 0.5 0
S_574762980 Gage1 J_574762980 0.5 55.8 50 0.5 0
S_574762976 Gage1 J_574762976 0.5 24.8 50 0.5 0
S_10175047393 Gage1 J_10175047393 0.5 24.3 50 0.5 0
S_574762978 Gage1 J_574762978 0.5 38.3 50 0.5 0
S_10213547236 Gage1 J_10213547236 0.5 21.2 50 0.5 0
S_12279397378 Gage1 J_12279397378 0.5 64.0 50 0.5 0
S_12319493407 Gage1 J_12319493407 0.5 49.2 50 0.5 0
S_574762987 Gage1 J_574762987 0.5 26.3 50 0.5 0
S_2099691681 Gage1 J_2099691681 0.5 50.6 50 0.5 0
S_11399565982 Gage1 J_11399565982 0.5 49.5 50 0.5 0
S_11011994983 Gage1 J_11011994983 0.5 54.7 50 0.5 0
S_574763005 Gage1 J_574763005 0.5 53.5 50 0.5 0
S_11075395480 Gage1 J_11075395480 0.5 43.3 50 0.5 0
S_13816840517 Gage1 J_13816840517 0.5 51.5 50 0.5 0
S_574763010 Gage1 J_574763010 0.5 60.3 50 0.5 0
S_6180297958 Gage1 J_6180297958 0.5 18.7 50 0.5 0
S_3504349796 Gage1 J_3504349796 0.5 43.6 50 0.5 0
S_10996723268 Gage1 J_10996723268 0.5 40.9 50 0.5 0
S_11527430411 Gage1 J_11527430411 0.5 31.7 50 0.5 0
S_13137760931 Gage1 J_13137760931 0.5 45.8 50 0.5 0
S_590698294 Gage1 J_590698294 0.5 50.5 50 0.5 0
S_3558431203 Gage1 J_3558431203 0.5 35.6 50 0.5 0
S_590698296 Gage1 J_590698296 0.5 56.3 50 0.5 0
S_590698300 Gage1 J_590698300 0.5 66.5 50 0.5 0
S_590698318 Gage1 J_590698318 0.5 45.5 50 0.5 0
S_1305577019 Gage1 J_1305577019 0.5 26.1 50 0.5 0
S_590698313 Gage1 J_590698313 0.5 65.7 50 0.5 0
S_590698328 Gage1 J_590698328 0.5 22.3 50 0.5 0
S_7265834831 Gage1 J_7265834831 0.5 47.3 50 0.5 0
S_3170496474 Gage1 J_3170496474 0.5 37.8 50 0.5 0
S_590698330 Gage1 J_590698330 0.5 34.9 50 0.5 0
S_1558259250 Gage1 J_1558259250 0.5 47.5 50 0.5 0
S_1693112084 Gage1 J_1693112084 0.5 41.8 50 0.5 0
S_695070306 Gage1 J_695070306 0.5 64.4 50 0.5 0
S_10969136192 Gage1 J_10969136192 0.5 20.2 50 0.5 0
S_2113348452 Gage1 J_2113348452 0.5 50.5 50 0.5 0
S_695070314 Gage1 J_695070314 0.5 33.8 50 0.5 0
S_3148655277 Gage1 J_3148655277 0.5 33.1 50 0.5 0
S_4915966850 Gage1 J_4915966850 0.5 54.4 50 0.5 0
S_3148655275 Gage1 J_3148655275 0.5 32.1 50 0.5 0
S_695070403 Gage1 J_695070403 0.5 37.4 50 0.5 0
S_3148656438 Gage1 J_3148656438 0.5 54.6 50 0.5 0
S_7479631129 Gage1 J_7479631129 0.5 21.7 50 0.5 0
S_12468537412 Gage1 J_12468537412 0.5 46.2 50 0.5 0
S_695070406 Gage1 J_695070406 0.5 34.7 50 0.5 0
S_13077693351 Gage1 J_13077693351 0.5 64.5 50 0.5 0
S_6802224021 Gage1 J_6802224021 0.5 45.6 50 0.5 0
S_695070408 Gage1 J_695070408 0.5 67.3 50 0.5 0
S_3148656447 Gage1 J_3148656447 0.5 50.0 50 0.5 0
S_7147949887 Gage1 J_7147949887 0.5 45.5 50 0.5 0
S_13875979600 Gage1 J_13875979600 0.5 41.2 50 0.5 0
S_695079385 Gage1 J_695079385 0.5 23.4 50 0.5 0
S_7328099146 Gage1 J_7328099146 0.5 56.8 50 0.5 0
S_10182468120 Gage1 J_10182468120 0.5 46.8 50 0.5 0
S_818630839 Gage1 J_818630839 0.5 44.5 50 0.5 0
S_1387622149 Gage1 J_1387622149 0.5 55.9 50 0.5 0
S_3148609358 Gage1 J_3148609358 0.5 25.0 50 0.5 0
S_11182448718 Gage1 J_11182448718 0.5 30.2 50 0.5 0
S_818634499 Gage1 J_818634499 0.5 46.6 50 0.5 0
S_818634502 Gage1 J_818634502 0.5 62.5 50 0.5 0
S_827145938 Gage1 J_827145938 0.5 52.9 50 0.5 0
S_3148633513 Gage1 J_3148633513 0.5 27.1 50 0.5 0
S_818634513 Gage1 J_818634513 0.5 32.9 50 0.5 0
S_3170006921 Gage1 J_3170006921 0.5 23.0 50 0.5 0
S_929965958 Gage1 J_929965958 0.5 33.0 50 0.5 0
S_10996944954 Gage1 J_10996944954 0.5 30.9 50 0.5 0
S_825408102 Gage1 J_825408102 0.5 58.4 50 0.5 0
S_7479630561 Gage1 J_7479630561 0.5 62.4 50 0.5 0
S_956077413 Gage1 J_956077413 0.5 26.4 50 0.5 0
S_13875979449 Gage1 J_13875979449 0.5 58.7 50 0.5 0
S_844403663 Gage1 J_844403663 0.5 18.1 50 0.5 0
S_6536884399 Gage1 J_6536884399 0.5 54.8 50 0.5 0
S_6141753929 Gage1 J_6141753929 0.5 22.8 50 0.5 0
S_956058174 Gage1 J_956058174 0.5 38.2 50 0.5 0
S_3157684368 Gage1 J_3157684368 0.5 32.4 50 0.5 0
S_929965968 Gage1 J_929965968 0.5 45.5 50 0.5 0
S_2349412314 Gage1 J_2349412314 0.5 41.6 50 0.5 0
S_10996638660 Gage1 J_10996638660 0.5 23.6 50 0.5 0
S_929965972 Gage1 J_929965972 0.5 30.9 50 0.5 0
S_956058186 Gage1 J_956058186 0.5 23.9 50 0.5 0
S_929965977 Gage1 J_929965977 0.5 53.4 50 0.5 0
S_929965973 Gage1 J_929965973 0.5 62.1 50 0.5 0
S_1390345459 Gage1 J_1390345459 0.5 48.1 50 0.5 0
S_7301790590 Gage1 J_7301790590 0.5 66.9 50 0.5 0
S_3157684367 Gage1 J_3157684367 0.5 65.9 50 0.5 0
S_7479631029 Gage1 J_7479631029 0.5 32.2 50 0.5 0
S_7479631046 Gage1 J_7479631046 0.5 22.4 50 0.5 0
S_1694231590 Gage1 J_1694231590 0.5 21.8 50 0.5 0
S_10994329194 Gage1 J_10994329194 0.5 64.0 50 0.5 0
S_1067315124 Gage1 J_1067315124 0.5 21.7 50 0.5 0
S_3161309802 Gage1 J_3161309802 0.5 25.7 50 0.5 0
S_12272816024 Gage1 J_12272816024 0.5 26.8 50 0.5 0
S_11185418653 Gage1 J_11185418653 0.5 32.1 50 0.5 0
S_1083495045 Gage1 J_1083495045 0.5 28.3 50 0.5 0
S_2387290813 Gage1 J_2387290813 0.5 67.5 50 0.5 0
S_1083500526 Gage1 J_1083500526 0.5 25.7 50 0.5 0
S_3149622352 Gage1 J_3149622352 0.5 62.2 50 0.5 0
S_2387123504 Gage1 J_2387123504 0.5 41.6 50 0.5 0
S_1083500529 Gage1 J_1083500529 0.5 29.5 50 0.5 0
S_1132734424 Gage1 J_1132734424 0.5 36.9 50 0.5 0
S_1186777885 Gage1 J_1186777885 0.5 27.7 50 0.5 0
S_7263153533 Gage1 J_7263153533 0.5 29.0 50 0.5 0
S_12649685464 Gage1 J_12649685464 0.5 56.9 50 0.5 0
S_11002591551 Gage1 J_11002591551 0.5 25.2 50 0.5 0
S_1186777924 Gage1 J_1186777924 0.5 35.4 50 0.5 0
S_4447404413 Gage1 J_4447404413 0.5 18.5 50 0.5 0
S_1186777952 Gage1 J_1186777952 0.5 32.8 50 0.5 0
S_7328379151 Gage1 J_7328379151 0.5 65.6 50 0.5 0
S_1186777966 Gage1 J_1186777966 0.5 61.9 50 0.5 0
S_6195813805 Gage1 J_6195813805 0.5 60.9 50 0.5 0
S_1186777956 Gage1 J_1186777956 0.5 46.4 50 0.5 0
S_7328379157 Gage1 J_7328379157 0.5 20.7 50 0.5 0
S_13743331044 Gage1 J_13743331044 0.5 47.0 50 0.5 0
S_1224322808 Gage1 J_1224322808 0.5 51.7 50 0.5 0
S_7263316354 Gage1 J_7263316354 0.5 30.3 50 0.5 0
S_2034648220 Gage1 J_2034648220 0.5 39.8 50 0.5 0
S_2268546130 Gage1 J_2268546130 0.5 63.4 50 0.5 0
S_1244527875 Gage1 J_1244527875 0.5 18.8 50 0.5 0
S_2828324523 Gage1 J_2828324523 0.5 46.3 50 0.5 0
S_2387579010 Gage1 J_2387579010 0.5 51.9 50 0.5 0
S_1244527888 Gage1 J_1244527888 0.5 32.8 50 0.5 0
S_6342458097 Gage1 J_6342458097 0.5 65.5 50 0.5 0
S_1315049037 Gage1 J_1315049037 0.5 67.2 50 0.5 0
S_1300454732 Gage1 J_1300454732 0.5 60.7 50 0.5 0
S_11922878281 Gage1 J_11922878281 0.5 19.4 50 0.5 0
S_1321535551 Gage1 J_1321535551 0.5 48.0 50 0.5 0
S_1305577009 Gage1 J_1305577009 0.5 20.7 50 0.5 0
S_11234065193 Gage1 J_11234065193 0.5 60.6 50 0.5 0
S_6168052376 Gage1 J_6168052376 0.5 52.8 50 0.5 0
S_1314077241 Gage1 J_1314077241 0.5 30.5 50 0.5 0
S_7479631472 Gage1 J_7479631472 0.5 49.4 50 0.5 0
S_7478154540 Gage1 J_7478154540 0.5 56.7 50 0.5 0
S_11370378569 Gage1 J_11370378569 0.5 37.7 50 0.5 0
S_1314077247 Gage1 J_1314077247 0.5 64.7 50 0.5 0
S_6168067117 Gage1 J_6168067117 0.5 42.1 50 0.5 0
S_7478154497 Gage1 J_7478154497 0.5 53.7 50 0.5 0
S_7736381401 Gage1 J_7736381401 0.5 59.4 50 0.5 0
S_1314077248 Gage1 J_1314077248 0.5 22.8 50 0.5 0
S_5777147300 Gage1 J_5777147300 0.5 39.2 50 0.5 0
S_5777147337 Gage1 J_5777147337 0.5 20.7 50 0.5 0
S_1315048058 Gage1 J_1315048058 0.5 61.5 50 0.5 0
S_3148668048 Gage1 J_3148668048 0.5 23.8 50 0.5 0
S_6141957199 Gage1 J_6141957199 0.5 55.0 50 0.5 0
S_1315048061 Gage1 J_1315048061 0.5 61.5 50 0.5 0
S_1315048060 Gage1 J_1315048060 0.5 52.7 50 0.5 0
S_11009627049 Gage1 J_11009627049 0.5 32.8 50 0.5 0
S_10172982421 Gage1 J_10172982421 0.5 61.0 50 0.5 0
S_2206930291 Gage1 J_2206930291 0.5 65.6 50 0.5 0
S_10172982423 Gage1 J_10172982423 0.5 21.0 50 0.5 0
S_1315048075 Gage1 J_1315048075 0.5 44.4 50 0.5 0
S_3148668044 Gage1 J_3148668044 0.5 49.8 50 0.5 0
S_3148668042 Gage1 J_3148668042 0.5 48.5 50 0.5 0
S_10232292384 Gage1 J_10232292384 0.5 57.3 50 0.5 0
S_1315048078 Gage1 J_1315048078 0.5 62.4 50 0.5 0
S_8433749411 Gage1 J_8433749411 0.5 22.0 50 0.5 0
S_6183009077 Gage1 J_6183009077 0.5 34.8 50 0.5 0
S_1315048080 Gage1 J_1315048080 0.5 62.0 50 0.5 0
S_1315052254 Gage1 J_1315052254 0.5 63.7 50 0.5 0
S_2387579012 Gage1 J_2387579012 0.5 60.0 50 0.5 0
S_1315049031 Gage1 J_1315049031 0.5 55.4 50 0.5 0
S_10173119093 Gage1 J_10173119093 0.5 57.6 50 0.5 0
S_1315049034 Gage1 J_1315049034 0.5 31.1 50 0.5 0
S_13140374079 Gage1 J_13140374079 0.5 61.0 50 0.5 0
S_11009632656 Gage1 J_11009632656 0.5 22.5 50 0.5 0
S_3148668037 Gage1 J_3148668037 0.5 31.2 50 0.5 0
S_3148668038 Gage1 J_3148668038 0.5 41.4 50 0.5 0
S_1319974913 Gage1 J_1319974913 0.5 27.5 50 0.5 0
S_5372340496 Gage1 J_5372340496 0.5 39.3 50 0.5 0
S_1319974914 Gage1 J_1319974914 0.5 52.2 50 0.5 0
S_11865827584 Gage1 J_11865827584 0.5 38.6 50 0.5 0
S_12060861661 Gage1 J_12060861661 0.5 42.3 50 0.5 0
S_1367979481 Gage1 J_1367979481 0.5 47.9 50 0.5 0
S_4446729192 Gage1 J_4446729192 0.5 51.4 50 0.5 0
S_1383248215 Gage1 J_1383248215 0.5 25.4 50 0.5 0
S_3148645671 Gage1 J_3148645671 0.5 58.6 50 0.5 0
S_3148655238 Gage1 J_3148655238 0.5 43.2 50 0.5 0
S_3148655236 Gage1 J_3148655236 0.5 45.9 50 0.5 0
S_1383248254 Gage1 J_1383248254 0.5 40.6 50 0.5 0
S_3148655266 Gage1 J_3148655266 0.5 62.9 50 0.5 0
S_7478155165 Gage1 J_7478155165 0.5 40.4 50 0.5 0
S_1383248309 Gage1 J_1383248309 0.5 38.6 50 0.5 0
S_10168257533 Gage1 J_10168257533 0.5 31.8 50 0.5 0
S_12462993523 Gage1 J_12462993523 0.5 40.3 50 0.5 0
S_1387622086 Gage1 J_1387622086 0.5 44.1 50 0.5 0
S_2195883502 Gage1 J_2195883502 0.5 60.0 50 0.5 0
S_12334925123 Gage1 J_12334925123 0.5 36.0 50 0.5 0
S_1387622091 Gage1 J_1387622091 0.5 59.6 50 0.5 0
S_2268546103 Gage1 J_2268546103 0.5 61.6 50 0.5 0
S_10994097991 Gage1 J_10994097991 0.5 39.7 50 0.5 0
S_10182451860 Gage1 J_10182451860 0.5 47.0 50 0.5 0
S_3141475567 Gage1 J_3141475567 0.5 58.1 50 0.5 0
S_1387622131 Gage1 J_1387622131 0.5 55.6 50 0.5 0
S_2268546143 Gage1 J_2268546143 0.5 60.8 50 0.5 0
S_2268546123 Gage1 J_2268546123 0.5 55.6 50 0.5 0
S_1387622145 Gage1 J_1387622145 0.5 26.7 50 0.5 0
S_2268546106 Gage1 J_2268546106 0.5 19.1 50 0.5 0
S_10182451857 Gage1 J_10182451857 0.5 62.3 50 0.5 0
S_2268546110 Gage1 J_2268546110 0.5 20.6 50 0.5 0
S_13064841548 Gage1 J_13064841548 0.5 48.6 50 0.5 0
S_3504349795 Gage1 J_3504349795 0.5 22.1 50 0.5 0
S_5777299715 Gage1 J_5777299715 0.5 31.3 50 0.5 0
S_1614318567 Gage1 J_1614318567 0.5 31.4 50 0.5 0
S_2130361899 Gage1 J_2130361899 0.5 20.4 50 0.5 0
S_12060861673 Gage1 J_12060861673 0.5 43.8 50 0.5 0
S_1614318730 Gage1 J_1614318730 0.5 24.8 50 0.5 0
S_1614318635 Gage1 J_1614318635 0.5 30.6 50 0.5 0
S_6562185321 Gage1 J_6562185321 0.5 64.6 50 0.5 0
S_11428038813 Gage1 J_11428038813 0.5 57.0 50 0.5 0
S_1615766875 Gage1 J_1615766875 0.5 28.2 50 0.5 0
S_11017227499 Gage1 J_11017227499 0.5 41.1 50 0.5 0
S_1615766938 Gage1 J_1615766938 0.5 53.5 50 0.5 0
S_6536473101 Gage1 J_6536473101 0.5 46.4 50 0.5 0
S_1615766958 Gage1 J_1615766958 0.5 44.5 50 0.5 0
S_1615766885 Gage1 J_1615766885 0.5 61.2 50 0.5 0
S_1615767016 Gage1 J_1615767016 0.5 24.6 50 0.5 0
S_1615766914 Gage1 J_1615766914 0.5 58.1 50 0.5 0
S_1615766985 Gage1 J_1615766985 0.5 60.1 50 0.5 0
S_1615767002 Gage1 J_1615767002 0.5 51.5 50 0.5 0
S_3684986226 Gage1 J_3684986226 0.5 63.8 50 0.5 0
S_1615766921 Gage1 J_1615766921 0.5 56.2 50 0.5 0
S_6536473099 Gage1 J_6536473099 0.5 59.7 50 0.5 0
S_3237573297 Gage1 J_3237573297 0.5 49.6 50 0.5 0
S_6536473104 Gage1 J_6536473104 0.5 21.7 50 0.5 0
S_6968263671 Gage1 J_6968263671 0.5 56.5 50 0.5 0
S_1615767007 Gage1 J_1615767007 0.5 50.2 50 0.5 0
S_9846394228 Gage1 J_9846394228 0.5 45.6 50 0.5 0
S_1615767013 Gage1 J_1615767013 0.5 23.8 50 0.5 0
S_11397517840 Gage1 J_11397517840 0.5 59.6 50 0.5 0
S_11070754935 Gage1 J_11070754935 0.5 47.4 50 0.5 0
S_1645178566 Gage1 J_1645178566 0.5 43.9 50 0.5 0
S_1645178612 Gage1 J_1645178612 0.5 67.6 50 0.5 0
S_1683173710 Gage1 J_1683173710 0.5 56.6 50 0.5 0
S_1683173716 Gage1 J_1683173716 0.5 48.2 50 0.5 0
S_7478154651 Gage1 J_7478154651 0.5 60.9 50 0.5 0
S_7147103496 Gage1 J_7147103496 0.5 37.4 50 0.5 0
S_11078308794 Gage1 J_11078308794 0.5 58.7 50 0.5 0
S_11428038816 Gage1 J_11428038816 0.5 28.7 50 0.5 0
S_2446054167 Gage1 J_2446054167 0.5 24.6 50 0.5 0
S_1714977975 Gage1 J_1714977975 0.5 52.5 50 0.5 0
S_1714984580 Gage1 J_1714984580 0.5 26.7 50 0.5 0
S_12009305216 Gage1 J_12009305216 0.5 31.1 50 0.5 0
S_1714984568 Gage1 J_1714984568 0.5 54.4 50 0.5 0
S_8403844099 Gage1 J_8403844099 0.5 59.1 50 0.5 0
S_5776756937 Gage1 J_5776756937 0.5 26.0 50 0.5 0
S_1714984609 Gage1 J_1714984609 0.5 23.5 50 0.5 0
S_13144414990 Gage1 J_13144414990 0.5 39.8 50 0.5 0
S_1815485809 Gage1 J_1815485809 0.5 48.4 50 0.5 0
S_3148587503 Gage1 J_3148587503 0.5 55.3 50 0.5 0
S_1817170894 Gage1 J_1817170894 0.5 43.6 50 0.5 0
S_5689989229 Gage1 J_5689989229 0.5 55.1 50 0.5 0
S_7328007720 Gage1 J_7328007720 0.5 40.6 50 0.5 0
S_5772629055 Gage1 J_5772629055 0.5 49.9 50 0.5 0
S_1817170897 Gage1 J_1817170897 0.5 36.3 50 0.5 0
S_5689989225 Gage1 J_5689989225 0.5 40.7 50 0.5 0
S_5689989227 Gage1 J_5689989227 0.5 22.0 50 0.5 0
S_7478154681 Gage1 J_7478154681 0.5 31.6 50 0.5 0
S_1817170898 Gage1 J_1817170898 0.5 26.8 50 0.5 0
S_6499300015 Gage1 J_6499300015 0.5 36.4 50 0.5 0
S_1827247449 Gage1 J_1827247449 0.5 20.6 50 0.5 0
S_5778521345 Gage1 J_5778521345 0.5 41.7 50 0.5 0
S_1827634843 Gage1 J_1827634843 0.5 45.8 50 0.5 0
S_1906888933 Gage1 J_1906888933 0.5 61.9 50 0.5 0
S_11220661003 Gage1 J_11220661003 0.5 47.4 50 0.5 0
S_1914928013 Gage1 J_1914928013 0.5 67.3 50 0.5 0
S_10182390928 Gage1 J_10182390928 0.5 53.4 50 0.5 0
S_4682937550 Gage1 J_4682937550 0.5 44.8 50 0.5 0
S_2034648230 Gage1 J_2034648230 0.5 34.4 50 0.5 0
S_2034648234 Gage1 J_2034648234 0.5 42.7 50 0.5 0
S_2034648222 Gage1 J_2034648222 0.5 46.0 50 0.5 0
S_7266164820 Gage1 J_7266164820 0.5 64.3 50 0.5 0
S_2034648226 Gage1 J_2034648226 0.5 20.9 50 0.5 0
S_7328379076 Gage1 J_7328379076 0.5 21.6 50 0.5 0
S_2034648233 Gage1 J_2034648233 0.5 24.6 50 0.5 0
S_2034648225 Gage1 J_2034648225 0.5 24.4 50 0.5 0
S_4447100001 Gage1 J_4447100001 0.5 25.8 50 0.5 0
S_2268546160 Gage1 J_2268546160 0.5 50.0 50 0.5 0
S_2268546125 Gage1 J_2268546125 0.5 35.3 50 0.5 0
S_2268546136 Gage1 J_2268546136 0.5 19.7 50 0.5 0
S_2034648235 Gage1 J_2034648235 0.5 25.7 50 0.5 0
S_2041854927 Gage1 J_2041854927 0.5 42.1 50 0.5 0
S_2268546140 Gage1 J_2268546140 0.5 56.4 50 0.5 0
S_4448123006 Gage1 J_4448123006 0.5 53.4 50 0.5 0
S_2268546144 Gage1 J_2268546144 0.5 39.2 50 0.5 0
S_2041854936 Gage1 J_2041854936 0.5 30.8 50 0.5 0
S_2268546152 Gage1 J_2268546152 0.5 26.4 50 0.5 0
S_2099691584 Gage1 J_2099691584 0.5 52.7 50 0.5 0
S_5354906276 Gage1 J_5354906276 0.5 46.5 50 0.5 0
S_6194830177 Gage1 J_6194830177 0.5 49.9 50 0.5 0
S_2099691601 Gage1 J_2099691601 0.5 38.3 50 0.5 0
S_2099691630 Gage1 J_2099691630 0.5 49.0 50 0.5 0
S_12517783371 Gage1 J_12517783371 0.5 64.1 50 0.5 0
S_12517783377 Gage1 J_12517783377 0.5 27.2 50 0.5 0
S_2099691637 Gage1 J_2099691637 0.5 62.9 50 0.5 0
S_2387361293 Gage1 J_2387361293 0.5 21.8 50 0.5 0
S_5807148396 Gage1 J_5807148396 0.5 62.2 50 0.5 0
S_6130070511 Gage1 J_6130070511 0.5 38.3 50 0.5 0
S_2099691661 Gage1 J_2099691661 0.5 27.7 50 0.5 0
S_8530739259 Gage1 J_8530739259 0.5 52.1 50 0.5 0
S_13823559215 Gage1 J_13823559215 0.5 53.4 50 0.5 0
S_11011674941 Gage1 J_11011674941 0.5 24.3 50 0.5 0
S_10172914465 Gage1 J_10172914465 0.5 33.7 50 0.5 0
S_2099691686 Gage1 J_2099691686 0.5 45.7 50 0.5 0
S_2387367081 Gage1 J_2387367081 0.5 62.4 50 0.5 0
S_12151458578 Gage1 J_12151458578 0.5 18.7 50 0.5 0
S_6749666079 Gage1 J_6749666079 0.5 29.1 50 0.5 0
S_11891163805 Gage1 J_11891163805 0.5 66.2 50 0.5 0
S_6536473139 Gage1 J_6536473139 0.5 52.5 50 0.5 0
S_2156205416 Gage1 J_2156205416 0.5 34.2 50 0.5 0
S_6904648005 Gage1 J_6904648005 0.5 40.7 50 0.5 0
S_2412953615 Gage1 J_2412953615 0.5 67.6 50 0.5 0
S_2180904962 Gage1 J_2180904962 0.5 28.7 50 0.5 0
S_2268546087 Gage1 J_2268546087 0.5 50.9 50 0.5 0
S_2195883497 Gage1 J_2195883497 0.5 39.0 50 0.5 0
S_4445588631 Gage1 J_4445588631 0.5 64.8 50 0.5 0
S_2206930257 Gage1 J_2206930257 0.5 60.3 50 0.5 0
S_3148668088 Gage1 J_3148668088 0.5 33.2 50 0.5 0
S_2206930285 Gage1 J_2206930285 0.5 41.7 50 0.5 0
S_2206930279 Gage1 J_2206930279 0.5 52.3 50 0.5 0
S_2206930259 Gage1 J_2206930259 0.5 18.4 50 0.5 0
S_2206930263 Gage1 J_2206930263 0.5 36.7 50 0.5 0
S_2206930274 Gage1 J_2206930274 0.5 25.6 50 0.5 0
S_3148668073 Gage1 J_3148668073 0.5 48.8 50 0.5 0
S_3148668067 Gage1 J_3148668067 0.5 31.2 50 0.5 0
S_2206930265 Gage1 J_2206930265 0.5 27.4 50 0.5 0
S_2206930266 Gage1 J_2206930266 0.5 50.5 50 0.5 0
S_2206930270 Gage1 J_2206930270 0.5 61.3 50 0.5 0
S_3148668114 Gage1 J_3148668114 0.5 36.5 50 0.5 0
S_2206930278 Gage1 J_2206930278 0.5 50.9 50 0.5 0
S_2387579019 Gage1 J_2387579019 0.5 45.6 50 0.5 0
S_3148668099 Gage1 J_3148668099 0.5 20.7 50 0.5 0
S_2206930277 Gage1 J_2206930277 0.5 51.8 50 0.5 0
S_3148668072 Gage1 J_3148668072 0.5 49.7 50 0.5 0
S_3148668071 Gage1 J_3148668071 0.5 41.3 50 0.5 0
S_10172979379 Gage1 J_10172979379 0.5 50.5 50 0.5 0
S_2206930284 Gage1 J_2206930284 0.5 38.5 50 0.5 0
S_2206930286 Gage1 J_2206930286 0.5 38.8 50 0.5 0
S_3148668107 Gage1 J_3148668107 0.5 49.4 50 0.5 0
S_3148668112 Gage1 J_3148668112 0.5 48.8 50 0.5 0
S_2206930293 Gage1 J_2206930293 0.5 28.9 50 0.5 0
S_10172979380 Gage1 J_10172979380 0.5 65.9 50 0.5 0
S_2268546082 Gage1 J_2268546082 0.5 22.1 50 0.5 0
S_2268546086 Gage1 J_2268546086 0.5 57.3 50 0.5 0
S_2268546089 Gage1 J_2268546089 0.5 23.2 50 0.5 0
S_2268546096 Gage1 J_2268546096 0.5 57.0 50 0.5 0
S_2268546093 Gage1 J_2268546093 0.5 42.2 50 0.5 0
S_2268546100 Gage1 J_2268546100 0.5 35.6 50 0.5 0
S_2268546095 Gage1 J_2268546095 0.5 44.1 50 0.5 0
S_4475055875 Gage1 J_4475055875 0.5 43.5 50 0.5 0
S_2268546105 Gage1 J_2268546105 0.5 38.0 50 0.5 0
S_2268546114 Gage1 J_2268546114 0.5 46.2 50 0.5 0
S_4974503765 Gage1 J_4974503765 0.5 52.4 50 0.5 0
S_7328345274 Gage1 J_7328345274 0.5 49.7 50 0.5 0
S_2268546121 Gage1 J_2268546121 0.5 62.3 50 0.5 0
S_3148657060 Gage1 J_3148657060 0.5 63.4 50 0.5 0
S_2268546117 Gage1 J_2268546117 0.5 58.8 50 0.5 0
S_4448123019 Gage1 J_4448123019 0.5 47.2 50 0.5 0
S_2268546132 Gage1 J_2268546132 0.5 18.3 50 0.5 0
S_6144032627 Gage1 J_6144032627 0.5 34.4 50 0.5 0
S_5388808643 Gage1 J_5388808643 0.5 30.8 50 0.5 0
S_2268546146 Gage1 J_2268546146 0.5 59.9 50 0.5 0
S_2268546161 Gage1 J_2268546161 0.5 25.5 50 0.5 0
S_2268546149 Gage1 J_2268546149 0.5 49.5 50 0.5 0
S_2268546151 Gage1 J_2268546151 0.5 59.6 50 0.5 0
S_4475150583 Gage1 J_4475150583 0.5 23.0 50 0.5 0
S_13142029192 Gage1 J_13142029192 0.5 31.8 50 0.5 0
S_2268546156 Gage1 J_2268546156 0.5 31.2 50 0.5 0
S_2268546158 Gage1 J_2268546158 0.5 61.9 50 0.5 0
S_2268546159 Gage1 J_2268546159 0.5 49.5 50 0.5 0
S_2268546163 Gage1 J_2268546163 0.5 52.0 50 0.5 0
S_3590694360 Gage1 J_3590694360 0.5 48.5 50 0.5 0
S_3148614512 Gage1 J_3148614512 0.5 64.7 50 0.5 0
S_2268546165 Gage1 J_2268546165 0.5 34.6 50 0.5 0
S_2268546166 Gage1 J_2268546166 0.5 67.7 50 0.5 0
S_3590694361 Gage1 J_3590694361 0.5 62.6 50 0.5 0
S_10725368291 Gage1 J_10725368291 0.5 60.3 50 0.5 0
S_3803663193 Gage1 J_3803663193 0.5 21.3 50 0.5 0
S_3141425530 Gage1 J_3141425530 0.5 32.0 50 0.5 0
S_5776756946 Gage1 J_5776756946 0.5 36.2 50 0.5 0
S_4540978393 Gage1 J_4540978393 0.5 65.0 50 0.5 0
S_2387407562 Gage1 J_2387407562 0.5 55.4 50 0.5 0
S_10056058174 Gage1 J_10056058174 0.5 60.3 50 0.5 0
S_3872533486 Gage1 J_3872533486 0.5 53.3 50 0.5 0
S_10094041459 Gage1 J_10094041459 0.5 35.1 50 0.5 0
S_3148668068 Gage1 J_3148668068 0.5 55.1 50 0.5 0
S_3148668100 Gage1 J_3148668100 0.5 23.5 50 0.5 0
S_3157670226 Gage1 J_3157670226 0.5 18.2 50 0.5 0
S_2391229483 Gage1 J_2391229483 0.5 29.5 50 0.5 0
S_3148645652 Gage1 J_3148645652 0.5 64.5 50 0.5 0
S_3148645665 Gage1 J_3148645665 0.5 22.2 50 0.5 0
S_3148656434 Gage1 J_3148656434 0.5 55.2 50 0.5 0
S_3148645692 Gage1 J_3148645692 0.5 60.1 50 0.5 0
S_2406966810 Gage1 J_2406966810 0.5 53.6 50 0.5 0
S_2406966812 Gage1 J_2406966812 0.5 30.6 50 0.5 0
S_6505394016 Gage1 J_6505394016 0.5 40.0 50 0.5 0
S_10147078393 Gage1 J_10147078393 0.5 28.8 50 0.5 0
S_2407838682 Gage1 J_2407838682 0.5 34.6 50 0.5 0
S_10213547238 Gage1 J_10213547238 0.5 40.4 50 0.5 0
S_11011650785 Gage1 J_11011650785 0.5 29.9 50 0.5 0
S_11891163804 Gage1 J_11891163804 0.5 35.5 50 0.5 0
S_2413006760 Gage1 J_2413006760 0.5 66.3 50 0.5 0
S_3150118040 Gage1 J_3150118040 0.5 26.0 50 0.5 0
S_2414360817 Gage1 J_2414360817 0.5 24.6 50 0.5 0
S_11509998750 Gage1 J_11509998750 0.5 19.9 50 0.5 0
S_2828324522 Gage1 J_2828324522 0.5 27.1 50 0.5 0
S_9708811990 Gage1 J_9708811990 0.5 52.0 50 0.5 0
S_3141425537 Gage1 J_3141425537 0.5 40.6 50 0.5 0
S_3141425538 Gage1 J_3141425538 0.5 64.5 50 0.5 0
S_3141425539 Gage1 J_3141425539 0.5 46.8 50 0.5 0
S_3141425540 Gage1 J_3141425540 0.5 34.3 50 0.5 0
S_3141425541 Gage1 J_3141425541 0.5 35.9 50 0.5 0
S_3141425543 Gage1 J_3141425543 0.5 50.5 50 0.5 0
S_3141452102 Gage1 J_3141452102 0.5 36.7 50 0.5 0
S_7328379166 Gage1 J_7328379166 0.5 22.3 50 0.5 0
S_13736567789 Gage1 J_13736567789 0.5 25.5 50 0.5 0
S_3141452104 Gage1 J_3141452104 0.5 61.9 50 0.5 0
S_3141452108 Gage1 J_3141452108 0.5 53.8 50 0.5 0
S_7262830544 Gage1 J_7262830544 0.5 45.0 50 0.5 0
S_3141452106 Gage1 J_3141452106 0.5 64.9 50 0.5 0
S_3141452111 Gage1 J_3141452111 0.5 65.4 50 0.5 0
S_3141452107 Gage1 J_3141452107 0.5 21.6 50 0.5 0
S_3141452113 Gage1 J_3141452113 0.5 51.1 50 0.5 0
S_7262830543 Gage1 J_7262830543 0.5 46.2 50 0.5 0
S_3504895466 Gage1 J_3504895466 0.5 57.0 50 0.5 0
S_3141452114 Gage1 J_3141452114 0.5 60.2 50 0.5 0
S_3141452115 Gage1 J_3141452115 0.5 61.3 50 0.5 0
S_3141452118 Gage1 J_3141452118 0.5 60.2 50 0.5 0
S_6136413730 Gage1 J_6136413730 0.5 55.5 50 0.5 0
S_4474704607 Gage1 J_4474704607 0.5 29.1 50 0.5 0
S_3141452119 Gage1 J_3141452119 0.5 46.9 50 0.5 0
S_3141452120 Gage1 J_3141452120 0.5 21.8 50 0.5 0
S_6136413729 Gage1 J_6136413729 0.5 30.7 50 0.5 0
S_10997029517 Gage1 J_10997029517 0.5 19.4 50 0.5 0
S_10997029523 Gage1 J_10997029523 0.5 31.0 50 0.5 0
S_3141452121 Gage1 J_3141452121 0.5 64.0 50 0.5 0
S_3141473146 Gage1 J_3141473146 0.5 66.4 50 0.5 0
S_3141452122 Gage1 J_3141452122 0.5 48.2 50 0.5 0
S_3141452126 Gage1 J_3141452126 0.5 26.3 50 0.5 0
S_3868740751 Gage1 J_3868740751 0.5 59.0 50 0.5 0
S_3141452125 Gage1 J_3141452125 0.5 42.1 50 0.5 0
S_13742285040 Gage1 J_13742285040 0.5 52.6 50 0.5 0
S_3141473131 Gage1 J_3141473131 0.5 44.7 50 0.5 0
S_4462376684 Gage1 J_4462376684 0.5 21.0 50 0.5 0
S_3141473133 Gage1 J_3141473133 0.5 48.2 50 0.5 0
S_3141473135 Gage1 J_3141473135 0.5 49.7 50 0.5 0
S_4462416977 Gage1 J_4462416977 0.5 38.3 50 0.5 0
S_3141473136 Gage1 J_3141473136 0.5 56.4 50 0.5 0
S_3170006931 Gage1 J_3170006931 0.5 54.3 50 0.5 0
S_3141473134 Gage1 J_3141473134 0.5 60.6 50 0.5 0
S_3141473138 Gage1 J_3141473138 0.5 52.9 50 0.5 0
S_13738230989 Gage1 J_13738230989 0.5 56.5 50 0.5 0
S_3141473139 Gage1 J_3141473139 0.5 35.4 50 0.5 0
S_6505328002 Gage1 J_6505328002 0.5 64.6 50 0.5 0
S_3141473149 Gage1 J_3141473149 0.5 23.1 50 0.5 0
S_3141473147 Gage1 J_3141473147 0.5 56.6 50 0.5 0
S_13738231243 Gage1 J_13738231243 0.5 51.0 50 0.5 0
S_10683903422 Gage1 J_10683903422 0.5 57.0 50 0.5 0
S_3141473151 Gage1 J_3141473151 0.5 34.7 50 0.5 0
S_3504895273 Gage1 J_3504895273 0.5 36.3 50 0.5 0
S_3141473155 Gage1 J_3141473155 0.5 44.3 50 0.5 0
S_6180293490 Gage1 J_6180293490 0.5 41.6 50 0.5 0
S_3141475564 Gage1 J_3141475564 0.5 32.9 50 0.5 0
S_13743331026 Gage1 J_13743331026 0.5 28.9 50 0.5 0
S_6560163455 Gage1 J_6560163455 0.5 50.4 50 0.5 0
S_3148580144 Gage1 J_3148580144 0.5 32.4 50 0.5 0
S_10175047395 Gage1 J_10175047395 0.5 58.0 50 0.5 0
S_3148580145 Gage1 J_3148580145 0.5 64.0 50 0.5 0
S_12250445349 Gage1 J_12250445349 0.5 48.8 50 0.5 0
S_7465559430 Gage1 J_7465559430 0.5 23.8 50 0.5 0
S_3148587479 Gage1 J_3148587479 0.5 39.4 50 0.5 0
S_7479630861 Gage1 J_7479630861 0.5 34.3 50 0.5 0
S_3148587482 Gage1 J_3148587482 0.5 56.0 50 0.5 0
S_6137643400 Gage1 J_6137643400 0.5 41.4 50 0.5 0
S_3148587485 Gage1 J_3148587485 0.5 52.3 50 0.5 0
S_13250405522 Gage1 J_13250405522 0.5 30.9 50 0.5 0
S_7479630867 Gage1 J_7479630867 0.5 49.3 50 0.5 0
S_7479630847 Gage1 J_7479630847 0.5 54.9 50 0.5 0
S_7479630882 Gage1 J_7479630882 0.5 65.2 50 0.5 0
S_3148587489 Gage1 J_3148587489 0.5 23.9 50 0.5 0
S_3148587495 Gage1 J_3148587495 0.5 44.0 50 0.5 0
S_7479630469 Gage1 J_7479630469 0.5 45.7 50 0.5 0
S_6914358632 Gage1 J_6914358632 0.5 23.0 50 0.5 0
S_3148587490 Gage1 J_3148587490 0.5 23.3 50 0.5 0
S_6194830173 Gage1 J_6194830173 0.5 56.4 50 0.5 0
S_7479630459 Gage1 J_7479630459 0.5 27.1 50 0.5 0
S_7479630500 Gage1 J_7479630500 0.5 48.2 50 0.5 0
S_7479630520 Gage1 J_7479630520 0.5 48.9 50 0.5 0
S_3148587502 Gage1 J_3148587502 0.5 57.1 50 0.5 0
S_6143252361 Gage1 J_6143252361 0.5 31.4 50 0.5 0
S_7436685266 Gage1 J_7436685266 0.5 25.5 50 0.5 0
S_7478154731 Gage1 J_7478154731 0.5 38.7 50 0.5 0
S_6536473134 Gage1 J_6536473134 0.5 53.4 50 0.5 0
S_3148614498 Gage1 J_3148614498 0.5 39.2 50 0.5 0
S_3148620681 Gage1 J_3148620681 0.5 34.6 50 0.5 0
S_4446468155 Gage1 J_4446468155 0.5 30.6 50 0.5 0
S_3148614507 Gage1 J_3148614507 0.5 50.5 50 0.5 0
S_6885777459 Gage1 J_6885777459 0.5 40.0 50 0.5 0
S_10994159748 Gage1 J_10994159748 0.5 55.4 50 0.5 0
S_3148614513 Gage1 J_3148614513 0.5 58.7 50 0.5 0
S_4475027232 Gage1 J_4475027232 0.5 38.8 50 0.5 0
S_3148614516 Gage1 J_3148614516 0.5 26.6 50 0.5 0
S_3148614515 Gage1 J_3148614515 0.5 30.5 50 0.5 0
S_6562178338 Gage1 J_6562178338 0.5 67.8 50 0.5 0
S_3148620677 Gage1 J_3148620677 0.5 34.5 50 0.5 0
S_3148619693 Gage1 J_3148619693 0.5 33.4 50 0.5 0
S_3148657085 Gage1 J_3148657085 0.5 52.2 50 0.5 0
S_3148619697 Gage1 J_3148619697 0.5 65.2 50 0.5 0
S_3148619698 Gage1 J_3148619698 0.5 50.3 50 0.5 0
S_6194291027 Gage1 J_6194291027 0.5 25.3 50 0.5 0
S_3148620680 Gage1 J_3148620680 0.5 50.1 50 0.5 0
S_3148619699 Gage1 J_3148619699 0.5 67.6 50 0.5 0
S_4475027228 Gage1 J_4475027228 0.5 25.7 50 0.5 0
S_3148620676 Gage1 J_3148620676 0.5 21.1 50 0.5 0
S_4446471884 Gage1 J_4446471884 0.5 21.4 50 0.5 0
S_10182373813 Gage1 J_10182373813 0.5 35.5 50 0.5 0
S_3148620696 Gage1 J_3148620696 0.5 39.1 50 0.5 0
S_4475027221 Gage1 J_4475027221 0.5 49.1 50 0.5 0
S_4475027226 Gage1 J_4475027226 0.5 40.6 50 0.5 0
S_3148620698 Gage1 J_3148620698 0.5 47.2 50 0.5 0
S_5370756307 Gage1 J_5370756307 0.5 65.4 50 0.5 0
S_13928938241 Gage1 J_13928938241 0.5 38.4 50 0.5 0
S_3148645678 Gage1 J_3148645678 0.5 49.1 50 0.5 0
S_3148645653 Gage1 J_3148645653 0.5 66.2 50 0.5 0
S_3148645681 Gage1 J_3148645681 0.5 44.3 50 0.5 0
S_3148645655 Gage1 J_3148645655 0.5 28.4 50 0.5 0
S_3148655285 Gage1 J_3148655285 0.5 49.4 50 0.5 0
S_3148655284 Gage1 J_3148655284 0.5 61.3 50 0.5 0
S_3148645664 Gage1 J_3148645664 0.5 43.7 50 0.5 0
S_3148645670 Gage1 J_3148645670 0.5 22.0 50 0.5 0
S_3148645667 Gage1 J_3148645667 0.5 29.6 50 0.5 0
S_7479631170 Gage1 J_7479631170 0.5 66.9 50 0.5 0
S_3148645691 Gage1 J_3148645691 0.5 30.7 50 0.5 0
S_3148655234 Gage1 J_3148655234 0.5 19.2 50 0.5 0
S_3148645673 Gage1 J_3148645673 0.5 33.7 50 0.5 0
S_3148645685 Gage1 J_3148645685 0.5 43.3 50 0.5 0
S_3148645674 Gage1 J_3148645674 0.5 66.7 50 0.5 0
S_3148645675 Gage1 J_3148645675 0.5 21.2 50 0.5 0
S_7479631201 Gage1 J_7479631201 0.5 45.2 50 0.5 0
S_3148645700 Gage1 J_3148645700 0.5 56.1 50 0.5 0
S_7479631193 Gage1 J_7479631193 0.5 37.7 50 0.5 0
S_3148645677 Gage1 J_3148645677 0.5 66.2 50 0.5 0
S_7479631168 Gage1 J_7479631168 0.5 25.0 50 0.5 0
S_3148645684 Gage1 J_3148645684 0.5 26.9 50 0.5 0
S_3148645683 Gage1 J_3148645683 0.5 56.4 50 0.5 0
S_3148645693 Gage1 J_3148645693 0.5 64.3 50 0.5 0
S_7479631133 Gage1 J_7479631133 0.5 48.0 50 0.5 0
S_6888084544 Gage1 J_6888084544 0.5 22.8 50 0.5 0
S_3148645698 Gage1 J_3148645698 0.5 24.6 50 0.5 0
S_3148645696 Gage1 J_3148645696 0.5 20.2 50 0.5 0
S_3148645697 Gage1 J_3148645697 0.5 41.4 50 0.5 0
S_7479631182 Gage1 J_7479631182 0.5 47.8 50 0.5 0
S_7479631181 Gage1 J_7479631181 0.5 49.9 50 0.5 0
S_3148645699 Gage1 J_3148645699 0.5 37.3 50 0.5 0
S_3148655235 Gage1 J_3148655235 0.5 53.4 50 0.5 0
S_3148655239 Gage1 J_3148655239 0.5 48.8 50 0.5 0
S_7479631141 Gage1 J_7479631141 0.5 61.9 50 0.5 0
S_3148655287 Gage1 J_3148655287 0.5 67.4 50 0.5 0
S_3148655283 Gage1 J_3148655283 0.5 50.3 50 0.5 0
S_3148655242 Gage1 J_3148655242 0.5 30.0 50 0.5 0
S_3148655243 Gage1 J_3148655243 0.5 44.9 50 0.5 0
S_3148655291 Gage1 J_3148655291 0.5 22.8 50 0.5 0
S_3148655248 Gage1 J_3148655248 0.5 41.1 50 0.5 0
S_3148655249 Gage1 J_3148655249 0.5 46.0 50 0.5 0
S_7479631204 Gage1 J_7479631204 0.5 62.8 50 0.5 0
S_3148655253 Gage1 J_3148655253 0.5 20.1 50 0.5 0
S_3148655260 Gage1 J_3148655260 0.5 33.1 50 0.5 0
S_7479631146 Gage1 J_7479631146 0.5 43.4 50 0.5 0
S_3148655261 Gage1 J_3148655261 0.5 18.9 50 0.5 0
S_7479631148 Gage1 J_7479631148 0.5 25.8 50 0.5 0
S_3148655262 Gage1 J_3148655262 0.5 33.1 50 0.5 0
S_3148655263 Gage1 J_3148655263 0.5 62.4 50 0.5 0
S_3148655264 Gage1 J_3148655264 0.5 26.1 50 0.5 0
S_3148655265 Gage1 J_3148655265 0.5 49.9 50 0.5 0
S_3148655268 Gage1 J_3148655268 0.5 56.7 50 0.5 0
S_7479631149 Gage1 J_7479631149 0.5 53.6 50 0.5 0
S_7479631210 Gage1 J_7479631210 0.5 20.0 50 0.5 0
S_3148656432 Gage1 J_3148656432 0.5 29.2 50 0.5 0
S_9720271254 Gage1 J_9720271254 0.5 54.9 50 0.5 0
S_3148655290 Gage1 J_3148655290 0.5 51.9 50 0.5 0
S_3148655295 Gage1 J_3148655295 0.5 31.1 50 0.5 0
S_3148655302 Gage1 J_3148655302 0.5 20.6 50 0.5 0
S_3148655300 Gage1 J_3148655300 0.5 21.4 50 0.5 0
S_3148655296 Gage1 J_3148655296 0.5 54.9 50 0.5 0
S_12695959789 Gage1 J_12695959789 0.5 66.1 50 0.5 0
S_3148655317 Gage1 J_3148655317 0.5 50.8 50 0.5 0
S_3148655299 Gage1 J_3148655299 0.5 63.6 50 0.5 0
S_3148655307 Gage1 J_3148655307 0.5 24.7 50 0.5 0
S_3148655313 Gage1 J_3148655313 0.5 54.5 50 0.5 0
S_3148655308 Gage1 J_3148655308 0.5 66.2 50 0.5 0
S_3148655312 Gage1 J_3148655312 0.5 30.0 50 0.5 0
S_3148655316 Gage1 J_3148655316 0.5 38.5 50 0.5 0
S_3148655325 Gage1 J_3148655325 0.5 57.8 50 0.5 0
S_3148655322 Gage1 J_3148655322 0.5 63.3 50 0.5 0
S_3148655328 Gage1 J_3148655328 0.5 46.1 50 0.5 0
S_3148656436 Gage1 J_3148656436 0.5 41.5 50 0.5 0
S_3148656435 Gage1 J_3148656435 0.5 36.2 50 0.5 0
S_7479631153 Gage1 J_7479631153 0.5 28.5 50 0.5 0
S_3148656440 Gage1 J_3148656440 0.5 23.0 50 0.5 0
S_3148656442 Gage1 J_3148656442 0.5 63.3 50 0.5 0
S_10994386528 Gage1 J_10994386528 0.5 41.7 50 0.5 0
S_10994402342 Gage1 J_10994402342 0.5 46.0 50 0.5 0
S_3148656446 Gage1 J_3148656446 0.5 49.3 50 0.5 0
S_3148656451 Gage1 J_3148656451 0.5 39.7 50 0.5 0
S_10994386529 Gage1 J_10994386529 0.5 38.8 50 0.5 0
S_12443901843 Gage1 J_12443901843 0.5 32.2 50 0.5 0
S_7484216048 Gage1 J_7484216048 0.5 19.3 50 0.5 0
S_12144258014 Gage1 J_12144258014 0.5 62.6 50 0.5 0
S_3148657069 Gage1 J_3148657069 0.5 48.1 50 0.5 0
S_10182376307 Gage1 J_10182376307 0.5 64.1 50 0.5 0
S_3148657081 Gage1 J_3148657081 0.5 44.8 50 0.5 0
S_4475027129 Gage1 J_4475027129 0.5 35.4 50 0.5 0
S_6194014544 Gage1 J_6194014544 0.5 36.3 50 0.5 0
S_3148657084 Gage1 J_3148657084 0.5 53.7 50 0.5 0
S_11106970230 Gage1 J_11106970230 0.5 58.0 50 0.5 0
S_10172979414 Gage1 J_10172979414 0.5 55.8 50 0.5 0
S_6204951065 Gage1 J_6204951065 0.5 24.9 50 0.5 0
S_3148667908 Gage1 J_3148667908 0.5 19.3 50 0.5 0
S_3148667924 Gage1 J_3148667924 0.5 47.6 50 0.5 0
S_6194008055 Gage1 J_6194008055 0.5 50.9 50 0.5 0
S_3148667925 Gage1 J_3148667925 0.5 26.1 50 0.5 0
S_3148668030 Gage1 J_3148668030 0.5 45.8 50 0.5 0
S_10172979410 Gage1 J_10172979410 0.5 28.2 50 0.5 0
S_3148668029 Gage1 J_3148668029 0.5 54.0 50 0.5 0
S_10172979411 Gage1 J_10172979411 0.5 48.7 50 0.5 0
S_3148668041 Gage1 J_3148668041 0.5 56.8 50 0.5 0
S_3148668043 Gage1 J_3148668043 0.5 27.7 50 0.5 0
S_3148668045 Gage1 J_3148668045 0.5 64.6 50 0.5 0
S_10172982419 Gage1 J_10172982419 0.5 43.0 50 0.5 0
S_6204951079 Gage1 J_6204951079 0.5 54.8 50 0.5 0
S_5726284291 Gage1 J_5726284291 0.5 63.0 50 0.5 0
S_3148668105 Gage1 J_3148668105 0.5 26.4 50 0.5 0
S_3148668106 Gage1 J_3148668106 0.5 39.1 50 0.5 0
S_3148668111 Gage1 J_3148668111 0.5 53.4 50 0.5 0
S_10172979382 Gage1 J_10172979382 0.5 44.0 50 0.5 0
S_3148668115 Gage1 J_3148668115 0.5 55.6 50 0.5 0
S_10173119095 Gage1 J_10173119095 0.5 20.4 50 0.5 0
S_3148668116 Gage1 J_3148668116 0.5 20.8 50 0.5 0
S_3149619837 Gage1 J_3149619837 0.5 27.6 50 0.5 0
S_3149619838 Gage1 J_3149619838 0.5 66.8 50 0.5 0
S_10994470325 Gage1 J_10994470325 0.5 64.4 50 0.5 0
S_3149619839 Gage1 J_3149619839 0.5 23.7 50 0.5 0
S_3149619841 Gage1 J_3149619841 0.5 23.0 50 0.5 0
S_11378886517 Gage1 J_11378886517 0.5 23.7 50 0.5 0
S_3149619840 Gage1 J_3149619840 0.5 31.5 50 0.5 0
S_13140521075 Gage1 J_13140521075 0.5 23.0 50 0.5 0
S_3149619850 Gage1 J_3149619850 0.5 42.8 50 0.5 0
S_3149619854 Gage1 J_3149619854 0.5 55.5 50 0.5 0
S_3149619852 Gage1 J_3149619852 0.5 54.0 50 0.5 0
S_3149622362 Gage1 J_3149622362 0.5 28.3 50 0.5 0
S_3149622354 Gage1 J_3149622354 0.5 53.3 50 0.5 0
S_13140521149 Gage1 J_13140521149 0.5 45.8 50 0.5 0
S_7239768143 Gage1 J_7239768143 0.5 28.3 50 0.5 0
S_3150107475 Gage1 J_3150107475 0.5 56.1 50 0.5 0
S_3150107474 Gage1 J_3150107474 0.5 35.4 50 0.5 0
S_3150107476 Gage1 J_3150107476 0.5 55.6 50 0.5 0
S_3150107479 Gage1 J_3150107479 0.5 63.3 50 0.5 0
S_12155154060 Gage1 J_12155154060 0.5 39.2 50 0.5 0
S_12155154062 Gage1 J_12155154062 0.5 20.2 50 0.5 0
S_12155154056 Gage1 J_12155154056 0.5 47.6 50 0.5 0
S_3150107773 Gage1 J_3150107773 0.5 39.7 50 0.5 0
S_9846394225 Gage1 J_9846394225 0.5 62.6 50 0.5 0
S_6536473107 Gage1 J_6536473107 0.5 22.6 50 0.5 0
S_3157670219 Gage1 J_3157670219 0.5 28.4 50 0.5 0
S_10172979413 Gage1 J_10172979413 0.5 65.6 50 0.5 0
S_3157670223 Gage1 J_3157670223 0.5 28.9 50 0.5 0
S_13903770310 Gage1 J_13903770310 0.5 61.7 50 0.5 0
S_3161309795 Gage1 J_3161309795 0.5 59.8 50 0.5 0
S_3161309798 Gage1 J_3161309798 0.5 33.4 50 0.5 0
S_3161309797 Gage1 J_3161309797 0.5 34.5 50 0.5 0
S_3161309801 Gage1 J_3161309801 0.5 54.2 50 0.5 0
S_3161309800 Gage1 J_3161309800 0.5 31.5 50 0.5 0
S_12506414299 Gage1 J_12506414299 0.5 66.6 50 0.5 0
S_9830778271 Gage1 J_9830778271 0.5 19.3 50 0.5 0
S_4447421339 Gage1 J_4447421339 0.5 48.3 50 0.5 0
S_3170478574 Gage1 J_3170478574 0.5 29.4 50 0.5 0
S_10996992466 Gage1 J_10996992466 0.5 54.2 50 0.5 0
S_9788419608 Gage1 J_9788419608 0.5 35.1 50 0.5 0
S_4447382437 Gage1 J_4447382437 0.5 65.1 50 0.5 0
S_3170496477 Gage1 J_3170496477 0.5 27.4 50 0.5 0
S_11002608083 Gage1 J_11002608083 0.5 51.9 50 0.5 0
S_3463462869 Gage1 J_3463462869 0.5 41.7 50 0.5 0
S_3463462871 Gage1 J_3463462871 0.5 47.1 50 0.5 0
S_3463462870 Gage1 J_3463462870 0.5 51.2 50 0.5 0
S_6458940001 Gage1 J_6458940001 0.5 61.1 50 0.5 0
S_10182729200 Gage1 J_10182729200 0.5 66.6 50 0.5 0
S_3500405710 Gage1 J_3500405710 0.5 41.6 50 0.5 0
S_7479630768 Gage1 J_7479630768 0.5 57.8 50 0.5 0
S_3500405711 Gage1 J_3500405711 0.5 55.2 50 0.5 0
S_3500405714 Gage1 J_3500405714 0.5 29.3 50 0.5 0
S_7479630771 Gage1 J_7479630771 0.5 43.9 50 0.5 0
S_3500405734 Gage1 J_3500405734 0.5 24.5 50 0.5 0
S_3500405712 Gage1 J_3500405712 0.5 51.2 50 0.5 0
S_3500405713 Gage1 J_3500405713 0.5 34.3 50 0.5 0
S_3500405737 Gage1 J_3500405737 0.5 65.0 50 0.5 0
S_7479630770 Gage1 J_7479630770 0.5 24.9 50 0.5 0
S_3500405715 Gage1 J_3500405715 0.5 33.9 50 0.5 0
S_7479630775 Gage1 J_7479630775 0.5 40.0 50 0.5 0
S_3500405717 Gage1 J_3500405717 0.5 24.8 50 0.5 0
S_3500405720 Gage1 J_3500405720 0.5 31.2 50 0.5 0
S_7479630763 Gage1 J_7479630763 0.5 58.3 50 0.5 0
S_3500405723 Gage1 J_3500405723 0.5 52.1 50 0.5 0
S_3500405722 Gage1 J_3500405722 0.5 47.0 50 0.5 0
S_10172935936 Gage1 J_10172935936 0.5 55.6 50 0.5 0
S_3500405725 Gage1 J_3500405725 0.5 22.0 50 0.5 0
S_10172935938 Gage1 J_10172935938 0.5 58.7 50 0.5 0
S_3500405729 Gage1 J_3500405729 0.5 62.4 50 0.5 0
S_11434263477 Gage1 J_11434263477 0.5 28.0 50 0.5 0
S_3500405730 Gage1 J_3500405730 0.5 47.0 50 0.5 0
S_3500405731 Gage1 J_3500405731 0.5 18.7 50 0.5 0
S_7479630782 Gage1 J_7479630782 0.5 62.7 50 0.5 0
S_13816806093 Gage1 J_13816806093 0.5 18.8 50 0.5 0
S_3500405732 Gage1 J_3500405732 0.5 47.6 50 0.5 0
S_6196989888 Gage1 J_6196989888 0.5 20.6 50 0.5 0
S_10172938609 Gage1 J_10172938609 0.5 39.7 50 0.5 0
S_10172938606 Gage1 J_10172938606 0.5 28.1 50 0.5 0
S_3500405738 Gage1 J_3500405738 0.5 50.6 50 0.5 0
S_10172938611 Gage1 J_10172938611 0.5 48.2 50 0.5 0
S_3500405740 Gage1 J_3500405740 0.5 60.6 50 0.5 0
S_7479630758 Gage1 J_7479630758 0.5 53.2 50 0.5 0
S_3500405741 Gage1 J_3500405741 0.5 62.5 50 0.5 0
S_7479630780 Gage1 J_7479630780 0.5 64.9 50 0.5 0
S_3500405745 Gage1 J_3500405745 0.5 62.8 50 0.5 0
S_6196989893 Gage1 J_6196989893 0.5 35.7 50 0.5 0
S_7301789574 Gage1 J_7301789574 0.5 34.2 50 0.5 0
S_6758558444 Gage1 J_6758558444 0.5 55.2 50 0.5 0
S_3504895274 Gage1 J_3504895274 0.5 29.0 50 0.5 0
S_3715148285 Gage1 J_3715148285 0.5 41.1 50 0.5 0
S_11234065453 Gage1 J_11234065453 0.5 62.5 50 0.5 0
S_3771990469 Gage1 J_3771990469 0.5 45.5 50 0.5 0
S_3771990522 Gage1 J_3771990522 0.5 44.8 50 0.5 0
S_3771990523 Gage1 J_3771990523 0.5 26.1 50 0.5 0
S_3771990536 Gage1 J_3771990536 0.5 29.0 50 0.5 0
S_3771990535 Gage1 J_3771990535 0.5 62.1 50 0.5 0
S_3771990914 Gage1 J_3771990914 0.5 55.9 50 0.5 0
S_3771990553 Gage1 J_3771990553 0.5 62.9 50 0.5 0
S_3771990545 Gage1 J_3771990545 0.5 36.4 50 0.5 0
S_3771990866 Gage1 J_3771990866 0.5 60.8 50 0.5 0
S_3771990555 Gage1 J_3771990555 0.5 23.4 50 0.5 0
S_3771990873 Gage1 J_3771990873 0.5 22.2 50 0.5 0
S_3771990859 Gage1 J_3771990859 0.5 38.5 50 0.5 0
S_3771990861 Gage1 J_3771990861 0.5 49.7 50 0.5 0
S_3771990888 Gage1 J_3771990888 0.5 36.1 50 0.5 0
S_3771990869 Gage1 J_3771990869 0.5 59.4 50 0.5 0
S_3771990894 Gage1 J_3771990894 0.5 20.7 50 0.5 0
S_3778310159 Gage1 J_3778310159 0.5 34.0 50 0.5 0
S_3778310161 Gage1 J_3778310161 0.5 58.6 50 0.5 0
S_3868740750 Gage1 J_3868740750 0.5 65.8 50 0.5 0
S_12145839287 Gage1 J_12145839287 0.5 26.8 50 0.5 0
S_3870651478 Gage1 J_3870651478 0.5 18.4 50 0.5 0
S_3870651480 Gage1 J_3870651480 0.5 54.1 50 0.5 0
S_3872407423 Gage1 J_3872407423 0.5 21.6 50 0.5 0
S_7328007223 Gage1 J_7328007223 0.5 21.8 50 0.5 0
S_3872407428 Gage1 J_3872407428 0.5 52.0 50 0.5 0
S_3872407427 Gage1 J_3872407427 0.5 37.8 50 0.5 0
S_6132071550 Gage1 J_6132071550 0.5 26.2 50 0.5 0
S_7328007225 Gage1 J_7328007225 0.5 24.2 50 0.5 0
S_3872407429 Gage1 J_3872407429 0.5 30.4 50 0.5 0
S_3872407466 Gage1 J_3872407466 0.5 47.9 50 0.5 0
S_3872407468 Gage1 J_3872407468 0.5 25.0 50 0.5 0
S_3872533474 Gage1 J_3872533474 0.5 22.7 50 0.5 0
S_3872533476 Gage1 J_3872533476 0.5 61.9 50 0.5 0
S_3872533479 Gage1 J_3872533479 0.5 62.2 50 0.5 0
S_3872533480 Gage1 J_3872533480 0.5 48.6 50 0.5 0
S_10172979407 Gage1 J_10172979407 0.5 23.4 50 0.5 0
S_3872533482 Gage1 J_3872533482 0.5 50.0 50 0.5 0
S_11268733245 Gage1 J_11268733245 0.5 55.0 50 0.5 0
S_3872533483 Gage1 J_3872533483 0.5 63.6 50 0.5 0
S_11432094041 Gage1 J_11432094041 0.5 43.9 50 0.5 0
S_3872533484 Gage1 J_3872533484 0.5 36.0 50 0.5 0
S_11404841379 Gage1 J_11404841379 0.5 48.1 50 0.5 0
S_3872533489 Gage1 J_3872533489 0.5 65.0 50 0.5 0
S_3872533485 Gage1 J_3872533485 0.5 58.6 50 0.5 0
S_3872540685 Gage1 J_3872540685 0.5 31.1 50 0.5 0
S_3872540684 Gage1 J_3872540684 0.5 55.5 50 0.5 0
S_3872540687 Gage1 J_3872540687 0.5 55.2 50 0.5 0
S_3872540689 Gage1 J_3872540689 0.5 26.7 50 0.5 0
S_4285700668 Gage1 J_4285700668 0.5 35.2 50 0.5 0
S_4285700669 Gage1 J_4285700669 0.5 25.8 50 0.5 0
S_4445503529 Gage1 J_4445503529 0.5 22.6 50 0.5 0
S_4446468152 Gage1 J_4446468152 0.5 58.9 50 0.5 0
S_6194089776 Gage1 J_6194089776 0.5 56.2 50 0.5 0
S_4446471885 Gage1 J_4446471885 0.5 52.5 50 0.5 0
S_10056058173 Gage1 J_10056058173 0.5 58.9 50 0.5 0
S_13142028598 Gage1 J_13142028598 0.5 45.1 50 0.5 0
S_4448123015 Gage1 J_4448123015 0.5 60.3 50 0.5 0
S_4462384503 Gage1 J_4462384503 0.5 61.2 50 0.5 0
S_7328379175 Gage1 J_7328379175 0.5 41.8 50 0.5 0
S_13738231056 Gage1 J_13738231056 0.5 52.1 50 0.5 0
S_4472266103 Gage1 J_4472266103 0.5 20.7 50 0.5 0
S_8403844097 Gage1 J_8403844097 0.5 24.3 50 0.5 0
S_4474487225 Gage1 J_4474487225 0.5 54.9 50 0.5 0
S_11011971395 Gage1 J_11011971395 0.5 50.3 50 0.5 0
S_11399454153 Gage1 J_11399454153 0.5 52.8 50 0.5 0
S_4474487238 Gage1 J_4474487238 0.5 42.8 50 0.5 0
S_6884558833 Gage1 J_6884558833 0.5 65.8 50 0.5 0
S_4474487265 Gage1 J_4474487265 0.5 43.3 50 0.5 0
S_7263153539 Gage1 J_7263153539 0.5 61.9 50 0.5 0
S_6152308058 Gage1 J_6152308058 0.5 42.2 50 0.5 0
S_4475027224 Gage1 J_4475027224 0.5 51.3 50 0.5 0
S_4475027222 Gage1 J_4475027222 0.5 42.1 50 0.5 0
S_4475027231 Gage1 J_4475027231 0.5 21.1 50 0.5 0
S_4475027229 Gage1 J_4475027229 0.5 33.1 50 0.5 0
S_4475027230 Gage1 J_4475027230 0.5 40.9 50 0.5 0
S_4540978394 Gage1 J_4540978394 0.5 65.1 50 0.5 0
S_7479630892 Gage1 J_7479630892 0.5 48.9 50 0.5 0
S_13238937706 Gage1 J_13238937706 0.5 20.1 50 0.5 0
S_4734151709 Gage1 J_4734151709 0.5 42.2 50 0.5 0
S_12185693394 Gage1 J_12185693394 0.5 62.8 50 0.5 0
S_9921271169 Gage1 J_9921271169 0.5 54.5 50 0.5 0
S_7479630483 Gage1 J_7479630483 0.5 50.4 50 0.5 0
S_5370756309 Gage1 J_5370756309 0.5 20.6 50 0.5 0
S_5388808641 Gage1 J_5388808641 0.5 28.0 50 0.5 0
S_5398408451 Gage1 J_5398408451 0.5 46.5 50 0.5 0
S_5689989226 Gage1 J_5689989226 0.5 42.4 50 0.5 0
S_5689989228 Gage1 J_5689989228 0.5 66.5 50 0.5 0
S_5689989230 Gage1 J_5689989230 0.5 52.0 50 0.5 0
S_9958736551 Gage1 J_9958736551 0.5 25.4 50 0.5 0
S_5773497557 Gage1 J_5773497557 0.5 40.1 50 0.5 0
S_7736381406 Gage1 J_7736381406 0.5 61.9 50 0.5 0
S_8374410177 Gage1 J_8374410177 0.5 66.3 50 0.5 0
S_5774292417 Gage1 J_5774292417 0.5 58.4 50 0.5 0
S_5774292427 Gage1 J_5774292427 0.5 34.0 50 0.5 0
S_5774293614 Gage1 J_5774293614 0.5 20.4 50 0.5 0
S_5776596292 Gage1 J_5776596292 0.5 67.5 50 0.5 0
S_12009305215 Gage1 J_12009305215 0.5 42.6 50 0.5 0
S_13136176386 Gage1 J_13136176386 0.5 20.1 50 0.5 0
S_5777147338 Gage1 J_5777147338 0.5 21.4 50 0.5 0
S_5777147341 Gage1 J_5777147341 0.5 35.9 50 0.5 0
S_7478154515 Gage1 J_7478154515 0.5 51.4 50 0.5 0
S_5777147345 Gage1 J_5777147345 0.5 56.4 50 0.5 0
S_7478154516 Gage1 J_7478154516 0.5 45.7 50 0.5 0
S_5777246392 Gage1 J_5777246392 0.5 39.4 50 0.5 0
S_5777246422 Gage1 J_5777246422 0.5 33.0 50 0.5 0
S_5777246394 Gage1 J_5777246394 0.5 60.5 50 0.5 0
S_7328007285 Gage1 J_7328007285 0.5 59.2 50 0.5 0
S_5777246395 Gage1 J_5777246395 0.5 20.7 50 0.5 0
S_5777246407 Gage1 J_5777246407 0.5 52.7 50 0.5 0
S_5777246413 Gage1 J_5777246413 0.5 39.1 50 0.5 0
S_5777246412 Gage1 J_5777246412 0.5 26.7 50 0.5 0
S_5777246409 Gage1 J_5777246409 0.5 28.2 50 0.5 0
S_5777246411 Gage1 J_5777246411 0.5 36.2 50 0.5 0
S_7328007265 Gage1 J_7328007265 0.5 27.8 50 0.5 0
S_5777246410 Gage1 J_5777246410 0.5 43.5 50 0.5 0
S_7328007288 Gage1 J_7328007288 0.5 61.6 50 0.5 0
S_5777246426 Gage1 J_5777246426 0.5 63.0 50 0.5 0
S_7328007289 Gage1 J_7328007289 0.5 46.6 50 0.5 0
S_7328007286 Gage1 J_7328007286 0.5 64.9 50 0.5 0
S_5777246425 Gage1 J_5777246425 0.5 38.1 50 0.5 0
S_5778503766 Gage1 J_5778503766 0.5 24.9 50 0.5 0
S_12690206052 Gage1 J_12690206052 0.5 28.5 50 0.5 0
S_5843951128 Gage1 J_5843951128 0.5 25.1 50 0.5 0
S_6894177760 Gage1 J_6894177760 0.5 45.9 50 0.5 0
S_11414694995 Gage1 J_11414694995 0.5 49.1 50 0.5 0
S_7147053364 Gage1 J_7147053364 0.5 41.5 50 0.5 0
S_12187854996 Gage1 J_12187854996 0.5 56.7 50 0.5 0
S_10175064193 Gage1 J_10175064193 0.5 54.4 50 0.5 0
S_7298619209 Gage1 J_7298619209 0.5 46.8 50 0.5 0
S_6019669025 Gage1 J_6019669025 0.5 32.0 50 0.5 0
S_6019669026 Gage1 J_6019669026 0.5 53.6 50 0.5 0
S_7479631470 Gage1 J_7479631470 0.5 64.1 50 0.5 0
S_7328007243 Gage1 J_7328007243 0.5 60.7 50 0.5 0
S_6137643401 Gage1 J_6137643401 0.5 21.9 50 0.5 0
S_13134720405 Gage1 J_13134720405 0.5 58.4 50 0.5 0
S_13134720410 Gage1 J_13134720410 0.5 58.7 50 0.5 0
S_6141748417 Gage1 J_6141748417 0.5 61.8 50 0.5 0
S_6141748418 Gage1 J_6141748418 0.5 45.3 50 0.5 0
S_6141753923 Gage1 J_6141753923 0.5 26.8 50 0.5 0
S_12100338250 Gage1 J_12100338250 0.5 36.2 50 0.5 0
S_9510028744 Gage1 J_9510028744 0.5 41.1 50 0.5 0
S_6141753927 Gage1 J_6141753927 0.5 24.9 50 0.5 0
S_10994377647 Gage1 J_10994377647 0.5 36.9 50 0.5 0
S_6141957193 Gage1 J_6141957193 0.5 55.6 50 0.5 0
S_6141957194 Gage1 J_6141957194 0.5 28.3 50 0.5 0
S_6141957197 Gage1 J_6141957197 0.5 64.5 50 0.5 0
S_6141957196 Gage1 J_6141957196 0.5 56.9 50 0.5 0
S_6141957195 Gage1 J_6141957195 0.5 66.0 50 0.5 0
S_6142233154 Gage1 J_6142233154 0.5 20.6 50 0.5 0
S_7043760928 Gage1 J_7043760928 0.5 51.1 50 0.5 0
S_6142233157 Gage1 J_6142233157 0.5 41.1 50 0.5 0
S_6143252362 Gage1 J_6143252362 0.5 52.3 50 0.5 0
S_6143252363 Gage1 J_6143252363 0.5 37.7 50 0.5 0
S_7437331404 Gage1 J_7437331404 0.5 66.4 50 0.5 0
S_7437296682 Gage1 J_7437296682 0.5 65.7 50 0.5 0
S_6144032626 Gage1 J_6144032626 0.5 52.6 50 0.5 0
S_6144095981 Gage1 J_6144095981 0.5 64.4 50 0.5 0
S_13875979441 Gage1 J_13875979441 0.5 63.0 50 0.5 0
S_6152784946 Gage1 J_6152784946 0.5 29.4 50 0.5 0
S_11395651197 Gage1 J_11395651197 0.5 62.4 50 0.5 0
S_11685087325 Gage1 J_11685087325 0.5 59.2 50 0.5 0
S_7478154579 Gage1 J_7478154579 0.5 29.8 50 0.5 0
S_6180290589 Gage1 J_6180290589 0.5 65.8 50 0.5 0
S_6180290590 Gage1 J_6180290590 0.5 39.9 50 0.5 0
S_6180291877 Gage1 J_6180291877 0.5 21.5 50 0.5 0
S_13736567811 Gage1 J_13736567811 0.5 45.5 50 0.5 0
S_6180291884 Gage1 J_6180291884 0.5 44.6 50 0.5 0
S_6180293488 Gage1 J_6180293488 0.5 38.3 50 0.5 0
S_13742285043 Gage1 J_13742285043 0.5 55.4 50 0.5 0
S_6180297957 Gage1 J_6180297957 0.5 21.3 50 0.5 0
S_10996777702 Gage1 J_10996777702 0.5 67.4 50 0.5 0
S_10996868634 Gage1 J_10996868634 0.5 46.0 50 0.5 0
S_6194008056 Gage1 J_6194008056 0.5 36.0 50 0.5 0
S_6194014538 Gage1 J_6194014538 0.5 23.3 50 0.5 0
S_11408964582 Gage1 J_11408964582 0.5 43.0 50 0.5 0
S_7484216053 Gage1 J_7484216053 0.5 63.3 50 0.5 0
S_7147081175 Gage1 J_7147081175 0.5 51.4 50 0.5 0
S_7479631105 Gage1 J_7479631105 0.5 46.7 50 0.5 0
S_6196883741 Gage1 J_6196883741 0.5 65.1 50 0.5 0
S_10168279045 Gage1 J_10168279045 0.5 42.8 50 0.5 0
S_6196883747 Gage1 J_6196883747 0.5 25.6 50 0.5 0
S_6888399011 Gage1 J_6888399011 0.5 45.3 50 0.5 0
S_9749202516 Gage1 J_9749202516 0.5 28.1 50 0.5 0
S_6196989886 Gage1 J_6196989886 0.5 29.1 50 0.5 0
S_6196989887 Gage1 J_6196989887 0.5 22.3 50 0.5 0
S_10172938612 Gage1 J_10172938612 0.5 49.5 50 0.5 0
S_6196989892 Gage1 J_6196989892 0.5 19.9 50 0.5 0
S_6196989891 Gage1 J_6196989891 0.5 64.4 50 0.5 0
S_10172938610 Gage1 J_10172938610 0.5 29.7 50 0.5 0
S_10172938605 Gage1 J_10172938605 0.5 41.4 50 0.5 0
S_6196989889 Gage1 J_6196989889 0.5 48.9 50 0.5 0
S_11066374004 Gage1 J_11066374004 0.5 54.3 50 0.5 0
S_6196989890 Gage1 J_6196989890 0.5 62.1 50 0.5 0
S_10172942118 Gage1 J_10172942118 0.5 30.0 50 0.5 0
S_7479630751 Gage1 J_7479630751 0.5 23.7 50 0.5 0
S_7263153521 Gage1 J_7263153521 0.5 26.2 50 0.5 0
S_6197671075 Gage1 J_6197671075 0.5 50.5 50 0.5 0
S_11290340685 Gage1 J_11290340685 0.5 32.2 50 0.5 0
S_6499300016 Gage1 J_6499300016 0.5 28.2 50 0.5 0
S_7328007824 Gage1 J_7328007824 0.5 28.4 50 0.5 0
S_11395791821 Gage1 J_11395791821 0.5 58.1 50 0.5 0
S_6505394017 Gage1 J_6505394017 0.5 45.9 50 0.5 0
S_10680776590 Gage1 J_10680776590 0.5 58.4 50 0.5 0
S_6753563683 Gage1 J_6753563683 0.5 43.0 50 0.5 0
S_6536473096 Gage1 J_6536473096 0.5 32.7 50 0.5 0
S_6536473097 Gage1 J_6536473097 0.5 41.9 50 0.5 0
S_9846394226 Gage1 J_9846394226 0.5 45.1 50 0.5 0
S_6536473098 Gage1 J_6536473098 0.5 28.1 50 0.5 0
S_6536473100 Gage1 J_6536473100 0.5 48.8 50 0.5 0
S_11397532787 Gage1 J_11397532787 0.5 18.5 50 0.5 0
S_6536473106 Gage1 J_6536473106 0.5 43.3 50 0.5 0
S_6536473109 Gage1 J_6536473109 0.5 46.5 50 0.5 0
S_11397532788 Gage1 J_11397532788 0.5 33.8 50 0.5 0
S_11397532789 Gage1 J_11397532789 0.5 35.3 50 0.5 0
S_6536473137 Gage1 J_6536473137 0.5 23.3 50 0.5 0
S_6536473138 Gage1 J_6536473138 0.5 54.3 50 0.5 0
S_6536882163 Gage1 J_6536882163 0.5 40.7 50 0.5 0
S_6536882164 Gage1 J_6536882164 0.5 34.9 50 0.5 0
S_6536884402 Gage1 J_6536884402 0.5 38.5 50 0.5 0
S_10994329181 Gage1 J_10994329181 0.5 37.8 50 0.5 0
S_6536884398 Gage1 J_6536884398 0.5 43.3 50 0.5 0
S_10994377346 Gage1 J_10994377346 0.5 24.8 50 0.5 0
S_6536884400 Gage1 J_6536884400 0.5 48.2 50 0.5 0
S_6536884401 Gage1 J_6536884401 0.5 51.0 50 0.5 0
S_6536884405 Gage1 J_6536884405 0.5 24.7 50 0.5 0
S_10994329190 Gage1 J_10994329190 0.5 55.9 50 0.5 0
S_6562185320 Gage1 J_6562185320 0.5 34.0 50 0.5 0
S_1275552789 Gage1 J_1275552789 0.5 66.7 50 0.5 0
S_6631012279 Gage1 J_6631012279 0.5 61.7 50 0.5 0
S_10172868164 Gage1 J_10172868164 0.5 59.1 50 0.5 0
S_9824245046 Gage1 J_9824245046 0.5 20.2 50 0.5 0
S_6749735684 Gage1 J_6749735684 0.5 67.1 50 0.5 0
S_6768481191 Gage1 J_6768481191 0.5 56.1 50 0.5 0
S_7043731241 Gage1 J_7043731241 0.5 39.4 50 0.5 0
S_6753563684 Gage1 J_6753563684 0.5 46.3 50 0.5 0
S_6755740921 Gage1 J_6755740921 0.5 35.1 50 0.5 0
S_10989354751 Gage1 J_10989354751 0.5 55.5 50 0.5 0
S_6755740924 Gage1 J_6755740924 0.5 25.1 50 0.5 0
S_6755740926 Gage1 J_6755740926 0.5 18.7 50 0.5 0
S_7328007827 Gage1 J_7328007827 0.5 22.3 50 0.5 0
S_6758558441 Gage1 J_6758558441 0.5 62.2 50 0.5 0
S_10996648270 Gage1 J_10996648270 0.5 26.5 50 0.5 0
S_6758646579 Gage1 J_6758646579 0.5 34.4 50 0.5 0
S_6768481190 Gage1 J_6768481190 0.5 19.9 50 0.5 0
S_6802224014 Gage1 J_6802224014 0.5 20.7 50 0.5 0
S_6802224015 Gage1 J_6802224015 0.5 51.6 50 0.5 0
S_6884558829 Gage1 J_6884558829 0.5 45.8 50 0.5 0
S_6885777456 Gage1 J_6885777456 0.5 35.1 50 0.5 0
S_6902137283 Gage1 J_6902137283 0.5 59.0 50 0.5 0
S_6885777458 Gage1 J_6885777458 0.5 21.3 50 0.5 0
S_6887668015 Gage1 J_6887668015 0.5 41.0 50 0.5 0
S_9840153329 Gage1 J_9840153329 0.5 67.5 50 0.5 0
S_12443097988 Gage1 J_12443097988 0.5 18.6 50 0.5 0
S_12147412804 Gage1 J_12147412804 0.5 36.7 50 0.5 0
S_9796082511 Gage1 J_9796082511 0.5 46.1 50 0.5 0
S_9796082514 Gage1 J_9796082514 0.5 25.4 50 0.5 0
S_6894631549 Gage1 J_6894631549 0.5 42.7 50 0.5 0
S_6894631550 Gage1 J_6894631550 0.5 29.1 50 0.5 0
S_6901616696 Gage1 J_6901616696 0.5 25.4 50 0.5 0
S_6901616701 Gage1 J_6901616701 0.5 48.2 50 0.5 0
S_6901616703 Gage1 J_6901616703 0.5 66.9 50 0.5 0
S_12452602835 Gage1 J_12452602835 0.5 60.9 50 0.5 0
S_12194261264 Gage1 J_12194261264 0.5 63.5 50 0.5 0
S_6904648003 Gage1 J_6904648003 0.5 62.1 50 0.5 0
S_6911622972 Gage1 J_6911622972 0.5 37.3 50 0.5 0
S_6911622971 Gage1 J_6911622971 0.5 18.1 50 0.5 0
S_6914358596 Gage1 J_6914358596 0.5 60.3 50 0.5 0
S_6914358633 Gage1 J_6914358633 0.5 18.6 50 0.5 0
S_6914358616 Gage1 J_6914358616 0.5 33.0 50 0.5 0
S_6914358625 Gage1 J_6914358625 0.5 58.8 50 0.5 0
S_6914358630 Gage1 J_6914358630 0.5 48.7 50 0.5 0
S_12462722212 Gage1 J_12462722212 0.5 44.4 50 0.5 0
S_6914358626 Gage1 J_6914358626 0.5 64.3 50 0.5 0
S_6914358627 Gage1 J_6914358627 0.5 53.8 50 0.5 0
S_9179098233 Gage1 J_9179098233 0.5 60.6 50 0.5 0
S_7479631043 Gage1 J_7479631043 0.5 37.6 50 0.5 0
S_7479631050 Gage1 J_7479631050 0.5 52.7 50 0.5 0
S_7479631061 Gage1 J_7479631061 0.5 37.2 50 0.5 0
S_6914358648 Gage1 J_6914358648 0.5 54.3 50 0.5 0
S_6914358631 Gage1 J_6914358631 0.5 25.9 50 0.5 0
S_6914358649 Gage1 J_6914358649 0.5 42.1 50 0.5 0
S_10182456214 Gage1 J_10182456214 0.5 37.0 50 0.5 0
S_7479630545 Gage1 J_7479630545 0.5 18.6 50 0.5 0
S_6968263670 Gage1 J_6968263670 0.5 37.2 50 0.5 0
S_7095228341 Gage1 J_7095228341 0.5 66.5 50 0.5 0
S_7478154530 Gage1 J_7478154530 0.5 19.0 50 0.5 0
S_7095228343 Gage1 J_7095228343 0.5 24.2 50 0.5 0
S_7095265249 Gage1 J_7095265249 0.5 25.0 50 0.5 0
S_7097308434 Gage1 J_7097308434 0.5 29.0 50 0.5 0
S_7097308435 Gage1 J_7097308435 0.5 32.0 50 0.5 0
S_7138066340 Gage1 J_7138066340 0.5 52.6 50 0.5 0
S_13130383416 Gage1 J_13130383416 0.5 52.7 50 0.5 0
S_7147081174 Gage1 J_7147081174 0.5 42.9 50 0.5 0
S_7479630457 Gage1 J_7479630457 0.5 35.8 50 0.5 0
S_7479630456 Gage1 J_7479630456 0.5 65.5 50 0.5 0
S_7147100015 Gage1 J_7147100015 0.5 39.5 50 0.5 0
S_13134720443 Gage1 J_13134720443 0.5 46.4 50 0.5 0
S_7147100023 Gage1 J_7147100023 0.5 46.7 50 0.5 0
S_13823559216 Gage1 J_13823559216 0.5 34.6 50 0.5 0
S_7147986885 Gage1 J_7147986885 0.5 65.6 50 0.5 0
S_7147986187 Gage1 J_7147986187 0.5 48.1 50 0.5 0
S_12651830520 Gage1 J_12651830520 0.5 33.4 50 0.5 0
S_7263153520 Gage1 J_7263153520 0.5 33.3 50 0.5 0
S_7265834830 Gage1 J_7265834830 0.5 61.2 50 0.5 0
S_7263153527 Gage1 J_7263153527 0.5 51.1 50 0.5 0
S_7265834819 Gage1 J_7265834819 0.5 19.3 50 0.5 0
S_7263316361 Gage1 J_7263316361 0.5 22.4 50 0.5 0
S_7266164815 Gage1 J_7266164815 0.5 47.5 50 0.5 0
S_9179098228 Gage1 J_9179098228 0.5 53.7 50 0.5 0
S_7298619246 Gage1 J_7298619246 0.5 65.3 50 0.5 0
S_12558535618 Gage1 J_12558535618 0.5 35.1 50 0.5 0
S_13135583058 Gage1 J_13135583058 0.5 34.1 50 0.5 0
S_9757079871 Gage1 J_9757079871 0.5 61.9 50 0.5 0
S_7301789573 Gage1 J_7301789573 0.5 56.3 50 0.5 0
S_10996655571 Gage1 J_10996655571 0.5 55.8 50 0.5 0
S_7301790589 Gage1 J_7301790589 0.5 58.5 50 0.5 0
S_7328007238 Gage1 J_7328007238 0.5 66.8 50 0.5 0
S_7478154531 Gage1 J_7478154531 0.5 31.6 50 0.5 0
S_7328007284 Gage1 J_7328007284 0.5 64.4 50 0.5 0
S_7328007287 Gage1 J_7328007287 0.5 55.9 50 0.5 0
S_7478154670 Gage1 J_7478154670 0.5 34.4 50 0.5 0
S_7328007723 Gage1 J_7328007723 0.5 55.4 50 0.5 0
S_7328007816 Gage1 J_7328007816 0.5 21.4 50 0.5 0
S_7602632240 Gage1 J_7602632240 0.5 49.4 50 0.5 0
S_7328099161 Gage1 J_7328099161 0.5 46.9 50 0.5 0
S_7328007822 Gage1 J_7328007822 0.5 30.8 50 0.5 0
S_7328007823 Gage1 J_7328007823 0.5 42.2 50 0.5 0
S_7328099142 Gage1 J_7328099142 0.5 61.4 50 0.5 0
S_7328099147 Gage1 J_7328099147 0.5 38.1 50 0.5 0
S_7328099157 Gage1 J_7328099157 0.5 22.4 50 0.5 0
S_7328099162 Gage1 J_7328099162 0.5 41.9 50 0.5 0
S_7328345273 Gage1 J_7328345273 0.5 22.2 50 0.5 0
S_13142028564 Gage1 J_13142028564 0.5 32.2 50 0.5 0
S_7328345275 Gage1 J_7328345275 0.5 41.3 50 0.5 0
S_12415673019 Gage1 J_12415673019 0.5 31.4 50 0.5 0
S_13142028560 Gage1 J_13142028560 0.5 18.8 50 0.5 0
S_7328379058 Gage1 J_7328379058 0.5 30.0 50 0.5 0
S_7328379077 Gage1 J_7328379077 0.5 44.2 50 0.5 0
S_7328379154 Gage1 J_7328379154 0.5 57.2 50 0.5 0
S_7328379156 Gage1 J_7328379156 0.5 32.4 50 0.5 0
S_9849585566 Gage1 J_9849585566 0.5 60.5 50 0.5 0
S_11707855552 Gage1 J_11707855552 0.5 58.7 50 0.5 0
S_7328379167 Gage1 J_7328379167 0.5 48.9 50 0.5 0
S_13736562866 Gage1 J_13736562866 0.5 35.6 50 0.5 0
S_7328379176 Gage1 J_7328379176 0.5 39.8 50 0.5 0
S_7328379201 Gage1 J_7328379201 0.5 31.3 50 0.5 0
S_7432261686 Gage1 J_7432261686 0.5 29.5 50 0.5 0
S_7432261687 Gage1 J_7432261687 0.5 62.8 50 0.5 0
S_7479631027 Gage1 J_7479631027 0.5 67.1 50 0.5 0
S_7479630316 Gage1 J_7479630316 0.5 31.6 50 0.5 0
S_7437296683 Gage1 J_7437296683 0.5 46.9 50 0.5 0
S_7479630324 Gage1 J_7479630324 0.5 62.5 50 0.5 0
S_7437331394 Gage1 J_7437331394 0.5 39.7 50 0.5 0
S_7437331401 Gage1 J_7437331401 0.5 56.6 50 0.5 0
S_7479631031 Gage1 J_7479631031 0.5 66.4 50 0.5 0
S_7437331400 Gage1 J_7437331400 0.5 29.9 50 0.5 0
S_7465559431 Gage1 J_7465559431 0.5 56.2 50 0.5 0
S_11432092734 Gage1 J_11432092734 0.5 35.5 50 0.5 0
S_7478154505 Gage1 J_7478154505 0.5 49.0 50 0.5 0
S_7478154524 Gage1 J_7478154524 0.5 53.3 50 0.5 0
S_7478154518 Gage1 J_7478154518 0.5 53.7 50 0.5 0
S_7478154523 Gage1 J_7478154523 0.5 66.2 50 0.5 0
S_7478154532 Gage1 J_7478154532 0.5 31.0 50 0.5 0
S_7478154534 Gage1 J_7478154534 0.5 49.6 50 0.5 0
S_7478154539 Gage1 J_7478154539 0.5 56.1 50 0.5 0
S_7478154545 Gage1 J_7478154545 0.5 22.3 50 0.5 0
S_7478154544 Gage1 J_7478154544 0.5 27.3 50 0.5 0
S_7478154575 Gage1 J_7478154575 0.5 51.9 50 0.5 0
S_7478154576 Gage1 J_7478154576 0.5 48.7 50 0.5 0
S_7478154577 Gage1 J_7478154577 0.5 51.1 50 0.5 0
S_11433644719 Gage1 J_11433644719 0.5 51.7 50 0.5 0
S_7478154725 Gage1 J_7478154725 0.5 27.2 50 0.5 0
S_7478154786 Gage1 J_7478154786 0.5 21.4 50 0.5 0
S_12447971611 Gage1 J_12447971611 0.5 63.5 50 0.5 0
S_7478154787 Gage1 J_7478154787 0.5 29.7 50 0.5 0
S_11921590003 Gage1 J_11921590003 0.5 41.4 50 0.5 0
S_12446863535 Gage1 J_12446863535 0.5 18.7 50 0.5 0
S_12443097983 Gage1 J_12443097983 0.5 30.0 50 0.5 0
S_7479630319 Gage1 J_7479630319 0.5 63.7 50 0.5 0
S_7479630422 Gage1 J_7479630422 0.5 43.1 50 0.5 0
S_7479630444 Gage1 J_7479630444 0.5 43.5 50 0.5 0
S_7479630455 Gage1 J_7479630455 0.5 49.6 50 0.5 0
S_7479630458 Gage1 J_7479630458 0.5 60.7 50 0.5 0
S_7479630480 Gage1 J_7479630480 0.5 30.6 50 0.5 0
S_7479630512 Gage1 J_7479630512 0.5 46.2 50 0.5 0
S_7479630537 Gage1 J_7479630537 0.5 32.1 50 0.5 0
S_7479630747 Gage1 J_7479630747 0.5 65.9 50 0.5 0
S_7479630756 Gage1 J_7479630756 0.5 66.1 50 0.5 0
S_9784518335 Gage1 J_9784518335 0.5 25.0 50 0.5 0
S_10172935935 Gage1 J_10172935935 0.5 24.3 50 0.5 0
S_7479630767 Gage1 J_7479630767 0.5 53.5 50 0.5 0
S_7479630769 Gage1 J_7479630769 0.5 24.2 50 0.5 0
S_7479630772 Gage1 J_7479630772 0.5 34.9 50 0.5 0
S_7479630773 Gage1 J_7479630773 0.5 58.2 50 0.5 0
S_9784518332 Gage1 J_9784518332 0.5 25.6 50 0.5 0
S_7479630774 Gage1 J_7479630774 0.5 25.1 50 0.5 0
S_7479630779 Gage1 J_7479630779 0.5 57.5 50 0.5 0
S_11434263476 Gage1 J_11434263476 0.5 66.4 50 0.5 0
S_12477867928 Gage1 J_12477867928 0.5 53.5 50 0.5 0
S_7479630777 Gage1 J_7479630777 0.5 28.6 50 0.5 0
S_7479630778 Gage1 J_7479630778 0.5 66.3 50 0.5 0
S_7479630836 Gage1 J_7479630836 0.5 19.0 50 0.5 0
S_7479630845 Gage1 J_7479630845 0.5 60.8 50 0.5 0
S_7479630846 Gage1 J_7479630846 0.5 41.8 50 0.5 0
S_7479630851 Gage1 J_7479630851 0.5 19.3 50 0.5 0
S_7479630857 Gage1 J_7479630857 0.5 46.3 50 0.5 0
S_9784652733 Gage1 J_9784652733 0.5 50.2 50 0.5 0
S_7479630860 Gage1 J_7479630860 0.5 48.4 50 0.5 0
S_7479630866 Gage1 J_7479630866 0.5 24.5 50 0.5 0
S_7479630871 Gage1 J_7479630871 0.5 57.2 50 0.5 0
S_7479630868 Gage1 J_7479630868 0.5 53.2 50 0.5 0
S_7479630875 Gage1 J_7479630875 0.5 49.9 50 0.5 0
S_7479630878 Gage1 J_7479630878 0.5 39.4 50 0.5 0
S_7479630883 Gage1 J_7479630883 0.5 18.7 50 0.5 0
S_7479630901 Gage1 J_7479630901 0.5 49.2 50 0.5 0
S_7479630959 Gage1 J_7479630959 0.5 40.1 50 0.5 0
S_11434843380 Gage1 J_11434843380 0.5 55.9 50 0.5 0
S_7479630941 Gage1 J_7479630941 0.5 65.3 50 0.5 0
S_7479630944 Gage1 J_7479630944 0.5 64.5 50 0.5 0
S_12464922958 Gage1 J_12464922958 0.5 23.0 50 0.5 0
S_7479630985 Gage1 J_7479630985 0.5 24.1 50 0.5 0
S_7479631021 Gage1 J_7479631021 0.5 66.7 50 0.5 0
S_7479631030 Gage1 J_7479631030 0.5 61.2 50 0.5 0
S_7479631047 Gage1 J_7479631047 0.5 50.4 50 0.5 0
S_7479631049 Gage1 J_7479631049 0.5 67.6 50 0.5 0
S_7479631125 Gage1 J_7479631125 0.5 41.3 50 0.5 0
S_7479631135 Gage1 J_7479631135 0.5 58.7 50 0.5 0
S_7479631134 Gage1 J_7479631134 0.5 48.8 50 0.5 0
S_7479631136 Gage1 J_7479631136 0.5 63.8 50 0.5 0
S_7479631147 Gage1 J_7479631147 0.5 18.0 50 0.5 0
S_7479631152 Gage1 J_7479631152 0.5 55.1 50 0.5 0
S_7479631169 Gage1 J_7479631169 0.5 29.4 50 0.5 0
S_7479631180 Gage1 J_7479631180 0.5 44.4 50 0.5 0
S_7479631187 Gage1 J_7479631187 0.5 58.1 50 0.5 0
S_7479631192 Gage1 J_7479631192 0.5 27.0 50 0.5 0
S_7479631213 Gage1 J_7479631213 0.5 44.1 50 0.5 0
S_7479631444 Gage1 J_7479631444 0.5 64.8 50 0.5 0
S_10948126480 Gage1 J_10948126480 0.5 61.8 50 0.5 0
S_7479631471 Gage1 J_7479631471 0.5 32.6 50 0.5 0
S_7479631476 Gage1 J_7479631476 0.5 18.1 50 0.5 0
S_7484216047 Gage1 J_7484216047 0.5 59.6 50 0.5 0
S_10182376309 Gage1 J_10182376309 0.5 67.2 50 0.5 0
S_7484216051 Gage1 J_7484216051 0.5 53.7 50 0.5 0
S_7484216052 Gage1 J_7484216052 0.5 59.2 50 0.5 0
S_10182376302 Gage1 J_10182376302 0.5 57.2 50 0.5 0
S_13130383417 Gage1 J_13130383417 0.5 43.0 50 0.5 0
S_7602632242 Gage1 J_7602632242 0.5 62.5 50 0.5 0
S_11009632658 Gage1 J_11009632658 0.5 59.3 50 0.5 0
S_10196255890 Gage1 J_10196255890 0.5 36.8 50 0.5 0
S_8609029843 Gage1 J_8609029843 0.5 20.9 50 0.5 0
S_12279397377 Gage1 J_12279397377 0.5 40.7 50 0.5 0
S_9179098226 Gage1 J_9179098226 0.5 25.0 50 0.5 0
S_9510028747 Gage1 J_9510028747 0.5 27.8 50 0.5 0
S_11121177292 Gage1 J_11121177292 0.5 26.5 50 0.5 0
S_10994453386 Gage1 J_10994453386 0.5 23.0 50 0.5 0
S_9510028770 Gage1 J_9510028770 0.5 32.2 50 0.5 0
S_9525461684 Gage1 J_9525461684 0.5 18.8 50 0.5 0
S_9708811991 Gage1 J_9708811991 0.5 66.5 50 0.5 0
S_12147412806 Gage1 J_12147412806 0.5 66.7 50 0.5 0
S_12169759724 Gage1 J_12169759724 0.5 47.1 50 0.5 0
S_9757079870 Gage1 J_9757079870 0.5 37.0 50 0.5 0
S_9757079872 Gage1 J_9757079872 0.5 63.2 50 0.5 0
S_13135583074 Gage1 J_13135583074 0.5 48.9 50 0.5 0
S_13135583071 Gage1 J_13135583071 0.5 21.1 50 0.5 0
S_9759551602 Gage1 J_9759551602 0.5 53.7 50 0.5 0
S_12169759734 Gage1 J_12169759734 0.5 38.3 50 0.5 0
S_9784518333 Gage1 J_9784518333 0.5 43.4 50 0.5 0
S_9784518334 Gage1 J_9784518334 0.5 55.4 50 0.5 0
S_11434263478 Gage1 J_11434263478 0.5 64.9 50 0.5 0
S_13343872440 Gage1 J_13343872440 0.5 40.5 50 0.5 0
S_10168279044 Gage1 J_10168279044 0.5 34.7 50 0.5 0
S_9796082515 Gage1 J_9796082515 0.5 43.7 50 0.5 0
S_9796708050 Gage1 J_9796708050 0.5 62.8 50 0.5 0
S_9824051075 Gage1 J_9824051075 0.5 20.5 50 0.5 0
S_9824245043 Gage1 J_9824245043 0.5 48.8 50 0.5 0
S_11184918138 Gage1 J_11184918138 0.5 35.5 50 0.5 0
S_9826793285 Gage1 J_9826793285 0.5 34.1 50 0.5 0
S_9826793286 Gage1 J_9826793286 0.5 20.7 50 0.5 0
S_11233009356 Gage1 J_11233009356 0.5 65.0 50 0.5 0
S_12506414300 Gage1 J_12506414300 0.5 63.2 50 0.5 0
S_9846394217 Gage1 J_9846394217 0.5 34.4 50 0.5 0
S_11428038811 Gage1 J_11428038811 0.5 23.0 50 0.5 0
S_10969136196 Gage1 J_10969136196 0.5 33.1 50 0.5 0
S_10969136194 Gage1 J_10969136194 0.5 53.5 50 0.5 0
S_13877530781 Gage1 J_13877530781 0.5 26.5 50 0.5 0
S_11509998741 Gage1 J_11509998741 0.5 18.7 50 0.5 0
S_13903770309 Gage1 J_13903770309 0.5 41.7 50 0.5 0
S_10172868165 Gage1 J_10172868165 0.5 61.0 50 0.5 0
S_10172914467 Gage1 J_10172914467 0.5 51.1 50 0.5 0
S_10172935937 Gage1 J_10172935937 0.5 66.2 50 0.5 0
S_10172935939 Gage1 J_10172935939 0.5 65.6 50 0.5 0
S_10172942119 Gage1 J_10172942119 0.5 64.9 50 0.5 0
S_10172979378 Gage1 J_10172979378 0.5 18.1 50 0.5 0
S_11359603296 Gage1 J_11359603296 0.5 49.8 50 0.5 0
S_11432115299 Gage1 J_11432115299 0.5 63.1 50 0.5 0
S_10172979412 Gage1 J_10172979412 0.5 43.1 50 0.5 0
S_10172979415 Gage1 J_10172979415 0.5 43.1 50 0.5 0
S_10172982422 Gage1 J_10172982422 0.5 40.7 50 0.5 0
S_10173119094 Gage1 J_10173119094 0.5 29.7 50 0.5 0
S_13140374056 Gage1 J_13140374056 0.5 30.2 50 0.5 0
S_10173119096 Gage1 J_10173119096 0.5 54.2 50 0.5 0
S_10175047394 Gage1 J_10175047394 0.5 22.8 50 0.5 0
S_10175047396 Gage1 J_10175047396 0.5 26.6 50 0.5 0
S_10182373816 Gage1 J_10182373816 0.5 21.1 50 0.5 0
S_10182376305 Gage1 J_10182376305 0.5 63.5 50 0.5 0
S_10182376304 Gage1 J_10182376304 0.5 41.9 50 0.5 0
S_10182376306 Gage1 J_10182376306 0.5 35.8 50 0.5 0
S_10182376308 Gage1 J_10182376308 0.5 38.8 50 0.5 0
S_10182376310 Gage1 J_10182376310 0.5 46.4 50 0.5 0
S_10182379412 Gage1 J_10182379412 0.5 35.8 50 0.5 0
S_12198988557 Gage1 J_12198988557 0.5 31.1 50 0.5 0
S_12432886068 Gage1 J_12432886068 0.5 23.9 50 0.5 0
S_10182451858 Gage1 J_10182451858 0.5 32.3 50 0.5 0
S_11290335534 Gage1 J_11290335534 0.5 58.1 50 0.5 0
S_12651793611 Gage1 J_12651793611 0.5 22.6 50 0.5 0
S_10221211848 Gage1 J_10221211848 0.5 25.5 50 0.5 0
S_12169759733 Gage1 J_12169759733 0.5 64.4 50 0.5 0
S_12169759721 Gage1 J_12169759721 0.5 32.0 50 0.5 0
S_10948126479 Gage1 J_10948126479 0.5 48.6 50 0.5 0
S_12106511659 Gage1 J_12106511659 0.5 27.6 50 0.5 0
S_12144258015 Gage1 J_12144258015 0.5 22.8 50 0.5 0
S_10994159749 Gage1 J_10994159749 0.5 67.4 50 0.5 0
S_10994329192 Gage1 J_10994329192 0.5 45.3 50 0.5 0
S_10994329200 Gage1 J_10994329200 0.5 28.1 50 0.5 0
S_10994377348 Gage1 J_10994377348 0.5 55.8 50 0.5 0
S_12443901195 Gage1 J_12443901195 0.5 36.5 50 0.5 0
S_10994411032 Gage1 J_10994411032 0.5 39.5 50 0.5 0
S_10994402343 Gage1 J_10994402343 0.5 39.5 50 0.5 0
S_10994402344 Gage1 J_10994402344 0.5 22.0 50 0.5 0
S_10994402345 Gage1 J_10994402345 0.5 38.8 50 0.5 0
S_12435660636 Gage1 J_12435660636 0.5 18.6 50 0.5 0
S_10994411033 Gage1 J_10994411033 0.5 31.5 50 0.5 0
S_11017145233 Gage1 J_11017145233 0.5 39.6 50 0.5 0
S_10996655572 Gage1 J_10996655572 0.5 57.7 50 0.5 0
S_10996777703 Gage1 J_10996777703 0.5 54.2 50 0.5 0
S_10996868635 Gage1 J_10996868635 0.5 32.5 50 0.5 0
S_11034031540 Gage1 J_11034031540 0.5 61.9 50 0.5 0
S_10996869891 Gage1 J_10996869891 0.5 38.8 50 0.5 0
S_11034031538 Gage1 J_11034031538 0.5 32.7 50 0.5 0
S_10996869896 Gage1 J_10996869896 0.5 36.6 50 0.5 0
S_10996944953 Gage1 J_10996944953 0.5 53.2 50 0.5 0
S_10996992471 Gage1 J_10996992471 0.5 59.0 50 0.5 0
S_11002591560 Gage1 J_11002591560 0.5 35.1 50 0.5 0
S_11002608085 Gage1 J_11002608085 0.5 49.9 50 0.5 0
S_13347226823 Gage1 J_13347226823 0.5 40.6 50 0.5 0
S_11009627053 Gage1 J_11009627053 0.5 19.8 50 0.5 0
S_11009632657 Gage1 J_11009632657 0.5 60.8 50 0.5 0
S_11011674942 Gage1 J_11011674942 0.5 60.0 50 0.5 0
S_11011674943 Gage1 J_11011674943 0.5 66.5 50 0.5 0
S_11011971396 Gage1 J_11011971396 0.5 54.7 50 0.5 0
S_11025131193 Gage1 J_11025131193 0.5 45.9 50 0.5 0
S_11034031539 Gage1 J_11034031539 0.5 32.3 50 0.5 0
S_11034031541 Gage1 J_11034031541 0.5 31.0 50 0.5 0
S_11075395481 Gage1 J_11075395481 0.5 61.8 50 0.5 0
S_11121177293 Gage1 J_11121177293 0.5 19.9 50 0.5 0
S_12151494704 Gage1 J_12151494704 0.5 22.1 50 0.5 0
S_11220661004 Gage1 J_11220661004 0.5 24.9 50 0.5 0
S_11233009357 Gage1 J_11233009357 0.5 67.0 50 0.5 0
S_11260020609 Gage1 J_11260020609 0.5 50.0 50 0.5 0
S_11260020610 Gage1 J_11260020610 0.5 18.1 50 0.5 0
S_11955031767 Gage1 J_11955031767 0.5 43.6 50 0.5 0
S_11395511434 Gage1 J_11395511434 0.5 48.8 50 0.5 0
S_11397517841 Gage1 J_11397517841 0.5 31.6 50 0.5 0
S_11408964579 Gage1 J_11408964579 0.5 26.9 50 0.5 0
S_11408964580 Gage1 J_11408964580 0.5 29.2 50 0.5 0
S_11408964584 Gage1 J_11408964584 0.5 65.3 50 0.5 0
S_11408964581 Gage1 J_11408964581 0.5 35.0 50 0.5 0
S_11408964583 Gage1 J_11408964583 0.5 61.1 50 0.5 0
S_11408964589 Gage1 J_11408964589 0.5 61.8 50 0.5 0
S_11408964585 Gage1 J_11408964585 0.5 51.1 50 0.5 0
S_11408964587 Gage1 J_11408964587 0.5 21.9 50 0.5 0
S_11408964586 Gage1 J_11408964586 0.5 36.4 50 0.5 0
S_11408964590 Gage1 J_11408964590 0.5 37.5 50 0.5 0
S_11408964588 Gage1 J_11408964588 0.5 27.5 50 0.5 0
S_11408964591 Gage1 J_11408964591 0.5 29.1 50 0.5 0
S_11414694996 Gage1 J_11414694996 0.5 49.7 50 0.5 0
S_11414759654 Gage1 J_11414759654 0.5 29.7 50 0.5 0
S_11428038810 Gage1 J_11428038810 0.5 55.5 50 0.5 0
S_11428038812 Gage1 J_11428038812 0.5 54.8 50 0.5 0
S_11428038814 Gage1 J_11428038814 0.5 58.7 50 0.5 0
S_11428038815 Gage1 J_11428038815 0.5 24.6 50 0.5 0
S_11922878283 Gage1 J_11922878283 0.5 59.1 50 0.5 0
S_12060861662 Gage1 J_12060861662 0.5 49.3 50 0.5 0
S_11428038817 Gage1 J_11428038817 0.5 21.1 50 0.5 0
S_11433644720 Gage1 J_11433644720 0.5 22.0 50 0.5 0
S_11433644721 Gage1 J_11433644721 0.5 66.1 50 0.5 0
S_12477867929 Gage1 J_12477867929 0.5 52.7 50 0.5 0
S_13928938237 Gage1 J_13928938237 0.5 60.2 50 0.5 0
S_11703595135 Gage1 J_11703595135 0.5 61.4 50 0.5 0
S_11873774240 Gage1 J_11873774240 0.5 43.6 50 0.5 0
S_12157177352 Gage1 J_12157177352 0.5 33.4 50 0.5 0
S_11921590006 Gage1 J_11921590006 0.5 20.6 50 0.5 0
S_12169759722 Gage1 J_12169759722 0.5 60.8 50 0.5 0
S_12137575005 Gage1 J_12137575005 0.5 30.2 50 0.5 0
S_13757868548 Gage1 J_13757868548 0.5 31.3 50 0.5 0
S_12060861592 Gage1 J_12060861592 0.5 66.2 50 0.5 0
S_12100338251 Gage1 J_12100338251 0.5 32.9 50 0.5 0
S_12106511663 Gage1 J_12106511663 0.5 21.5 50 0.5 0
S_12144258013 Gage1 J_12144258013 0.5 35.8 50 0.5 0
S_12145839288 Gage1 J_12145839288 0.5 35.4 50 0.5 0
S_12147412805 Gage1 J_12147412805 0.5 43.8 50 0.5 0
S_12169759723 Gage1 J_12169759723 0.5 23.2 50 0.5 0
S_12169759726 Gage1 J_12169759726 0.5 43.9 50 0.5 0
S_12169759731 Gage1 J_12169759731 0.5 38.8 50 0.5 0
S_12963900368 Gage1 J_12963900368 0.5 44.1 50 0.5 0
S_12176161390 Gage1 J_12176161390 0.5 38.5 50 0.5 0
S_13743331082 Gage1 J_13743331082 0.5 34.8 50 0.5 0
S_12176161400 Gage1 J_12176161400 0.5 22.9 50 0.5 0
S_12185693393 Gage1 J_12185693393 0.5 35.5 50 0.5 0
S_12187854997 Gage1 J_12187854997 0.5 39.8 50 0.5 0
S_12198988556 Gage1 J_12198988556 0.5 60.2 50 0.5 0
S_12250445350 Gage1 J_12250445350 0.5 46.5 50 0.5 0
S_12278137174 Gage1 J_12278137174 0.5 41.9 50 0.5 0
S_12543439896 Gage1 J_12543439896 0.5 34.9 50 0.5 0
S_12435660637 Gage1 J_12435660637 0.5 64.7 50 0.5 0
S_12443097982 Gage1 J_12443097982 0.5 30.2 50 0.5 0
S_12443097985 Gage1 J_12443097985 0.5 35.5 50 0.5 0
S_12443097984 Gage1 J_12443097984 0.5 47.0 50 0.5 0
S_12443097987 Gage1 J_12443097987 0.5 55.8 50 0.5 0
S_12443097986 Gage1 J_12443097986 0.5 58.5 50 0.5 0
S_12443097989 Gage1 J_12443097989 0.5 27.4 50 0.5 0
S_12446863536 Gage1 J_12446863536 0.5 60.4 50 0.5 0
S_12468537408 Gage1 J_12468537408 0.5 48.8 50 0.5 0
S_12655271582 Gage1 J_12655271582 0.5 36.1 50 0.5 0
S_12963900366 Gage1 J_12963900366 0.5 49.5 50 0.5 0
S_12997741438 Gage1 J_12997741438 0.5 30.6 50 0.5 0
S_13877530782 Gage1 J_13877530782 0.5 32.1 50 0.5 0
S_13077693352 Gage1 J_13077693352 0.5 45.9 50 0.5 0
S_13130383419 Gage1 J_13130383419 0.5 20.7 50 0.5 0
S_13134720404 Gage1 J_13134720404 0.5 66.0 50 0.5 0
S_13134720442 Gage1 J_13134720442 0.5 45.9 50 0.5 0
S_13135583069 Gage1 J_13135583069 0.5 49.5 50 0.5 0
S_13136176381 Gage1 J_13136176381 0.5 18.5 50 0.5 0
S_13137760928 Gage1 J_13137760928 0.5 47.9 50 0.5 0
S_13137760956 Gage1 J_13137760956 0.5 56.8 50 0.5 0
S_13140521147 Gage1 J_13140521147 0.5 27.7 50 0.5 0
S_13142028562 Gage1 J_13142028562 0.5 35.0 50 0.5 0
S_13142028597 Gage1 J_13142028597 0.5 59.8 50 0.5 0
S_13238937707 Gage1 J_13238937707 0.5 54.8 50 0.5 0
S_13347226822 Gage1 J_13347226822 0.5 64.1 50 0.5 0
S_13736562871 Gage1 J_13736562871 0.5 25.4 50 0.5 0
S_13736567810 Gage1 J_13736567810 0.5 28.2 50 0.5 0
S_13738231244 Gage1 J_13738231244 0.5 34.1 50 0.5 0
S_13743331025 Gage1 J_13743331025 0.5 18.4 50 0.5 0
S_13743331043 Gage1 J_13743331043 0.5 44.7 50 0.5 0
S_13875979598 Gage1 J_13875979598 0.5 25.6 50 0.5 0
S_12956054174 Gage1 J_12956054174 0.5 39.3 50 0.5 0

[SUBAREAS]
;;Subcatchment N-Imperv N-Perv S-Imperv S-Perv PctZero RouteTo
S_260908311 0.013 0.1 2.0 5.0 25 OUTLET
S_10721527309 0.013 0.1 2.0 5.0 25 OUTLET
S_4472266108 0.013 0.1 2.0 5.0 25 OUTLET
S_262268684 0.013 0.1 2.0 5.0 25 OUTLET
S_266371138 0.013 0.1 2.0 5.0 25 OUTLET
S_9828511707 0.013 0.1 2.0 5.0 25 OUTLET
S_3870651477 0.013 0.1 2.0 5.0 25 OUTLET
S_262268685 0.013 0.1 2.0 5.0 25 OUTLET
S_7298619223 0.013 0.1 2.0 5.0 25 OUTLET
S_349027597 0.013 0.1 2.0 5.0 25 OUTLET
S_3870651479 0.013 0.1 2.0 5.0 25 OUTLET
S_3149622374 0.013 0.1 2.0 5.0 25 OUTLET
S_262459524 0.013 0.1 2.0 5.0 25 OUTLET
S_13144006534 0.013 0.1 2.0 5.0 25 OUTLET
S_262459526 0.013 0.1 2.0 5.0 25 OUTLET
S_12655271583 0.013 0.1 2.0 5.0 25 OUTLET
S_3149619842 0.013 0.1 2.0 5.0 25 OUTLET
S_262459527 0.013 0.1 2.0 5.0 25 OUTLET
S_264129270 0.013 0.1 2.0 5.0 25 OUTLET
S_12183845711 0.013 0.1 2.0 5.0 25 OUTLET
S_264129289 0.013 0.1 2.0 5.0 25 OUTLET
S_264141527 0.013 0.1 2.0 5.0 25 OUTLET
S_9179098227 0.013 0.1 2.0 5.0 25 OUTLET
S_3141425534 0.013 0.1 2.0 5.0 25 OUTLET
S_264129319 0.013 0.1 2.0 5.0 25 OUTLET
S_264147890 0.013 0.1 2.0 5.0 25 OUTLET
S_5724583886 0.013 0.1 2.0 5.0 25 OUTLET
S_5930997555 0.013 0.1 2.0 5.0 25 OUTLET
S_3141425542 0.013 0.1 2.0 5.0 25 OUTLET
S_3161309799 0.013 0.1 2.0 5.0 25 OUTLET
S_264189089 0.013 0.1 2.0 5.0 25 OUTLET
S_3149619847 0.013 0.1 2.0 5.0 25 OUTLET
S_3149619851 0.013 0.1 2.0 5.0 25 OUTLET
S_3149619853 0.013 0.1 2.0 5.0 25 OUTLET
S_6536271335 0.013 0.1 2.0 5.0 25 OUTLET
S_264845660 0.013 0.1 2.0 5.0 25 OUTLET
S_13135627938 0.013 0.1 2.0 5.0 25 OUTLET
S_2389701677 0.013 0.1 2.0 5.0 25 OUTLET
S_264845710 0.013 0.1 2.0 5.0 25 OUTLET
S_3148667904 0.013 0.1 2.0 5.0 25 OUTLET
S_3148667896 0.013 0.1 2.0 5.0 25 OUTLET
S_9859790834 0.013 0.1 2.0 5.0 25 OUTLET
S_264845740 0.013 0.1 2.0 5.0 25 OUTLET
S_1315048083 0.013 0.1 2.0 5.0 25 OUTLET
S_3872540688 0.013 0.1 2.0 5.0 25 OUTLET
S_3872540686 0.013 0.1 2.0 5.0 25 OUTLET
S_264845751 0.013 0.1 2.0 5.0 25 OUTLET
S_3872533488 0.013 0.1 2.0 5.0 25 OUTLET
S_3872533478 0.013 0.1 2.0 5.0 25 OUTLET
S_2206930282 0.013 0.1 2.0 5.0 25 OUTLET
S_1644166489 0.013 0.1 2.0 5.0 25 OUTLET
S_267210547 0.013 0.1 2.0 5.0 25 OUTLET
S_267210550 0.013 0.1 2.0 5.0 25 OUTLET
S_7147115841 0.013 0.1 2.0 5.0 25 OUTLET
S_2099691667 0.013 0.1 2.0 5.0 25 OUTLET
S_5919853090 0.013 0.1 2.0 5.0 25 OUTLET
S_267215656 0.013 0.1 2.0 5.0 25 OUTLET
S_13075849008 0.013 0.1 2.0 5.0 25 OUTLET
S_3148580198 0.013 0.1 2.0 5.0 25 OUTLET
S_2206930283 0.013 0.1 2.0 5.0 25 OUTLET
S_274569246 0.013 0.1 2.0 5.0 25 OUTLET
S_12176161387 0.013 0.1 2.0 5.0 25 OUTLET
S_274569296 0.013 0.1 2.0 5.0 25 OUTLET
S_3141473152 0.013 0.1 2.0 5.0 25 OUTLET
S_7328379155 0.013 0.1 2.0 5.0 25 OUTLET
S_274569309 0.013 0.1 2.0 5.0 25 OUTLET
S_274570242 0.013 0.1 2.0 5.0 25 OUTLET
S_7328379172 0.013 0.1 2.0 5.0 25 OUTLET
S_274569328 0.013 0.1 2.0 5.0 25 OUTLET
S_7328379173 0.013 0.1 2.0 5.0 25 OUTLET
S_3141473132 0.013 0.1 2.0 5.0 25 OUTLET
S_3141472722 0.013 0.1 2.0 5.0 25 OUTLET
S_274569348 0.013 0.1 2.0 5.0 25 OUTLET
S_3141473140 0.013 0.1 2.0 5.0 25 OUTLET
S_3141473150 0.013 0.1 2.0 5.0 25 OUTLET
S_3141473145 0.013 0.1 2.0 5.0 25 OUTLET
S_3170006930 0.013 0.1 2.0 5.0 25 OUTLET
S_11563497460 0.013 0.1 2.0 5.0 25 OUTLET
S_274570292 0.013 0.1 2.0 5.0 25 OUTLET
S_1387622103 0.013 0.1 2.0 5.0 25 OUTLET
S_4824673767 0.013 0.1 2.0 5.0 25 OUTLET
S_7328379200 0.013 0.1 2.0 5.0 25 OUTLET
S_274576719 0.013 0.1 2.0 5.0 25 OUTLET
S_4475150582 0.013 0.1 2.0 5.0 25 OUTLET
S_2268546167 0.013 0.1 2.0 5.0 25 OUTLET
S_292565231 0.013 0.1 2.0 5.0 25 OUTLET
S_7479630325 0.013 0.1 2.0 5.0 25 OUTLET
S_7479630930 0.013 0.1 2.0 5.0 25 OUTLET
S_7479630950 0.013 0.1 2.0 5.0 25 OUTLET
S_292565243 0.013 0.1 2.0 5.0 25 OUTLET
S_7478154729 0.013 0.1 2.0 5.0 25 OUTLET
S_7478154719 0.013 0.1 2.0 5.0 25 OUTLET
S_7479630320 0.013 0.1 2.0 5.0 25 OUTLET
S_293709519 0.013 0.1 2.0 5.0 25 OUTLET
S_2034648224 0.013 0.1 2.0 5.0 25 OUTLET
S_3771990524 0.013 0.1 2.0 5.0 25 OUTLET
S_2268546111 0.013 0.1 2.0 5.0 25 OUTLET
S_293709525 0.013 0.1 2.0 5.0 25 OUTLET
S_3771990505 0.013 0.1 2.0 5.0 25 OUTLET
S_7328379022 0.013 0.1 2.0 5.0 25 OUTLET
S_7328379067 0.013 0.1 2.0 5.0 25 OUTLET
S_302499540 0.013 0.1 2.0 5.0 25 OUTLET
S_6197379428 0.013 0.1 2.0 5.0 25 OUTLET
S_1748486107 0.013 0.1 2.0 5.0 25 OUTLET
S_5778474214 0.013 0.1 2.0 5.0 25 OUTLET
S_307401420 0.013 0.1 2.0 5.0 25 OUTLET
S_429781973 0.013 0.1 2.0 5.0 25 OUTLET
S_11070754936 0.013 0.1 2.0 5.0 25 OUTLET
S_590698291 0.013 0.1 2.0 5.0 25 OUTLET
S_3715148292 0.013 0.1 2.0 5.0 25 OUTLET
S_429780762 0.013 0.1 2.0 5.0 25 OUTLET
S_429780764 0.013 0.1 2.0 5.0 25 OUTLET
S_590698298 0.013 0.1 2.0 5.0 25 OUTLET
S_9828540923 0.013 0.1 2.0 5.0 25 OUTLET
S_590698311 0.013 0.1 2.0 5.0 25 OUTLET
S_590698302 0.013 0.1 2.0 5.0 25 OUTLET
S_429781781 0.013 0.1 2.0 5.0 25 OUTLET
S_590698314 0.013 0.1 2.0 5.0 25 OUTLET
S_2483733242 0.013 0.1 2.0 5.0 25 OUTLET
S_590698312 0.013 0.1 2.0 5.0 25 OUTLET
S_429781782 0.013 0.1 2.0 5.0 25 OUTLET
S_650076942 0.013 0.1 2.0 5.0 25 OUTLET
S_3150107472 0.013 0.1 2.0 5.0 25 OUTLET
S_3150107471 0.013 0.1 2.0 5.0 25 OUTLET
S_429783956 0.013 0.1 2.0 5.0 25 OUTLET
S_12059211981 0.013 0.1 2.0 5.0 25 OUTLET
S_5930945945 0.013 0.1 2.0 5.0 25 OUTLET
S_429783966 0.013 0.1 2.0 5.0 25 OUTLET
S_1694231991 0.013 0.1 2.0 5.0 25 OUTLET
S_961816867 0.013 0.1 2.0 5.0 25 OUTLET
S_515736998 0.013 0.1 2.0 5.0 25 OUTLET
S_11891216393 0.013 0.1 2.0 5.0 25 OUTLET
S_574762971 0.013 0.1 2.0 5.0 25 OUTLET
S_574762980 0.013 0.1 2.0 5.0 25 OUTLET
S_574762976 0.013 0.1 2.0 5.0 25 OUTLET
S_10175047393 0.013 0.1 2.0 5.0 25 OUTLET
S_574762978 0.013 0.1 2.0 5.0 25 OUTLET
S_10213547236 0.013 0.1 2.0 5.0 25 OUTLET
S_12279397378 0.013 0.1 2.0 5.0 25 OUTLET
S_12319493407 0.013 0.1 2.0 5.0 25 OUTLET
S_574762987 0.013 0.1 2.0 5.0 25 OUTLET
S_2099691681 0.013 0.1 2.0 5.0 25 OUTLET
S_11399565982 0.013 0.1 2.0 5.0 25 OUTLET
S_11011994983 0.013 0.1 2.0 5.0 25 OUTLET
S_574763005 0.013 0.1 2.0 5.0 25 OUTLET
S_11075395480 0.013 0.1 2.0 5.0 25 OUTLET
S_13816840517 0.013 0.1 2.0 5.0 25 OUTLET
S_574763010 0.013 0.1 2.0 5.0 25 OUTLET
S_6180297958 0.013 0.1 2.0 5.0 25 OUTLET
S_3504349796 0.013 0.1 2.0 5.0 25 OUTLET
S_10996723268 0.013 0.1 2.0 5.0 25 OUTLET
S_11527430411 0.013 0.1 2.0 5.0 25 OUTLET
S_13137760931 0.013 0.1 2.0 5.0 25 OUTLET
S_590698294 0.013 0.1 2.0 5.0 25 OUTLET
S_3558431203 0.013 0.1 2.0 5.0 25 OUTLET
S_590698296 0.013 0.1 2.0 5.0 25 OUTLET
S_590698300 0.013 0.1 2.0 5.0 25 OUTLET
S_590698318 0.013 0.1 2.0 5.0 25 OUTLET
S_1305577019 0.013 0.1 2.0 5.0 25 OUTLET
S_590698313 0.013 0.1 2.0 5.0 25 OUTLET
S_590698328 0.013 0.1 2.0 5.0 25 OUTLET
S_7265834831 0.013 0.1 2.0 5.0 25 OUTLET
S_3170496474 0.013 0.1 2.0 5.0 25 OUTLET
S_590698330 0.013 0.1 2.0 5.0 25 OUTLET
S_1558259250 0.013 0.1 2.0 5.0 25 OUTLET
S_1693112084 0.013 0.1 2.0 5.0 25 OUTLET
S_695070306 0.013 0.1 2.0 5.0 25 OUTLET
S_10969136192 0.013 0.1 2.0 5.0 25 OUTLET
S_2113348452 0.013 0.1 2.0 5.0 25 OUTLET
S_695070314 0.013 0.1 2.0 5.0 25 OUTLET
S_3148655277 0.013 0.1 2.0 5.0 25 OUTLET
S_4915966850 0.013 0.1 2.0 5.0 25 OUTLET
S_3148655275 0.013 0.1 2.0 5.0 25 OUTLET
S_695070403 0.013 0.1 2.0 5.0 25 OUTLET
S_3148656438 0.013 0.1 2.0 5.0 25 OUTLET
S_7479631129 0.013 0.1 2.0 5.0 25 OUTLET
S_12468537412 0.013 0.1 2.0 5.0 25 OUTLET
S_695070406 0.013 0.1 2.0 5.0 25 OUTLET
S_13077693351 0.013 0.1 2.0 5.0 25 OUTLET
S_6802224021 0.013 0.1 2.0 5.0 25 OUTLET
S_695070408 0.013 0.1 2.0 5.0 25 OUTLET
S_3148656447 0.013 0.1 2.0 5.0 25 OUTLET
S_7147949887 0.013 0.1 2.0 5.0 25 OUTLET
S_13875979600 0.013 0.1 2.0 5.0 25 OUTLET
S_695079385 0.013 0.1 2.0 5.0 25 OUTLET
S_7328099146 0.013 0.1 2.0 5.0 25 OUTLET
S_10182468120 0.013 0.1 2.0 5.0 25 OUTLET
S_818630839 0.013 0.1 2.0 5.0 25 OUTLET
S_1387622149 0.013 0.1 2.0 5.0 25 OUTLET
S_3148609358 0.013 0.1 2.0 5.0 25 OUTLET
S_11182448718 0.013 0.1 2.0 5.0 25 OUTLET
S_818634499 0.013 0.1 2.0 5.0 25 OUTLET
S_818634502 0.013 0.1 2.0 5.0 25 OUTLET
S_827145938 0.013 0.1 2.0 5.0 25 OUTLET
S_3148633513 0.013 0.1 2.0 5.0 25 OUTLET
S_818634513 0.013 0.1 2.0 5.0 25 OUTLET
S_3170006921 0.013 0.1 2.0 5.0 25 OUTLET
S_929965958 0.013 0.1 2.0 5.0 25 OUTLET
S_10996944954 0.013 0.1 2.0 5.0 25 OUTLET
S_825408102 0.013 0.1 2.0 5.0 25 OUTLET
S_7479630561 0.013 0.1 2.0 5.0 25 OUTLET
S_956077413 0.013 0.1 2.0 5.0 25 OUTLET
S_13875979449 0.013 0.1 2.0 5.0 25 OUTLET
S_844403663 0.013 0.1 2.0 5.0 25 OUTLET
S_6536884399 0.013 0.1 2.0 5.0 25 OUTLET
S_6141753929 0.013 0.1 2.0 5.0 25 OUTLET
S_956058174 0.013 0.1 2.0 5.0 25 OUTLET
S_3157684368 0.013 0.1 2.0 5.0 25 OUTLET
S_929965968 0.013 0.1 2.0 5.0 25 OUTLET
S_2349412314 0.013 0.1 2.0 5.0 25 OUTLET
S_10996638660 0.013 0.1 2.0 5.0 25 OUTLET
S_929965972 0.013 0.1 2.0 5.0 25 OUTLET
S_956058186 0.013 0.1 2.0 5.0 25 OUTLET
S_929965977 0.013 0.1 2.0 5.0 25 OUTLET
S_929965973 0.013 0.1 2.0 5.0 25 OUTLET
S_1390345459 0.013 0.1 2.0 5.0 25 OUTLET
S_7301790590 0.013 0.1 2.0 5.0 25 OUTLET
S_3157684367 0.013 0.1 2.0 5.0 25 OUTLET
S_7479631029 0.013 0.1 2.0 5.0 25 OUTLET
S_7479631046 0.013 0.1 2.0 5.0 25 OUTLET
S_1694231590 0.013 0.1 2.0 5.0 25 OUTLET
S_10994329194 0.013 0.1 2.0 5.0 25 OUTLET
S_1067315124 0.013 0.1 2.0 5.0 25 OUTLET
S_3161309802 0.013 0.1 2.0 5.0 25 OUTLET
S_12272816024 0.013 0.1 2.0 5.0 25 OUTLET
S_11185418653 0.013 0.1 2.0 5.0 25 OUTLET
S_1083495045 0.013 0.1 2.0 5.0 25 OUTLET
S_2387290813 0.013 0.1 2.0 5.0 25 OUTLET
S_1083500526 0.013 0.1 2.0 5.0 25 OUTLET
S_3149622352 0.013 0.1 2.0 5.0 25 OUTLET
S_2387123504 0.013 0.1 2.0 5.0 25 OUTLET
S_1083500529 0.013 0.1 2.0 5.0 25 OUTLET
S_1132734424 0.013 0.1 2.0 5.0 25 OUTLET
S_1186777885 0.013 0.1 2.0 5.0 25 OUTLET
S_7263153533 0.013 0.1 2.0 5.0 25 OUTLET
S_12649685464 0.013 0.1 2.0 5.0 25 OUTLET
S_11002591551 0.013 0.1 2.0 5.0 25 OUTLET
S_1186777924 0.013 0.1 2.0 5.0 25 OUTLET
S_4447404413 0.013 0.1 2.0 5.0 25 OUTLET
S_1186777952 0.013 0.1 2.0 5.0 25 OUTLET
S_7328379151 0.013 0.1 2.0 5.0 25 OUTLET
S_1186777966 0.013 0.1 2.0 5.0 25 OUTLET
S_6195813805 0.013 0.1 2.0 5.0 25 OUTLET
S_1186777956 0.013 0.1 2.0 5.0 25 OUTLET
S_7328379157 0.013 0.1 2.0 5.0 25 OUTLET
S_13743331044 0.013 0.1 2.0 5.0 25 OUTLET
S_1224322808 0.013 0.1 2.0 5.0 25 OUTLET
S_7263316354 0.013 0.1 2.0 5.0 25 OUTLET
S_2034648220 0.013 0.1 2.0 5.0 25 OUTLET
S_2268546130 0.013 0.1 2.0 5.0 25 OUTLET
S_1244527875 0.013 0.1 2.0 5.0 25 OUTLET
S_2828324523 0.013 0.1 2.0 5.0 25 OUTLET
S_2387579010 0.013 0.1 2.0 5.0 25 OUTLET
S_1244527888 0.013 0.1 2.0 5.0 25 OUTLET
S_6342458097 0.013 0.1 2.0 5.0 25 OUTLET
S_1315049037 0.013 0.1 2.0 5.0 25 OUTLET
S_1300454732 0.013 0.1 2.0 5.0 25 OUTLET
S_11922878281 0.013 0.1 2.0 5.0 25 OUTLET
S_1321535551 0.013 0.1 2.0 5.0 25 OUTLET
S_1305577009 0.013 0.1 2.0 5.0 25 OUTLET
S_11234065193 0.013 0.1 2.0 5.0 25 OUTLET
S_6168052376 0.013 0.1 2.0 5.0 25 OUTLET
S_1314077241 0.013 0.1 2.0 5.0 25 OUTLET
S_7479631472 0.013 0.1 2.0 5.0 25 OUTLET
S_7478154540 0.013 0.1 2.0 5.0 25 OUTLET
S_11370378569 0.013 0.1 2.0 5.0 25 OUTLET
S_1314077247 0.013 0.1 2.0 5.0 25 OUTLET
S_6168067117 0.013 0.1 2.0 5.0 25 OUTLET
S_7478154497 0.013 0.1 2.0 5.0 25 OUTLET
S_7736381401 0.013 0.1 2.0 5.0 25 OUTLET
S_1314077248 0.013 0.1 2.0 5.0 25 OUTLET
S_5777147300 0.013 0.1 2.0 5.0 25 OUTLET
S_5777147337 0.013 0.1 2.0 5.0 25 OUTLET
S_1315048058 0.013 0.1 2.0 5.0 25 OUTLET
S_3148668048 0.013 0.1 2.0 5.0 25 OUTLET
S_6141957199 0.013 0.1 2.0 5.0 25 OUTLET
S_1315048061 0.013 0.1 2.0 5.0 25 OUTLET
S_1315048060 0.013 0.1 2.0 5.0 25 OUTLET
S_11009627049 0.013 0.1 2.0 5.0 25 OUTLET
S_10172982421 0.013 0.1 2.0 5.0 25 OUTLET
S_2206930291 0.013 0.1 2.0 5.0 25 OUTLET
S_10172982423 0.013 0.1 2.0 5.0 25 OUTLET
S_1315048075 0.013 0.1 2.0 5.0 25 OUTLET
S_3148668044 0.013 0.1 2.0 5.0 25 OUTLET
S_3148668042 0.013 0.1 2.0 5.0 25 OUTLET
S_10232292384 0.013 0.1 2.0 5.0 25 OUTLET
S_1315048078 0.013 0.1 2.0 5.0 25 OUTLET
S_8433749411 0.013 0.1 2.0 5.0 25 OUTLET
S_6183009077 0.013 0.1 2.0 5.0 25 OUTLET
S_1315048080 0.013 0.1 2.0 5.0 25 OUTLET
S_1315052254 0.013 0.1 2.0 5.0 25 OUTLET
S_2387579012 0.013 0.1 2.0 5.0 25 OUTLET
S_1315049031 0.013 0.1 2.0 5.0 25 OUTLET
S_10173119093 0.013 0.1 2.0 5.0 25 OUTLET
S_1315049034 0.013 0.1 2.0 5.0 25 OUTLET
S_13140374079 0.013 0.1 2.0 5.0 25 OUTLET
S_11009632656 0.013 0.1 2.0 5.0 25 OUTLET
S_3148668037 0.013 0.1 2.0 5.0 25 OUTLET
S_3148668038 0.013 0.1 2.0 5.0 25 OUTLET
S_1319974913 0.013 0.1 2.0 5.0 25 OUTLET
S_5372340496 0.013 0.1 2.0 5.0 25 OUTLET
S_1319974914 0.013 0.1 2.0 5.0 25 OUTLET
S_11865827584 0.013 0.1 2.0 5.0 25 OUTLET
S_12060861661 0.013 0.1 2.0 5.0 25 OUTLET
S_1367979481 0.013 0.1 2.0 5.0 25 OUTLET
S_4446729192 0.013 0.1 2.0 5.0 25 OUTLET
S_1383248215 0.013 0.1 2.0 5.0 25 OUTLET
S_3148645671 0.013 0.1 2.0 5.0 25 OUTLET
S_3148655238 0.013 0.1 2.0 5.0 25 OUTLET
S_3148655236 0.013 0.1 2.0 5.0 25 OUTLET
S_1383248254 0.013 0.1 2.0 5.0 25 OUTLET
S_3148655266 0.013 0.1 2.0 5.0 25 OUTLET
S_7478155165 0.013 0.1 2.0 5.0 25 OUTLET
S_1383248309 0.013 0.1 2.0 5.0 25 OUTLET
S_10168257533 0.013 0.1 2.0 5.0 25 OUTLET
S_12462993523 0.013 0.1 2.0 5.0 25 OUTLET
S_1387622086 0.013 0.1 2.0 5.0 25 OUTLET
S_2195883502 0.013 0.1 2.0 5.0 25 OUTLET
S_12334925123 0.013 0.1 2.0 5.0 25 OUTLET
S_1387622091 0.013 0.1 2.0 5.0 25 OUTLET
S_2268546103 0.013 0.1 2.0 5.0 25 OUTLET
S_10994097991 0.013 0.1 2.0 5.0 25 OUTLET
S_10182451860 0.013 0.1 2.0 5.0 25 OUTLET
S_3141475567 0.013 0.1 2.0 5.0 25 OUTLET
S_1387622131 0.013 0.1 2.0 5.0 25 OUTLET
S_2268546143 0.013 0.1 2.0 5.0 25 OUTLET
S_2268546123 0.013 0.1 2.0 5.0 25 OUTLET
S_1387622145 0.013 0.1 2.0 5.0 25 OUTLET
S_2268546106 0.013 0.1 2.0 5.0 25 OUTLET
S_10182451857 0.013 0.1 2.0 5.0 25 OUTLET
S_2268546110 0.013 0.1 2.0 5.0 25 OUTLET
S_13064841548 0.013 0.1 2.0 5.0 25 OUTLET
S_3504349795 0.013 0.1 2.0 5.0 25 OUTLET
S_5777299715 0.013 0.1 2.0 5.0 25 OUTLET
S_1614318567 0.013 0.1 2.0 5.0 25 OUTLET
S_2130361899 0.013 0.1 2.0 5.0 25 OUTLET
S_12060861673 0.013 0.1 2.0 5.0 25 OUTLET
S_1614318730 0.013 0.1 2.0 5.0 25 OUTLET
S_1614318635 0.013 0.1 2.0 5.0 25 OUTLET
S_6562185321 0.013 0.1 2.0 5.0 25 OUTLET
S_11428038813 0.013 0.1 2.0 5.0 25 OUTLET
S_1615766875 0.013 0.1 2.0 5.0 25 OUTLET
S_11017227499 0.013 0.1 2.0 5.0 25 OUTLET
S_1615766938 0.013 0.1 2.0 5.0 25 OUTLET
S_6536473101 0.013 0.1 2.0 5.0 25 OUTLET
S_1615766958 0.013 0.1 2.0 5.0 25 OUTLET
S_1615766885 0.013 0.1 2.0 5.0 25 OUTLET
S_1615767016 0.013 0.1 2.0 5.0 25 OUTLET
S_1615766914 0.013 0.1 2.0 5.0 25 OUTLET
S_1615766985 0.013 0.1 2.0 5.0 25 OUTLET
S_1615767002 0.013 0.1 2.0 5.0 25 OUTLET
S_3684986226 0.013 0.1 2.0 5.0 25 OUTLET
S_1615766921 0.013 0.1 2.0 5.0 25 OUTLET
S_6536473099 0.013 0.1 2.0 5.0 25 OUTLET
S_3237573297 0.013 0.1 2.0 5.0 25 OUTLET
S_6536473104 0.013 0.1 2.0 5.0 25 OUTLET
S_6968263671 0.013 0.1 2.0 5.0 25 OUTLET
S_1615767007 0.013 0.1 2.0 5.0 25 OUTLET
S_9846394228 0.013 0.1 2.0 5.0 25 OUTLET
S_1615767013 0.013 0.1 2.0 5.0 25 OUTLET
S_11397517840 0.013 0.1 2.0 5.0 25 OUTLET
S_11070754935 0.013 0.1 2.0 5.0 25 OUTLET
S_1645178566 0.013 0.1 2.0 5.0 25 OUTLET
S_1645178612 0.013 0.1 2.0 5.0 25 OUTLET
S_1683173710 0.013 0.1 2.0 5.0 25 OUTLET
S_1683173716 0.013 0.1 2.0 5.0 25 OUTLET
S_7478154651 0.013 0.1 2.0 5.0 25 OUTLET
S_7147103496 0.013 0.1 2.0 5.0 25 OUTLET
S_11078308794 0.013 0.1 2.0 5.0 25 OUTLET
S_11428038816 0.013 0.1 2.0 5.0 25 OUTLET
S_2446054167 0.013 0.1 2.0 5.0 25 OUTLET
S_1714977975 0.013 0.1 2.0 5.0 25 OUTLET
S_1714984580 0.013 0.1 2.0 5.0 25 OUTLET
S_12009305216 0.013 0.1 2.0 5.0 25 OUTLET
S_1714984568 0.013 0.1 2.0 5.0 25 OUTLET
S_8403844099 0.013 0.1 2.0 5.0 25 OUTLET
S_5776756937 0.013 0.1 2.0 5.0 25 OUTLET
S_1714984609 0.013 0.1 2.0 5.0 25 OUTLET
S_13144414990 0.013 0.1 2.0 5.0 25 OUTLET
S_1815485809 0.013 0.1 2.0 5.0 25 OUTLET
S_3148587503 0.013 0.1 2.0 5.0 25 OUTLET
S_1817170894 0.013 0.1 2.0 5.0 25 OUTLET
S_5689989229 0.013 0.1 2.0 5.0 25 OUTLET
S_7328007720 0.013 0.1 2.0 5.0 25 OUTLET
S_5772629055 0.013 0.1 2.0 5.0 25 OUTLET
S_1817170897 0.013 0.1 2.0 5.0 25 OUTLET
S_5689989225 0.013 0.1 2.0 5.0 25 OUTLET
S_5689989227 0.013 0.1 2.0 5.0 25 OUTLET
S_7478154681 0.013 0.1 2.0 5.0 25 OUTLET
S_1817170898 0.013 0.1 2.0 5.0 25 OUTLET
S_6499300015 0.013 0.1 2.0 5.0 25 OUTLET
S_1827247449 0.013 0.1 2.0 5.0 25 OUTLET
S_5778521345 0.013 0.1 2.0 5.0 25 OUTLET
S_1827634843 0.013 0.1 2.0 5.0 25 OUTLET
S_1906888933 0.013 0.1 2.0 5.0 25 OUTLET
S_11220661003 0.013 0.1 2.0 5.0 25 OUTLET
S_1914928013 0.013 0.1 2.0 5.0 25 OUTLET
S_10182390928 0.013 0.1 2.0 5.0 25 OUTLET
S_4682937550 0.013 0.1 2.0 5.0 25 OUTLET
S_2034648230 0.013 0.1 2.0 5.0 25 OUTLET
S_2034648234 0.013 0.1 2.0 5.0 25 OUTLET
S_2034648222 0.013 0.1 2.0 5.0 25 OUTLET
S_7266164820 0.013 0.1 2.0 5.0 25 OUTLET
S_2034648226 0.013 0.1 2.0 5.0 25 OUTLET
S_7328379076 0.013 0.1 2.0 5.0 25 OUTLET
S_2034648233 0.013 0.1 2.0 5.0 25 OUTLET
S_2034648225 0.013 0.1 2.0 5.0 25 OUTLET
S_4447100001 0.013 0.1 2.0 5.0 25 OUTLET
S_2268546160 0.013 0.1 2.0 5.0 25 OUTLET
S_2268546125 0.013 0.1 2.0 5.0 25 OUTLET
S_2268546136 0.013 0.1 2.0 5.0 25 OUTLET
S_2034648235 0.013 0.1 2.0 5.0 25 OUTLET
S_2041854927 0.013 0.1 2.0 5.0 25 OUTLET
S_2268546140 0.013 0.1 2.0 5.0 25 OUTLET
S_4448123006 0.013 0.1 2.0 5.0 25 OUTLET
S_2268546144 0.013 0.1 2.0 5.0 25 OUTLET
S_2041854936 0.013 0.1 2.0 5.0 25 OUTLET
S_2268546152 0.013 0.1 2.0 5.0 25 OUTLET
S_2099691584 0.013 0.1 2.0 5.0 25 OUTLET
S_5354906276 0.013 0.1 2.0 5.0 25 OUTLET
S_6194830177 0.013 0.1 2.0 5.0 25 OUTLET
S_2099691601 0.013 0.1 2.0 5.0 25 OUTLET
S_2099691630 0.013 0.1 2.0 5.0 25 OUTLET
S_12517783371 0.013 0.1 2.0 5.0 25 OUTLET
S_12517783377 0.013 0.1 2.0 5.0 25 OUTLET
S_2099691637 0.013 0.1 2.0 5.0 25 OUTLET
S_2387361293 0.013 0.1 2.0 5.0 25 OUTLET
S_5807148396 0.013 0.1 2.0 5.0 25 OUTLET
S_6130070511 0.013 0.1 2.0 5.0 25 OUTLET
S_2099691661 0.013 0.1 2.0 5.0 25 OUTLET
S_8530739259 0.013 0.1 2.0 5.0 25 OUTLET
S_13823559215 0.013 0.1 2.0 5.0 25 OUTLET
S_11011674941 0.013 0.1 2.0 5.0 25 OUTLET
S_10172914465 0.013 0.1 2.0 5.0 25 OUTLET
S_2099691686 0.013 0.1 2.0 5.0 25 OUTLET
S_2387367081 0.013 0.1 2.0 5.0 25 OUTLET
S_12151458578 0.013 0.1 2.0 5.0 25 OUTLET
S_6749666079 0.013 0.1 2.0 5.0 25 OUTLET
S_11891163805 0.013 0.1 2.0 5.0 25 OUTLET
S_6536473139 0.013 0.1 2.0 5.0 25 OUTLET
S_2156205416 0.013 0.1 2.0 5.0 25 OUTLET
S_6904648005 0.013 0.1 2.0 5.0 25 OUTLET
S_2412953615 0.013 0.1 2.0 5.0 25 OUTLET
S_2180904962 0.013 0.1 2.0 5.0 25 OUTLET
S_2268546087 0.013 0.1 2.0 5.0 25 OUTLET
S_2195883497 0.013 0.1 2.0 5.0 25 OUTLET
S_4445588631 0.013 0.1 2.0 5.0 25 OUTLET
S_2206930257 0.013 0.1 2.0 5.0 25 OUTLET
S_3148668088 0.013 0.1 2.0 5.0 25 OUTLET
S_2206930285 0.013 0.1 2.0 5.0 25 OUTLET
S_2206930279 0.013 0.1 2.0 5.0 25 OUTLET
S_2206930259 0.013 0.1 2.0 5.0 25 OUTLET
S_2206930263 0.013 0.1 2.0 5.0 25 OUTLET
S_2206930274 0.013 0.1 2.0 5.0 25 OUTLET
S_3148668073 0.013 0.1 2.0 5.0 25 OUTLET
S_3148668067 0.013 0.1 2.0 5.0 25 OUTLET
S_2206930265 0.013 0.1 2.0 5.0 25 OUTLET
S_2206930266 0.013 0.1 2.0 5.0 25 OUTLET
S_2206930270 0.013 0.1 2.0 5.0 25 OUTLET
S_3148668114 0.013 0.1 2.0 5.0 25 OUTLET
S_2206930278 0.013 0.1 2.0 5.0 25 OUTLET
S_2387579019 0.013 0.1 2.0 5.0 25 OUTLET
S_3148668099 0.013 0.1 2.0 5.0 25 OUTLET
S_2206930277 0.013 0.1 2.0 5.0 25 OUTLET
S_3148668072 0.013 0.1 2.0 5.0 25 OUTLET
S_3148668071 0.013 0.1 2.0 5.0 25 OUTLET
S_10172979379 0.013 0.1 2.0 5.0 25 OUTLET
S_2206930284 0.013 0.1 2.0 5.0 25 OUTLET
S_2206930286 0.013 0.1 2.0 5.0 25 OUTLET
S_3148668107 0.013 0.1 2.0 5.0 25 OUTLET
S_3148668112 0.013 0.1 2.0 5.0 25 OUTLET
S_2206930293 0.013 0.1 2.0 5.0 25 OUTLET
S_10172979380 0.013 0.1 2.0 5.0 25 OUTLET
S_2268546082 0.013 0.1 2.0 5.0 25 OUTLET
S_2268546086 0.013 0.1 2.0 5.0 25 OUTLET
S_2268546089 0.013 0.1 2.0 5.0 25 OUTLET
S_2268546096 0.013 0.1 2.0 5.0 25 OUTLET
S_2268546093 0.013 0.1 2.0 5.0 25 OUTLET
S_2268546100 0.013 0.1 2.0 5.0 25 OUTLET
S_2268546095 0.013 0.1 2.0 5.0 25 OUTLET
S_4475055875 0.013 0.1 2.0 5.0 25 OUTLET
S_2268546105 0.013 0.1 2.0 5.0 25 OUTLET
S_2268546114 0.013 0.1 2.0 5.0 25 OUTLET
S_4974503765 0.013 0.1 2.0 5.0 25 OUTLET
S_7328345274 0.013 0.1 2.0 5.0 25 OUTLET
S_2268546121 0.013 0.1 2.0 5.0 25 OUTLET
S_3148657060 0.013 0.1 2.0 5.0 25 OUTLET
S_2268546117 0.013 0.1 2.0 5.0 25 OUTLET
S_4448123019 0.013 0.1 2.0 5.0 25 OUTLET
S_2268546132 0.013 0.1 2.0 5.0 25 OUTLET
S_6144032627 0.013 0.1 2.0 5.0 25 OUTLET
S_5388808643 0.013 0.1 2.0 5.0 25 OUTLET
S_2268546146 0.013 0.1 2.0 5.0 25 OUTLET
S_2268546161 0.013 0.1 2.0 5.0 25 OUTLET
S_2268546149 0.013 0.1 2.0 5.0 25 OUTLET
S_2268546151 0.013 0.1 2.0 5.0 25 OUTLET
S_4475150583 0.013 0.1 2.0 5.0 25 OUTLET
S_13142029192 0.013 0.1 2.0 5.0 25 OUTLET
S_2268546156 0.013 0.1 2.0 5.0 25 OUTLET
S_2268546158 0.013 0.1 2.0 5.0 25 OUTLET
S_2268546159 0.013 0.1 2.0 5.0 25 OUTLET
S_2268546163 0.013 0.1 2.0 5.0 25 OUTLET
S_3590694360 0.013 0.1 2.0 5.0 25 OUTLET
S_3148614512 0.013 0.1 2.0 5.0 25 OUTLET
S_2268546165 0.013 0.1 2.0 5.0 25 OUTLET
S_2268546166 0.013 0.1 2.0 5.0 25 OUTLET
S_3590694361 0.013 0.1 2.0 5.0 25 OUTLET
S_10725368291 0.013 0.1 2.0 5.0 25 OUTLET
S_3803663193 0.013 0.1 2.0 5.0 25 OUTLET
S_3141425530 0.013 0.1 2.0 5.0 25 OUTLET
S_5776756946 0.013 0.1 2.0 5.0 25 OUTLET
S_4540978393 0.013 0.1 2.0 5.0 25 OUTLET
S_2387407562 0.013 0.1 2.0 5.0 25 OUTLET
S_10056058174 0.013 0.1 2.0 5.0 25 OUTLET
S_3872533486 0.013 0.1 2.0 5.0 25 OUTLET
S_10094041459 0.013 0.1 2.0 5.0 25 OUTLET
S_3148668068 0.013 0.1 2.0 5.0 25 OUTLET
S_3148668100 0.013 0.1 2.0 5.0 25 OUTLET
S_3157670226 0.013 0.1 2.0 5.0 25 OUTLET
S_2391229483 0.013 0.1 2.0 5.0 25 OUTLET
S_3148645652 0.013 0.1 2.0 5.0 25 OUTLET
S_3148645665 0.013 0.1 2.0 5.0 25 OUTLET
S_3148656434 0.013 0.1 2.0 5.0 25 OUTLET
S_3148645692 0.013 0.1 2.0 5.0 25 OUTLET
S_2406966810 0.013 0.1 2.0 5.0 25 OUTLET
S_2406966812 0.013 0.1 2.0 5.0 25 OUTLET
S_6505394016 0.013 0.1 2.0 5.0 25 OUTLET
S_10147078393 0.013 0.1 2.0 5.0 25 OUTLET
S_2407838682 0.013 0.1 2.0 5.0 25 OUTLET
S_10213547238 0.013 0.1 2.0 5.0 25 OUTLET
S_11011650785 0.013 0.1 2.0 5.0 25 OUTLET
S_11891163804 0.013 0.1 2.0 5.0 25 OUTLET
S_2413006760 0.013 0.1 2.0 5.0 25 OUTLET
S_3150118040 0.013 0.1 2.0 5.0 25 OUTLET
S_2414360817 0.013 0.1 2.0 5.0 25 OUTLET
S_11509998750 0.013 0.1 2.0 5.0 25 OUTLET
S_2828324522 0.013 0.1 2.0 5.0 25 OUTLET
S_9708811990 0.013 0.1 2.0 5.0 25 OUTLET
S_3141425537 0.013 0.1 2.0 5.0 25 OUTLET
S_3141425538 0.013 0.1 2.0 5.0 25 OUTLET
S_3141425539 0.013 0.1 2.0 5.0 25 OUTLET
S_3141425540 0.013 0.1 2.0 5.0 25 OUTLET
S_3141425541 0.013 0.1 2.0 5.0 25 OUTLET
S_3141425543 0.013 0.1 2.0 5.0 25 OUTLET
S_3141452102 0.013 0.1 2.0 5.0 25 OUTLET
S_7328379166 0.013 0.1 2.0 5.0 25 OUTLET
S_13736567789 0.013 0.1 2.0 5.0 25 OUTLET
S_3141452104 0.013 0.1 2.0 5.0 25 OUTLET
S_3141452108 0.013 0.1 2.0 5.0 25 OUTLET
S_7262830544 0.013 0.1 2.0 5.0 25 OUTLET
S_3141452106 0.013 0.1 2.0 5.0 25 OUTLET
S_3141452111 0.013 0.1 2.0 5.0 25 OUTLET
S_3141452107 0.013 0.1 2.0 5.0 25 OUTLET
S_3141452113 0.013 0.1 2.0 5.0 25 OUTLET
S_7262830543 0.013 0.1 2.0 5.0 25 OUTLET
S_3504895466 0.013 0.1 2.0 5.0 25 OUTLET
S_3141452114 0.013 0.1 2.0 5.0 25 OUTLET
S_3141452115 0.013 0.1 2.0 5.0 25 OUTLET
S_3141452118 0.013 0.1 2.0 5.0 25 OUTLET
S_6136413730 0.013 0.1 2.0 5.0 25 OUTLET
S_4474704607 0.013 0.1 2.0 5.0 25 OUTLET
S_3141452119 0.013 0.1 2.0 5.0 25 OUTLET
S_3141452120 0.013 0.1 2.0 5.0 25 OUTLET
S_6136413729 0.013 0.1 2.0 5.0 25 OUTLET
S_10997029517 0.013 0.1 2.0 5.0 25 OUTLET
S_10997029523 0.013 0.1 2.0 5.0 25 OUTLET
S_3141452121 0.013 0.1 2.0 5.0 25 OUTLET
S_3141473146 0.013 0.1 2.0 5.0 25 OUTLET
S_3141452122 0.013 0.1 2.0 5.0 25 OUTLET
S_3141452126 0.013 0.1 2.0 5.0 25 OUTLET
S_3868740751 0.013 0.1 2.0 5.0 25 OUTLET
S_3141452125 0.013 0.1 2.0 5.0 25 OUTLET
S_13742285040 0.013 0.1 2.0 5.0 25 OUTLET
S_3141473131 0.013 0.1 2.0 5.0 25 OUTLET
S_4462376684 0.013 0.1 2.0 5.0 25 OUTLET
S_3141473133 0.013 0.1 2.0 5.0 25 OUTLET
S_3141473135 0.013 0.1 2.0 5.0 25 OUTLET
S_4462416977 0.013 0.1 2.0 5.0 25 OUTLET
S_3141473136 0.013 0.1 2.0 5.0 25 OUTLET
S_3170006931 0.013 0.1 2.0 5.0 25 OUTLET
S_3141473134 0.013 0.1 2.0 5.0 25 OUTLET
S_3141473138 0.013 0.1 2.0 5.0 25 OUTLET
S_13738230989 0.013 0.1 2.0 5.0 25 OUTLET
S_3141473139 0.013 0.1 2.0 5.0 25 OUTLET
S_6505328002 0.013 0.1 2.0 5.0 25 OUTLET
S_3141473149 0.013 0.1 2.0 5.0 25 OUTLET
S_3141473147 0.013 0.1 2.0 5.0 25 OUTLET
S_13738231243 0.013 0.1 2.0 5.0 25 OUTLET
S_10683903422 0.013 0.1 2.0 5.0 25 OUTLET
S_3141473151 0.013 0.1 2.0 5.0 25 OUTLET
S_3504895273 0.013 0.1 2.0 5.0 25 OUTLET
S_3141473155 0.013 0.1 2.0 5.0 25 OUTLET
S_6180293490 0.013 0.1 2.0 5.0 25 OUTLET
S_3141475564 0.013 0.1 2.0 5.0 25 OUTLET
S_13743331026 0.013 0.1 2.0 5.0 25 OUTLET
S_6560163455 0.013 0.1 2.0 5.0 25 OUTLET
S_3148580144 0.013 0.1 2.0 5.0 25 OUTLET
S_10175047395 0.013 0.1 2.0 5.0 25 OUTLET
S_3148580145 0.013 0.1 2.0 5.0 25 OUTLET
S_12250445349 0.013 0.1 2.0 5.0 25 OUTLET
S_7465559430 0.013 0.1 2.0 5.0 25 OUTLET
S_3148587479 0.013 0.1 2.0 5.0 25 OUTLET
S_7479630861 0.013 0.1 2.0 5.0 25 OUTLET
S_3148587482 0.013 0.1 2.0 5.0 25 OUTLET
S_6137643400 0.013 0.1 2.0 5.0 25 OUTLET
S_3148587485 0.013 0.1 2.0 5.0 25 OUTLET
S_13250405522 0.013 0.1 2.0 5.0 25 OUTLET
S_7479630867 0.013 0.1 2.0 5.0 25 OUTLET
S_7479630847 0.013 0.1 2.0 5.0 25 OUTLET
S_7479630882 0.013 0.1 2.0 5.0 25 OUTLET
S_3148587489 0.013 0.1 2.0 5.0 25 OUTLET
S_3148587495 0.013 0.1 2.0 5.0 25 OUTLET
S_7479630469 0.013 0.1 2.0 5.0 25 OUTLET
S_6914358632 0.013 0.1 2.0 5.0 25 OUTLET
S_3148587490 0.013 0.1 2.0 5.0 25 OUTLET
S_6194830173 0.013 0.1 2.0 5.0 25 OUTLET
S_7479630459 0.013 0.1 2.0 5.0 25 OUTLET
S_7479630500 0.013 0.1 2.0 5.0 25 OUTLET
S_7479630520 0.013 0.1 2.0 5.0 25 OUTLET
S_3148587502 0.013 0.1 2.0 5.0 25 OUTLET
S_6143252361 0.013 0.1 2.0 5.0 25 OUTLET
S_7436685266 0.013 0.1 2.0 5.0 25 OUTLET
S_7478154731 0.013 0.1 2.0 5.0 25 OUTLET
S_6536473134 0.013 0.1 2.0 5.0 25 OUTLET
S_3148614498 0.013 0.1 2.0 5.0 25 OUTLET
S_3148620681 0.013 0.1 2.0 5.0 25 OUTLET
S_4446468155 0.013 0.1 2.0 5.0 25 OUTLET
S_3148614507 0.013 0.1 2.0 5.0 25 OUTLET
S_6885777459 0.013 0.1 2.0 5.0 25 OUTLET
S_10994159748 0.013 0.1 2.0 5.0 25 OUTLET
S_3148614513 0.013 0.1 2.0 5.0 25 OUTLET
S_4475027232 0.013 0.1 2.0 5.0 25 OUTLET
S_3148614516 0.013 0.1 2.0 5.0 25 OUTLET
S_3148614515 0.013 0.1 2.0 5.0 25 OUTLET
S_6562178338 0.013 0.1 2.0 5.0 25 OUTLET
S_3148620677 0.013 0.1 2.0 5.0 25 OUTLET
S_3148619693 0.013 0.1 2.0 5.0 25 OUTLET
S_3148657085 0.013 0.1 2.0 5.0 25 OUTLET
S_3148619697 0.013 0.1 2.0 5.0 25 OUTLET
S_3148619698 0.013 0.1 2.0 5.0 25 OUTLET
S_6194291027 0.013 0.1 2.0 5.0 25 OUTLET
S_3148620680 0.013 0.1 2.0 5.0 25 OUTLET
S_3148619699 0.013 0.1 2.0 5.0 25 OUTLET
S_4475027228 0.013 0.1 2.0 5.0 25 OUTLET
S_3148620676 0.013 0.1 2.0 5.0 25 OUTLET
S_4446471884 0.013 0.1 2.0 5.0 25 OUTLET
S_10182373813 0.013 0.1 2.0 5.0 25 OUTLET
S_3148620696 0.013 0.1 2.0 5.0 25 OUTLET
S_4475027221 0.013 0.1 2.0 5.0 25 OUTLET
S_4475027226 0.013 0.1 2.0 5.0 25 OUTLET
S_3148620698 0.013 0.1 2.0 5.0 25 OUTLET
S_5370756307 0.013 0.1 2.0 5.0 25 OUTLET
S_13928938241 0.013 0.1 2.0 5.0 25 OUTLET
S_3148645678 0.013 0.1 2.0 5.0 25 OUTLET
S_3148645653 0.013 0.1 2.0 5.0 25 OUTLET
S_3148645681 0.013 0.1 2.0 5.0 25 OUTLET
S_3148645655 0.013 0.1 2.0 5.0 25 OUTLET
S_3148655285 0.013 0.1 2.0 5.0 25 OUTLET
S_3148655284 0.013 0.1 2.0 5.0 25 OUTLET
S_3148645664 0.013 0.1 2.0 5.0 25 OUTLET
S_3148645670 0.013 0.1 2.0 5.0 25 OUTLET
S_3148645667 0.013 0.1 2.0 5.0 25 OUTLET
S_7479631170 0.013 0.1 2.0 5.0 25 OUTLET
S_3148645691 0.013 0.1 2.0 5.0 25 OUTLET
S_3148655234 0.013 0.1 2.0 5.0 25 OUTLET
S_3148645673 0.013 0.1 2.0 5.0 25 OUTLET
S_3148645685 0.013 0.1 2.0 5.0 25 OUTLET
S_3148645674 0.013 0.1 2.0 5.0 25 OUTLET
S_3148645675 0.013 0.1 2.0 5.0 25 OUTLET
S_7479631201 0.013 0.1 2.0 5.0 25 OUTLET
S_3148645700 0.013 0.1 2.0 5.0 25 OUTLET
S_7479631193 0.013 0.1 2.0 5.0 25 OUTLET
S_3148645677 0.013 0.1 2.0 5.0 25 OUTLET
S_7479631168 0.013 0.1 2.0 5.0 25 OUTLET
S_3148645684 0.013 0.1 2.0 5.0 25 OUTLET
S_3148645683 0.013 0.1 2.0 5.0 25 OUTLET
S_3148645693 0.013 0.1 2.0 5.0 25 OUTLET
S_7479631133 0.013 0.1 2.0 5.0 25 OUTLET
S_6888084544 0.013 0.1 2.0 5.0 25 OUTLET
S_3148645698 0.013 0.1 2.0 5.0 25 OUTLET
S_3148645696 0.013 0.1 2.0 5.0 25 OUTLET
S_3148645697 0.013 0.1 2.0 5.0 25 OUTLET
S_7479631182 0.013 0.1 2.0 5.0 25 OUTLET
S_7479631181 0.013 0.1 2.0 5.0 25 OUTLET
S_3148645699 0.013 0.1 2.0 5.0 25 OUTLET
S_3148655235 0.013 0.1 2.0 5.0 25 OUTLET
S_3148655239 0.013 0.1 2.0 5.0 25 OUTLET
S_7479631141 0.013 0.1 2.0 5.0 25 OUTLET
S_3148655287 0.013 0.1 2.0 5.0 25 OUTLET
S_3148655283 0.013 0.1 2.0 5.0 25 OUTLET
S_3148655242 0.013 0.1 2.0 5.0 25 OUTLET
S_3148655243 0.013 0.1 2.0 5.0 25 OUTLET
S_3148655291 0.013 0.1 2.0 5.0 25 OUTLET
S_3148655248 0.013 0.1 2.0 5.0 25 OUTLET
S_3148655249 0.013 0.1 2.0 5.0 25 OUTLET
S_7479631204 0.013 0.1 2.0 5.0 25 OUTLET
S_3148655253 0.013 0.1 2.0 5.0 25 OUTLET
S_3148655260 0.013 0.1 2.0 5.0 25 OUTLET
S_7479631146 0.013 0.1 2.0 5.0 25 OUTLET
S_3148655261 0.013 0.1 2.0 5.0 25 OUTLET
S_7479631148 0.013 0.1 2.0 5.0 25 OUTLET
S_3148655262 0.013 0.1 2.0 5.0 25 OUTLET
S_3148655263 0.013 0.1 2.0 5.0 25 OUTLET
S_3148655264 0.013 0.1 2.0 5.0 25 OUTLET
S_3148655265 0.013 0.1 2.0 5.0 25 OUTLET
S_3148655268 0.013 0.1 2.0 5.0 25 OUTLET
S_7479631149 0.013 0.1 2.0 5.0 25 OUTLET
S_7479631210 0.013 0.1 2.0 5.0 25 OUTLET
S_3148656432 0.013 0.1 2.0 5.0 25 OUTLET
S_9720271254 0.013 0.1 2.0 5.0 25 OUTLET
S_3148655290 0.013 0.1 2.0 5.0 25 OUTLET
S_3148655295 0.013 0.1 2.0 5.0 25 OUTLET
S_3148655302 0.013 0.1 2.0 5.0 25 OUTLET
S_3148655300 0.013 0.1 2.0 5.0 25 OUTLET
S_3148655296 0.013 0.1 2.0 5.0 25 OUTLET
S_12695959789 0.013 0.1 2.0 5.0 25 OUTLET
S_3148655317 0.013 0.1 2.0 5.0 25 OUTLET
S_3148655299 0.013 0.1 2.0 5.0 25 OUTLET
S_3148655307 0.013 0.1 2.0 5.0 25 OUTLET
S_3148655313 0.013 0.1 2.0 5.0 25 OUTLET
S_3148655308 0.013 0.1 2.0 5.0 25 OUTLET
S_3148655312 0.013 0.1 2.0 5.0 25 OUTLET
S_3148655316 0.013 0.1 2.0 5.0 25 OUTLET
S_3148655325 0.013 0.1 2.0 5.0 25 OUTLET
S_3148655322 0.013 0.1 2.0 5.0 25 OUTLET
S_3148655328 0.013 0.1 2.0 5.0 25 OUTLET
S_3148656436 0.013 0.1 2.0 5.0 25 OUTLET
S_3148656435 0.013 0.1 2.0 5.0 25 OUTLET
S_7479631153 0.013 0.1 2.0 5.0 25 OUTLET
S_3148656440 0.013 0.1 2.0 5.0 25 OUTLET
S_3148656442 0.013 0.1 2.0 5.0 25 OUTLET
S_10994386528 0.013 0.1 2.0 5.0 25 OUTLET
S_10994402342 0.013 0.1 2.0 5.0 25 OUTLET
S_3148656446 0.013 0.1 2.0 5.0 25 OUTLET
S_3148656451 0.013 0.1 2.0 5.0 25 OUTLET
S_10994386529 0.013 0.1 2.0 5.0 25 OUTLET
S_12443901843 0.013 0.1 2.0 5.0 25 OUTLET
S_7484216048 0.013 0.1 2.0 5.0 25 OUTLET
S_12144258014 0.013 0.1 2.0 5.0 25 OUTLET
S_3148657069 0.013 0.1 2.0 5.0 25 OUTLET
S_10182376307 0.013 0.1 2.0 5.0 25 OUTLET
S_3148657081 0.013 0.1 2.0 5.0 25 OUTLET
S_4475027129 0.013 0.1 2.0 5.0 25 OUTLET
S_6194014544 0.013 0.1 2.0 5.0 25 OUTLET
S_3148657084 0.013 0.1 2.0 5.0 25 OUTLET
S_11106970230 0.013 0.1 2.0 5.0 25 OUTLET
S_10172979414 0.013 0.1 2.0 5.0 25 OUTLET
S_6204951065 0.013 0.1 2.0 5.0 25 OUTLET
S_3148667908 0.013 0.1 2.0 5.0 25 OUTLET
S_3148667924 0.013 0.1 2.0 5.0 25 OUTLET
S_6194008055 0.013 0.1 2.0 5.0 25 OUTLET
S_3148667925 0.013 0.1 2.0 5.0 25 OUTLET
S_3148668030 0.013 0.1 2.0 5.0 25 OUTLET
S_10172979410 0.013 0.1 2.0 5.0 25 OUTLET
S_3148668029 0.013 0.1 2.0 5.0 25 OUTLET
S_10172979411 0.013 0.1 2.0 5.0 25 OUTLET
S_3148668041 0.013 0.1 2.0 5.0 25 OUTLET
S_3148668043 0.013 0.1 2.0 5.0 25 OUTLET
S_3148668045 0.013 0.1 2.0 5.0 25 OUTLET
S_10172982419 0.013 0.1 2.0 5.0 25 OUTLET
S_6204951079 0.013 0.1 2.0 5.0 25 OUTLET
S_5726284291 0.013 0.1 2.0 5.0 25 OUTLET
S_3148668105 0.013 0.1 2.0 5.0 25 OUTLET
S_3148668106 0.013 0.1 2.0 5.0 25 OUTLET
S_3148668111 0.013 0.1 2.0 5.0 25 OUTLET
S_10172979382 0.013 0.1 2.0 5.0 25 OUTLET
S_3148668115 0.013 0.1 2.0 5.0 25 OUTLET
S_10173119095 0.013 0.1 2.0 5.0 25 OUTLET
S_3148668116 0.013 0.1 2.0 5.0 25 OUTLET
S_3149619837 0.013 0.1 2.0 5.0 25 OUTLET
S_3149619838 0.013 0.1 2.0 5.0 25 OUTLET
S_10994470325 0.013 0.1 2.0 5.0 25 OUTLET
S_3149619839 0.013 0.1 2.0 5.0 25 OUTLET
S_3149619841 0.013 0.1 2.0 5.0 25 OUTLET
S_11378886517 0.013 0.1 2.0 5.0 25 OUTLET
S_3149619840 0.013 0.1 2.0 5.0 25 OUTLET
S_13140521075 0.013 0.1 2.0 5.0 25 OUTLET
S_3149619850 0.013 0.1 2.0 5.0 25 OUTLET
S_3149619854 0.013 0.1 2.0 5.0 25 OUTLET
S_3149619852 0.013 0.1 2.0 5.0 25 OUTLET
S_3149622362 0.013 0.1 2.0 5.0 25 OUTLET
S_3149622354 0.013 0.1 2.0 5.0 25 OUTLET
S_13140521149 0.013 0.1 2.0 5.0 25 OUTLET
S_7239768143 0.013 0.1 2.0 5.0 25 OUTLET
S_3150107475 0.013 0.1 2.0 5.0 25 OUTLET
S_3150107474 0.013 0.1 2.0 5.0 25 OUTLET
S_3150107476 0.013 0.1 2.0 5.0 25 OUTLET
S_3150107479 0.013 0.1 2.0 5.0 25 OUTLET
S_12155154060 0.013 0.1 2.0 5.0 25 OUTLET
S_12155154062 0.013 0.1 2.0 5.0 25 OUTLET
S_12155154056 0.013 0.1 2.0 5.0 25 OUTLET
S_3150107773 0.013 0.1 2.0 5.0 25 OUTLET
S_9846394225 0.013 0.1 2.0 5.0 25 OUTLET
S_6536473107 0.013 0.1 2.0 5.0 25 OUTLET
S_3157670219 0.013 0.1 2.0 5.0 25 OUTLET
S_10172979413 0.013 0.1 2.0 5.0 25 OUTLET
S_3157670223 0.013 0.1 2.0 5.0 25 OUTLET
S_13903770310 0.013 0.1 2.0 5.0 25 OUTLET
S_3161309795 0.013 0.1 2.0 5.0 25 OUTLET
S_3161309798 0.013 0.1 2.0 5.0 25 OUTLET
S_3161309797 0.013 0.1 2.0 5.0 25 OUTLET
S_3161309801 0.013 0.1 2.0 5.0 25 OUTLET
S_3161309800 0.013 0.1 2.0 5.0 25 OUTLET
S_12506414299 0.013 0.1 2.0 5.0 25 OUTLET
S_9830778271 0.013 0.1 2.0 5.0 25 OUTLET
S_4447421339 0.013 0.1 2.0 5.0 25 OUTLET
S_3170478574 0.013 0.1 2.0 5.0 25 OUTLET
S_10996992466 0.013 0.1 2.0 5.0 25 OUTLET
S_9788419608 0.013 0.1 2.0 5.0 25 OUTLET
S_4447382437 0.013 0.1 2.0 5.0 25 OUTLET
S_3170496477 0.013 0.1 2.0 5.0 25 OUTLET
S_11002608083 0.013 0.1 2.0 5.0 25 OUTLET
S_3463462869 0.013 0.1 2.0 5.0 25 OUTLET
S_3463462871 0.013 0.1 2.0 5.0 25 OUTLET
S_3463462870 0.013 0.1 2.0 5.0 25 OUTLET
S_6458940001 0.013 0.1 2.0 5.0 25 OUTLET
S_10182729200 0.013 0.1 2.0 5.0 25 OUTLET
S_3500405710 0.013 0.1 2.0 5.0 25 OUTLET
S_7479630768 0.013 0.1 2.0 5.0 25 OUTLET
S_3500405711 0.013 0.1 2.0 5.0 25 OUTLET
S_3500405714 0.013 0.1 2.0 5.0 25 OUTLET
S_7479630771 0.013 0.1 2.0 5.0 25 OUTLET
S_3500405734 0.013 0.1 2.0 5.0 25 OUTLET
S_3500405712 0.013 0.1 2.0 5.0 25 OUTLET
S_3500405713 0.013 0.1 2.0 5.0 25 OUTLET
S_3500405737 0.013 0.1 2.0 5.0 25 OUTLET
S_7479630770 0.013 0.1 2.0 5.0 25 OUTLET
S_3500405715 0.013 0.1 2.0 5.0 25 OUTLET
S_7479630775 0.013 0.1 2.0 5.0 25 OUTLET
S_3500405717 0.013 0.1 2.0 5.0 25 OUTLET
S_3500405720 0.013 0.1 2.0 5.0 25 OUTLET
S_7479630763 0.013 0.1 2.0 5.0 25 OUTLET
S_3500405723 0.013 0.1 2.0 5.0 25 OUTLET
S_3500405722 0.013 0.1 2.0 5.0 25 OUTLET
S_10172935936 0.013 0.1 2.0 5.0 25 OUTLET
S_3500405725 0.013 0.1 2.0 5.0 25 OUTLET
S_10172935938 0.013 0.1 2.0 5.0 25 OUTLET
S_3500405729 0.013 0.1 2.0 5.0 25 OUTLET
S_11434263477 0.013 0.1 2.0 5.0 25 OUTLET
S_3500405730 0.013 0.1 2.0 5.0 25 OUTLET
S_3500405731 0.013 0.1 2.0 5.0 25 OUTLET
S_7479630782 0.013 0.1 2.0 5.0 25 OUTLET
S_13816806093 0.013 0.1 2.0 5.0 25 OUTLET
S_3500405732 0.013 0.1 2.0 5.0 25 OUTLET
S_6196989888 0.013 0.1 2.0 5.0 25 OUTLET
S_10172938609 0.013 0.1 2.0 5.0 25 OUTLET
S_10172938606 0.013 0.1 2.0 5.0 25 OUTLET
S_3500405738 0.013 0.1 2.0 5.0 25 OUTLET
S_10172938611 0.013 0.1 2.0 5.0 25 OUTLET
S_3500405740 0.013 0.1 2.0 5.0 25 OUTLET
S_7479630758 0.013 0.1 2.0 5.0 25 OUTLET
S_3500405741 0.013 0.1 2.0 5.0 25 OUTLET
S_7479630780 0.013 0.1 2.0 5.0 25 OUTLET
S_3500405745 0.013 0.1 2.0 5.0 25 OUTLET
S_6196989893 0.013 0.1 2.0 5.0 25 OUTLET
S_7301789574 0.013 0.1 2.0 5.0 25 OUTLET
S_6758558444 0.013 0.1 2.0 5.0 25 OUTLET
S_3504895274 0.013 0.1 2.0 5.0 25 OUTLET
S_3715148285 0.013 0.1 2.0 5.0 25 OUTLET
S_11234065453 0.013 0.1 2.0 5.0 25 OUTLET
S_3771990469 0.013 0.1 2.0 5.0 25 OUTLET
S_3771990522 0.013 0.1 2.0 5.0 25 OUTLET
S_3771990523 0.013 0.1 2.0 5.0 25 OUTLET
S_3771990536 0.013 0.1 2.0 5.0 25 OUTLET
S_3771990535 0.013 0.1 2.0 5.0 25 OUTLET
S_3771990914 0.013 0.1 2.0 5.0 25 OUTLET
S_3771990553 0.013 0.1 2.0 5.0 25 OUTLET
S_3771990545 0.013 0.1 2.0 5.0 25 OUTLET
S_3771990866 0.013 0.1 2.0 5.0 25 OUTLET
S_3771990555 0.013 0.1 2.0 5.0 25 OUTLET
S_3771990873 0.013 0.1 2.0 5.0 25 OUTLET
S_3771990859 0.013 0.1 2.0 5.0 25 OUTLET
S_3771990861 0.013 0.1 2.0 5.0 25 OUTLET
S_3771990888 0.013 0.1 2.0 5.0 25 OUTLET
S_3771990869 0.013 0.1 2.0 5.0 25 OUTLET
S_3771990894 0.013 0.1 2.0 5.0 25 OUTLET
S_3778310159 0.013 0.1 2.0 5.0 25 OUTLET
S_3778310161 0.013 0.1 2.0 5.0 25 OUTLET
S_3868740750 0.013 0.1 2.0 5.0 25 OUTLET
S_12145839287 0.013 0.1 2.0 5.0 25 OUTLET
S_3870651478 0.013 0.1 2.0 5.0 25 OUTLET
S_3870651480 0.013 0.1 2.0 5.0 25 OUTLET
S_3872407423 0.013 0.1 2.0 5.0 25 OUTLET
S_7328007223 0.013 0.1 2.0 5.0 25 OUTLET
S_3872407428 0.013 0.1 2.0 5.0 25 OUTLET
S_3872407427 0.013 0.1 2.0 5.0 25 OUTLET
S_6132071550 0.013 0.1 2.0 5.0 25 OUTLET
S_7328007225 0.013 0.1 2.0 5.0 25 OUTLET
S_3872407429 0.013 0.1 2.0 5.0 25 OUTLET
S_3872407466 0.013 0.1 2.0 5.0 25 OUTLET
S_3872407468 0.013 0.1 2.0 5.0 25 OUTLET
S_3872533474 0.013 0.1 2.0 5.0 25 OUTLET
S_3872533476 0.013 0.1 2.0 5.0 25 OUTLET
S_3872533479 0.013 0.1 2.0 5.0 25 OUTLET
S_3872533480 0.013 0.1 2.0 5.0 25 OUTLET
S_10172979407 0.013 0.1 2.0 5.0 25 OUTLET
S_3872533482 0.013 0.1 2.0 5.0 25 OUTLET
S_11268733245 0.013 0.1 2.0 5.0 25 OUTLET
S_3872533483 0.013 0.1 2.0 5.0 25 OUTLET
S_11432094041 0.013 0.1 2.0 5.0 25 OUTLET
S_3872533484 0.013 0.1 2.0 5.0 25 OUTLET
S_11404841379 0.013 0.1 2.0 5.0 25 OUTLET
S_3872533489 0.013 0.1 2.0 5.0 25 OUTLET
S_3872533485 0.013 0.1 2.0 5.0 25 OUTLET
S_3872540685 0.013 0.1 2.0 5.0 25 OUTLET
S_3872540684 0.013 0.1 2.0 5.0 25 OUTLET
S_3872540687 0.013 0.1 2.0 5.0 25 OUTLET
S_3872540689 0.013 0.1 2.0 5.0 25 OUTLET
S_4285700668 0.013 0.1 2.0 5.0 25 OUTLET
S_4285700669 0.013 0.1 2.0 5.0 25 OUTLET
S_4445503529 0.013 0.1 2.0 5.0 25 OUTLET
S_4446468152 0.013 0.1 2.0 5.0 25 OUTLET
S_6194089776 0.013 0.1 2.0 5.0 25 OUTLET
S_4446471885 0.013 0.1 2.0 5.0 25 OUTLET
S_10056058173 0.013 0.1 2.0 5.0 25 OUTLET
S_13142028598 0.013 0.1 2.0 5.0 25 OUTLET
S_4448123015 0.013 0.1 2.0 5.0 25 OUTLET
S_4462384503 0.013 0.1 2.0 5.0 25 OUTLET
S_7328379175 0.013 0.1 2.0 5.0 25 OUTLET
S_13738231056 0.013 0.1 2.0 5.0 25 OUTLET
S_4472266103 0.013 0.1 2.0 5.0 25 OUTLET
S_8403844097 0.013 0.1 2.0 5.0 25 OUTLET
S_4474487225 0.013 0.1 2.0 5.0 25 OUTLET
S_11011971395 0.013 0.1 2.0 5.0 25 OUTLET
S_11399454153 0.013 0.1 2.0 5.0 25 OUTLET
S_4474487238 0.013 0.1 2.0 5.0 25 OUTLET
S_6884558833 0.013 0.1 2.0 5.0 25 OUTLET
S_4474487265 0.013 0.1 2.0 5.0 25 OUTLET
S_7263153539 0.013 0.1 2.0 5.0 25 OUTLET
S_6152308058 0.013 0.1 2.0 5.0 25 OUTLET
S_4475027224 0.013 0.1 2.0 5.0 25 OUTLET
S_4475027222 0.013 0.1 2.0 5.0 25 OUTLET
S_4475027231 0.013 0.1 2.0 5.0 25 OUTLET
S_4475027229 0.013 0.1 2.0 5.0 25 OUTLET
S_4475027230 0.013 0.1 2.0 5.0 25 OUTLET
S_4540978394 0.013 0.1 2.0 5.0 25 OUTLET
S_7479630892 0.013 0.1 2.0 5.0 25 OUTLET
S_13238937706 0.013 0.1 2.0 5.0 25 OUTLET
S_4734151709 0.013 0.1 2.0 5.0 25 OUTLET
S_12185693394 0.013 0.1 2.0 5.0 25 OUTLET
S_9921271169 0.013 0.1 2.0 5.0 25 OUTLET
S_7479630483 0.013 0.1 2.0 5.0 25 OUTLET
S_5370756309 0.013 0.1 2.0 5.0 25 OUTLET
S_5388808641 0.013 0.1 2.0 5.0 25 OUTLET
S_5398408451 0.013 0.1 2.0 5.0 25 OUTLET
S_5689989226 0.013 0.1 2.0 5.0 25 OUTLET
S_5689989228 0.013 0.1 2.0 5.0 25 OUTLET
S_5689989230 0.013 0.1 2.0 5.0 25 OUTLET
S_9958736551 0.013 0.1 2.0 5.0 25 OUTLET
S_5773497557 0.013 0.1 2.0 5.0 25 OUTLET
S_7736381406 0.013 0.1 2.0 5.0 25 OUTLET
S_8374410177 0.013 0.1 2.0 5.0 25 OUTLET
S_5774292417 0.013 0.1 2.0 5.0 25 OUTLET
S_5774292427 0.013 0.1 2.0 5.0 25 OUTLET
S_5774293614 0.013 0.1 2.0 5.0 25 OUTLET
S_5776596292 0.013 0.1 2.0 5.0 25 OUTLET
S_12009305215 0.013 0.1 2.0 5.0 25 OUTLET
S_13136176386 0.013 0.1 2.0 5.0 25 OUTLET
S_5777147338 0.013 0.1 2.0 5.0 25 OUTLET
S_5777147341 0.013 0.1 2.0 5.0 25 OUTLET
S_7478154515 0.013 0.1 2.0 5.0 25 OUTLET
S_5777147345 0.013 0.1 2.0 5.0 25 OUTLET
S_7478154516 0.013 0.1 2.0 5.0 25 OUTLET
S_5777246392 0.013 0.1 2.0 5.0 25 OUTLET
S_5777246422 0.013 0.1 2.0 5.0 25 OUTLET
S_5777246394 0.013 0.1 2.0 5.0 25 OUTLET
S_7328007285 0.013 0.1 2.0 5.0 25 OUTLET
S_5777246395 0.013 0.1 2.0 5.0 25 OUTLET
S_5777246407 0.013 0.1 2.0 5.0 25 OUTLET
S_5777246413 0.013 0.1 2.0 5.0 25 OUTLET
S_5777246412 0.013 0.1 2.0 5.0 25 OUTLET
S_5777246409 0.013 0.1 2.0 5.0 25 OUTLET
S_5777246411 0.013 0.1 2.0 5.0 25 OUTLET
S_7328007265 0.013 0.1 2.0 5.0 25 OUTLET
S_5777246410 0.013 0.1 2.0 5.0 25 OUTLET
S_7328007288 0.013 0.1 2.0 5.0 25 OUTLET
S_5777246426 0.013 0.1 2.0 5.0 25 OUTLET
S_7328007289 0.013 0.1 2.0 5.0 25 OUTLET
S_7328007286 0.013 0.1 2.0 5.0 25 OUTLET
S_5777246425 0.013 0.1 2.0 5.0 25 OUTLET
S_5778503766 0.013 0.1 2.0 5.0 25 OUTLET
S_12690206052 0.013 0.1 2.0 5.0 25 OUTLET
S_5843951128 0.013 0.1 2.0 5.0 25 OUTLET
S_6894177760 0.013 0.1 2.0 5.0 25 OUTLET
S_11414694995 0.013 0.1 2.0 5.0 25 OUTLET
S_7147053364 0.013 0.1 2.0 5.0 25 OUTLET
S_12187854996 0.013 0.1 2.0 5.0 25 OUTLET
S_10175064193 0.013 0.1 2.0 5.0 25 OUTLET
S_7298619209 0.013 0.1 2.0 5.0 25 OUTLET
S_6019669025 0.013 0.1 2.0 5.0 25 OUTLET
S_6019669026 0.013 0.1 2.0 5.0 25 OUTLET
S_7479631470 0.013 0.1 2.0 5.0 25 OUTLET
S_7328007243 0.013 0.1 2.0 5.0 25 OUTLET
S_6137643401 0.013 0.1 2.0 5.0 25 OUTLET
S_13134720405 0.013 0.1 2.0 5.0 25 OUTLET
S_13134720410 0.013 0.1 2.0 5.0 25 OUTLET
S_6141748417 0.013 0.1 2.0 5.0 25 OUTLET
S_6141748418 0.013 0.1 2.0 5.0 25 OUTLET
S_6141753923 0.013 0.1 2.0 5.0 25 OUTLET
S_12100338250 0.013 0.1 2.0 5.0 25 OUTLET
S_9510028744 0.013 0.1 2.0 5.0 25 OUTLET
S_6141753927 0.013 0.1 2.0 5.0 25 OUTLET
S_10994377647 0.013 0.1 2.0 5.0 25 OUTLET
S_6141957193 0.013 0.1 2.0 5.0 25 OUTLET
S_6141957194 0.013 0.1 2.0 5.0 25 OUTLET
S_6141957197 0.013 0.1 2.0 5.0 25 OUTLET
S_6141957196 0.013 0.1 2.0 5.0 25 OUTLET
S_6141957195 0.013 0.1 2.0 5.0 25 OUTLET
S_6142233154 0.013 0.1 2.0 5.0 25 OUTLET
S_7043760928 0.013 0.1 2.0 5.0 25 OUTLET
S_6142233157 0.013 0.1 2.0 5.0 25 OUTLET
S_6143252362 0.013 0.1 2.0 5.0 25 OUTLET
S_6143252363 0.013 0.1 2.0 5.0 25 OUTLET
S_7437331404 0.013 0.1 2.0 5.0 25 OUTLET
S_7437296682 0.013 0.1 2.0 5.0 25 OUTLET
S_6144032626 0.013 0.1 2.0 5.0 25 OUTLET
S_6144095981 0.013 0.1 2.0 5.0 25 OUTLET
S_13875979441 0.013 0.1 2.0 5.0 25 OUTLET
S_6152784946 0.013 0.1 2.0 5.0 25 OUTLET
S_11395651197 0.013 0.1 2.0 5.0 25 OUTLET
S_11685087325 0.013 0.1 2.0 5.0 25 OUTLET
S_7478154579 0.013 0.1 2.0 5.0 25 OUTLET
S_6180290589 0.013 0.1 2.0 5.0 25 OUTLET
S_6180290590 0.013 0.1 2.0 5.0 25 OUTLET
S_6180291877 0.013 0.1 2.0 5.0 25 OUTLET
S_13736567811 0.013 0.1 2.0 5.0 25 OUTLET
S_6180291884 0.013 0.1 2.0 5.0 25 OUTLET
S_6180293488 0.013 0.1 2.0 5.0 25 OUTLET
S_13742285043 0.013 0.1 2.0 5.0 25 OUTLET
S_6180297957 0.013 0.1 2.0 5.0 25 OUTLET
S_10996777702 0.013 0.1 2.0 5.0 25 OUTLET
S_10996868634 0.013 0.1 2.0 5.0 25 OUTLET
S_6194008056 0.013 0.1 2.0 5.0 25 OUTLET
S_6194014538 0.013 0.1 2.0 5.0 25 OUTLET
S_11408964582 0.013 0.1 2.0 5.0 25 OUTLET
S_7484216053 0.013 0.1 2.0 5.0 25 OUTLET
S_7147081175 0.013 0.1 2.0 5.0 25 OUTLET
S_7479631105 0.013 0.1 2.0 5.0 25 OUTLET
S_6196883741 0.013 0.1 2.0 5.0 25 OUTLET
S_10168279045 0.013 0.1 2.0 5.0 25 OUTLET
S_6196883747 0.013 0.1 2.0 5.0 25 OUTLET
S_6888399011 0.013 0.1 2.0 5.0 25 OUTLET
S_9749202516 0.013 0.1 2.0 5.0 25 OUTLET
S_6196989886 0.013 0.1 2.0 5.0 25 OUTLET
S_6196989887 0.013 0.1 2.0 5.0 25 OUTLET
S_10172938612 0.013 0.1 2.0 5.0 25 OUTLET
S_6196989892 0.013 0.1 2.0 5.0 25 OUTLET
S_6196989891 0.013 0.1 2.0 5.0 25 OUTLET
S_10172938610 0.013 0.1 2.0 5.0 25 OUTLET
S_10172938605 0.013 0.1 2.0 5.0 25 OUTLET
S_6196989889 0.013 0.1 2.0 5.0 25 OUTLET
S_11066374004 0.013 0.1 2.0 5.0 25 OUTLET
S_6196989890 0.013 0.1 2.0 5.0 25 OUTLET
S_10172942118 0.013 0.1 2.0 5.0 25 OUTLET
S_7479630751 0.013 0.1 2.0 5.0 25 OUTLET
S_7263153521 0.013 0.1 2.0 5.0 25 OUTLET
S_6197671075 0.013 0.1 2.0 5.0 25 OUTLET
S_11290340685 0.013 0.1 2.0 5.0 25 OUTLET
S_6499300016 0.013 0.1 2.0 5.0 25 OUTLET
S_7328007824 0.013 0.1 2.0 5.0 25 OUTLET
S_11395791821 0.013 0.1 2.0 5.0 25 OUTLET
S_6505394017 0.013 0.1 2.0 5.0 25 OUTLET
S_10680776590 0.013 0.1 2.0 5.0 25 OUTLET
S_6753563683 0.013 0.1 2.0 5.0 25 OUTLET
S_6536473096 0.013 0.1 2.0 5.0 25 OUTLET
S_6536473097 0.013 0.1 2.0 5.0 25 OUTLET
S_9846394226 0.013 0.1 2.0 5.0 25 OUTLET
S_6536473098 0.013 0.1 2.0 5.0 25 OUTLET
S_6536473100 0.013 0.1 2.0 5.0 25 OUTLET
S_11397532787 0.013 0.1 2.0 5.0 25 OUTLET
S_6536473106 0.013 0.1 2.0 5.0 25 OUTLET
S_6536473109 0.013 0.1 2.0 5.0 25 OUTLET
S_11397532788 0.013 0.1 2.0 5.0 25 OUTLET
S_11397532789 0.013 0.1 2.0 5.0 25 OUTLET
S_6536473137 0.013 0.1 2.0 5.0 25 OUTLET
S_6536473138 0.013 0.1 2.0 5.0 25 OUTLET
S_6536882163 0.013 0.1 2.0 5.0 25 OUTLET
S_6536882164 0.013 0.1 2.0 5.0 25 OUTLET
S_6536884402 0.013 0.1 2.0 5.0 25 OUTLET
S_10994329181 0.013 0.1 2.0 5.0 25 OUTLET
S_6536884398 0.013 0.1 2.0 5.0 25 OUTLET
S_10994377346 0.013 0.1 2.0 5.0 25 OUTLET
S_6536884400 0.013 0.1 2.0 5.0 25 OUTLET
S_6536884401 0.013 0.1 2.0 5.0 25 OUTLET
S_6536884405 0.013 0.1 2.0 5.0 25 OUTLET
S_10994329190 0.013 0.1 2.0 5.0 25 OUTLET
S_6562185320 0.013 0.1 2.0 5.0 25 OUTLET
S_1275552789 0.013 0.1 2.0 5.0 25 OUTLET
S_6631012279 0.013 0.1 2.0 5.0 25 OUTLET
S_10172868164 0.013 0.1 2.0 5.0 25 OUTLET
S_9824245046 0.013 0.1 2.0 5.0 25 OUTLET
S_6749735684 0.013 0.1 2.0 5.0 25 OUTLET
S_6768481191 0.013 0.1 2.0 5.0 25 OUTLET
S_7043731241 0.013 0.1 2.0 5.0 25 OUTLET
S_6753563684 0.013 0.1 2.0 5.0 25 OUTLET
S_6755740921 0.013 0.1 2.0 5.0 25 OUTLET
S_10989354751 0.013 0.1 2.0 5.0 25 OUTLET
S_6755740924 0.013 0.1 2.0 5.0 25 OUTLET
S_6755740926 0.013 0.1 2.0 5.0 25 OUTLET
S_7328007827 0.013 0.1 2.0 5.0 25 OUTLET
S_6758558441 0.013 0.1 2.0 5.0 25 OUTLET
S_10996648270 0.013 0.1 2.0 5.0 25 OUTLET
S_6758646579 0.013 0.1 2.0 5.0 25 OUTLET
S_6768481190 0.013 0.1 2.0 5.0 25 OUTLET
S_6802224014 0.013 0.1 2.0 5.0 25 OUTLET
S_6802224015 0.013 0.1 2.0 5.0 25 OUTLET
S_6884558829 0.013 0.1 2.0 5.0 25 OUTLET
S_6885777456 0.013 0.1 2.0 5.0 25 OUTLET
S_6902137283 0.013 0.1 2.0 5.0 25 OUTLET
S_6885777458 0.013 0.1 2.0 5.0 25 OUTLET
S_6887668015 0.013 0.1 2.0 5.0 25 OUTLET
S_9840153329 0.013 0.1 2.0 5.0 25 OUTLET
S_12443097988 0.013 0.1 2.0 5.0 25 OUTLET
S_12147412804 0.013 0.1 2.0 5.0 25 OUTLET
S_9796082511 0.013 0.1 2.0 5.0 25 OUTLET
S_9796082514 0.013 0.1 2.0 5.0 25 OUTLET
S_6894631549 0.013 0.1 2.0 5.0 25 OUTLET
S_6894631550 0.013 0.1 2.0 5.0 25 OUTLET
S_6901616696 0.013 0.1 2.0 5.0 25 OUTLET
S_6901616701 0.013 0.1 2.0 5.0 25 OUTLET
S_6901616703 0.013 0.1 2.0 5.0 25 OUTLET
S_12452602835 0.013 0.1 2.0 5.0 25 OUTLET
S_12194261264 0.013 0.1 2.0 5.0 25 OUTLET
S_6904648003 0.013 0.1 2.0 5.0 25 OUTLET
S_6911622972 0.013 0.1 2.0 5.0 25 OUTLET
S_6911622971 0.013 0.1 2.0 5.0 25 OUTLET
S_6914358596 0.013 0.1 2.0 5.0 25 OUTLET
S_6914358633 0.013 0.1 2.0 5.0 25 OUTLET
S_6914358616 0.013 0.1 2.0 5.0 25 OUTLET
S_6914358625 0.013 0.1 2.0 5.0 25 OUTLET
S_6914358630 0.013 0.1 2.0 5.0 25 OUTLET
S_12462722212 0.013 0.1 2.0 5.0 25 OUTLET
S_6914358626 0.013 0.1 2.0 5.0 25 OUTLET
S_6914358627 0.013 0.1 2.0 5.0 25 OUTLET
S_9179098233 0.013 0.1 2.0 5.0 25 OUTLET
S_7479631043 0.013 0.1 2.0 5.0 25 OUTLET
S_7479631050 0.013 0.1 2.0 5.0 25 OUTLET
S_7479631061 0.013 0.1 2.0 5.0 25 OUTLET
S_6914358648 0.013 0.1 2.0 5.0 25 OUTLET
S_6914358631 0.013 0.1 2.0 5.0 25 OUTLET
S_6914358649 0.013 0.1 2.0 5.0 25 OUTLET
S_10182456214 0.013 0.1 2.0 5.0 25 OUTLET
S_7479630545 0.013 0.1 2.0 5.0 25 OUTLET
S_6968263670 0.013 0.1 2.0 5.0 25 OUTLET
S_7095228341 0.013 0.1 2.0 5.0 25 OUTLET
S_7478154530 0.013 0.1 2.0 5.0 25 OUTLET
S_7095228343 0.013 0.1 2.0 5.0 25 OUTLET
S_7095265249 0.013 0.1 2.0 5.0 25 OUTLET
S_7097308434 0.013 0.1 2.0 5.0 25 OUTLET
S_7097308435 0.013 0.1 2.0 5.0 25 OUTLET
S_7138066340 0.013 0.1 2.0 5.0 25 OUTLET
S_13130383416 0.013 0.1 2.0 5.0 25 OUTLET
S_7147081174 0.013 0.1 2.0 5.0 25 OUTLET
S_7479630457 0.013 0.1 2.0 5.0 25 OUTLET
S_7479630456 0.013 0.1 2.0 5.0 25 OUTLET
S_7147100015 0.013 0.1 2.0 5.0 25 OUTLET
S_13134720443 0.013 0.1 2.0 5.0 25 OUTLET
S_7147100023 0.013 0.1 2.0 5.0 25 OUTLET
S_13823559216 0.013 0.1 2.0 5.0 25 OUTLET
S_7147986885 0.013 0.1 2.0 5.0 25 OUTLET
S_7147986187 0.013 0.1 2.0 5.0 25 OUTLET
S_12651830520 0.013 0.1 2.0 5.0 25 OUTLET
S_7263153520 0.013 0.1 2.0 5.0 25 OUTLET
S_7265834830 0.013 0.1 2.0 5.0 25 OUTLET
S_7263153527 0.013 0.1 2.0 5.0 25 OUTLET
S_7265834819 0.013 0.1 2.0 5.0 25 OUTLET
S_7263316361 0.013 0.1 2.0 5.0 25 OUTLET
S_7266164815 0.013 0.1 2.0 5.0 25 OUTLET
S_9179098228 0.013 0.1 2.0 5.0 25 OUTLET
S_7298619246 0.013 0.1 2.0 5.0 25 OUTLET
S_12558535618 0.013 0.1 2.0 5.0 25 OUTLET
S_13135583058 0.013 0.1 2.0 5.0 25 OUTLET
S_9757079871 0.013 0.1 2.0 5.0 25 OUTLET
S_7301789573 0.013 0.1 2.0 5.0 25 OUTLET
S_10996655571 0.013 0.1 2.0 5.0 25 OUTLET
S_7301790589 0.013 0.1 2.0 5.0 25 OUTLET
S_7328007238 0.013 0.1 2.0 5.0 25 OUTLET
S_7478154531 0.013 0.1 2.0 5.0 25 OUTLET
S_7328007284 0.013 0.1 2.0 5.0 25 OUTLET
S_7328007287 0.013 0.1 2.0 5.0 25 OUTLET
S_7478154670 0.013 0.1 2.0 5.0 25 OUTLET
S_7328007723 0.013 0.1 2.0 5.0 25 OUTLET
S_7328007816 0.013 0.1 2.0 5.0 25 OUTLET
S_7602632240 0.013 0.1 2.0 5.0 25 OUTLET
S_7328099161 0.013 0.1 2.0 5.0 25 OUTLET
S_7328007822 0.013 0.1 2.0 5.0 25 OUTLET
S_7328007823 0.013 0.1 2.0 5.0 25 OUTLET
S_7328099142 0.013 0.1 2.0 5.0 25 OUTLET
S_7328099147 0.013 0.1 2.0 5.0 25 OUTLET
S_7328099157 0.013 0.1 2.0 5.0 25 OUTLET
S_7328099162 0.013 0.1 2.0 5.0 25 OUTLET
S_7328345273 0.013 0.1 2.0 5.0 25 OUTLET
S_13142028564 0.013 0.1 2.0 5.0 25 OUTLET
S_7328345275 0.013 0.1 2.0 5.0 25 OUTLET
S_12415673019 0.013 0.1 2.0 5.0 25 OUTLET
S_13142028560 0.013 0.1 2.0 5.0 25 OUTLET
S_7328379058 0.013 0.1 2.0 5.0 25 OUTLET
S_7328379077 0.013 0.1 2.0 5.0 25 OUTLET
S_7328379154 0.013 0.1 2.0 5.0 25 OUTLET
S_7328379156 0.013 0.1 2.0 5.0 25 OUTLET
S_9849585566 0.013 0.1 2.0 5.0 25 OUTLET
S_11707855552 0.013 0.1 2.0 5.0 25 OUTLET
S_7328379167 0.013 0.1 2.0 5.0 25 OUTLET
S_13736562866 0.013 0.1 2.0 5.0 25 OUTLET
S_7328379176 0.013 0.1 2.0 5.0 25 OUTLET
S_7328379201 0.013 0.1 2.0 5.0 25 OUTLET
S_7432261686 0.013 0.1 2.0 5.0 25 OUTLET
S_7432261687 0.013 0.1 2.0 5.0 25 OUTLET
S_7479631027 0.013 0.1 2.0 5.0 25 OUTLET
S_7479630316 0.013 0.1 2.0 5.0 25 OUTLET
S_7437296683 0.013 0.1 2.0 5.0 25 OUTLET
S_7479630324 0.013 0.1 2.0 5.0 25 OUTLET
S_7437331394 0.013 0.1 2.0 5.0 25 OUTLET
S_7437331401 0.013 0.1 2.0 5.0 25 OUTLET
S_7479631031 0.013 0.1 2.0 5.0 25 OUTLET
S_7437331400 0.013 0.1 2.0 5.0 25 OUTLET
S_7465559431 0.013 0.1 2.0 5.0 25 OUTLET
S_11432092734 0.013 0.1 2.0 5.0 25 OUTLET
S_7478154505 0.013 0.1 2.0 5.0 25 OUTLET
S_7478154524 0.013 0.1 2.0 5.0 25 OUTLET
S_7478154518 0.013 0.1 2.0 5.0 25 OUTLET
S_7478154523 0.013 0.1 2.0 5.0 25 OUTLET
S_7478154532 0.013 0.1 2.0 5.0 25 OUTLET
S_7478154534 0.013 0.1 2.0 5.0 25 OUTLET
S_7478154539 0.013 0.1 2.0 5.0 25 OUTLET
S_7478154545 0.013 0.1 2.0 5.0 25 OUTLET
S_7478154544 0.013 0.1 2.0 5.0 25 OUTLET
S_7478154575 0.013 0.1 2.0 5.0 25 OUTLET
S_7478154576 0.013 0.1 2.0 5.0 25 OUTLET
S_7478154577 0.013 0.1 2.0 5.0 25 OUTLET
S_11433644719 0.013 0.1 2.0 5.0 25 OUTLET
S_7478154725 0.013 0.1 2.0 5.0 25 OUTLET
S_7478154786 0.013 0.1 2.0 5.0 25 OUTLET
S_12447971611 0.013 0.1 2.0 5.0 25 OUTLET
S_7478154787 0.013 0.1 2.0 5.0 25 OUTLET
S_11921590003 0.013 0.1 2.0 5.0 25 OUTLET
S_12446863535 0.013 0.1 2.0 5.0 25 OUTLET
S_12443097983 0.013 0.1 2.0 5.0 25 OUTLET
S_7479630319 0.013 0.1 2.0 5.0 25 OUTLET
S_7479630422 0.013 0.1 2.0 5.0 25 OUTLET
S_7479630444 0.013 0.1 2.0 5.0 25 OUTLET
S_7479630455 0.013 0.1 2.0 5.0 25 OUTLET
S_7479630458 0.013 0.1 2.0 5.0 25 OUTLET
S_7479630480 0.013 0.1 2.0 5.0 25 OUTLET
S_7479630512 0.013 0.1 2.0 5.0 25 OUTLET
S_7479630537 0.013 0.1 2.0 5.0 25 OUTLET
S_7479630747 0.013 0.1 2.0 5.0 25 OUTLET
S_7479630756 0.013 0.1 2.0 5.0 25 OUTLET
S_9784518335 0.013 0.1 2.0 5.0 25 OUTLET
S_10172935935 0.013 0.1 2.0 5.0 25 OUTLET
S_7479630767 0.013 0.1 2.0 5.0 25 OUTLET
S_7479630769 0.013 0.1 2.0 5.0 25 OUTLET
S_7479630772 0.013 0.1 2.0 5.0 25 OUTLET
S_7479630773 0.013 0.1 2.0 5.0 25 OUTLET
S_9784518332 0.013 0.1 2.0 5.0 25 OUTLET
S_7479630774 0.013 0.1 2.0 5.0 25 OUTLET
S_7479630779 0.013 0.1 2.0 5.0 25 OUTLET
S_11434263476 0.013 0.1 2.0 5.0 25 OUTLET
S_12477867928 0.013 0.1 2.0 5.0 25 OUTLET
S_7479630777 0.013 0.1 2.0 5.0 25 OUTLET
S_7479630778 0.013 0.1 2.0 5.0 25 OUTLET
S_7479630836 0.013 0.1 2.0 5.0 25 OUTLET
S_7479630845 0.013 0.1 2.0 5.0 25 OUTLET
S_7479630846 0.013 0.1 2.0 5.0 25 OUTLET
S_7479630851 0.013 0.1 2.0 5.0 25 OUTLET
S_7479630857 0.013 0.1 2.0 5.0 25 OUTLET
S_9784652733 0.013 0.1 2.0 5.0 25 OUTLET
S_7479630860 0.013 0.1 2.0 5.0 25 OUTLET
S_7479630866 0.013 0.1 2.0 5.0 25 OUTLET
S_7479630871 0.013 0.1 2.0 5.0 25 OUTLET
S_7479630868 0.013 0.1 2.0 5.0 25 OUTLET
S_7479630875 0.013 0.1 2.0 5.0 25 OUTLET
S_7479630878 0.013 0.1 2.0 5.0 25 OUTLET
S_7479630883 0.013 0.1 2.0 5.0 25 OUTLET
S_7479630901 0.013 0.1 2.0 5.0 25 OUTLET
S_7479630959 0.013 0.1 2.0 5.0 25 OUTLET
S_11434843380 0.013 0.1 2.0 5.0 25 OUTLET
S_7479630941 0.013 0.1 2.0 5.0 25 OUTLET
S_7479630944 0.013 0.1 2.0 5.0 25 OUTLET
S_12464922958 0.013 0.1 2.0 5.0 25 OUTLET
S_7479630985 0.013 0.1 2.0 5.0 25 OUTLET
S_7479631021 0.013 0.1 2.0 5.0 25 OUTLET
S_7479631030 0.013 0.1 2.0 5.0 25 OUTLET
S_7479631047 0.013 0.1 2.0 5.0 25 OUTLET
S_7479631049 0.013 0.1 2.0 5.0 25 OUTLET
S_7479631125 0.013 0.1 2.0 5.0 25 OUTLET
S_7479631135 0.013 0.1 2.0 5.0 25 OUTLET
S_7479631134 0.013 0.1 2.0 5.0 25 OUTLET
S_7479631136 0.013 0.1 2.0 5.0 25 OUTLET
S_7479631147 0.013 0.1 2.0 5.0 25 OUTLET
S_7479631152 0.013 0.1 2.0 5.0 25 OUTLET
S_7479631169 0.013 0.1 2.0 5.0 25 OUTLET
S_7479631180 0.013 0.1 2.0 5.0 25 OUTLET
S_7479631187 0.013 0.1 2.0 5.0 25 OUTLET
S_7479631192 0.013 0.1 2.0 5.0 25 OUTLET
S_7479631213 0.013 0.1 2.0 5.0 25 OUTLET
S_7479631444 0.013 0.1 2.0 5.0 25 OUTLET
S_10948126480 0.013 0.1 2.0 5.0 25 OUTLET
S_7479631471 0.013 0.1 2.0 5.0 25 OUTLET
S_7479631476 0.013 0.1 2.0 5.0 25 OUTLET
S_7484216047 0.013 0.1 2.0 5.0 25 OUTLET
S_10182376309 0.013 0.1 2.0 5.0 25 OUTLET
S_7484216051 0.013 0.1 2.0 5.0 25 OUTLET
S_7484216052 0.013 0.1 2.0 5.0 25 OUTLET
S_10182376302 0.013 0.1 2.0 5.0 25 OUTLET
S_13130383417 0.013 0.1 2.0 5.0 25 OUTLET
S_7602632242 0.013 0.1 2.0 5.0 25 OUTLET
S_11009632658 0.013 0.1 2.0 5.0 25 OUTLET
S_10196255890 0.013 0.1 2.0 5.0 25 OUTLET
S_8609029843 0.013 0.1 2.0 5.0 25 OUTLET
S_12279397377 0.013 0.1 2.0 5.0 25 OUTLET
S_9179098226 0.013 0.1 2.0 5.0 25 OUTLET
S_9510028747 0.013 0.1 2.0 5.0 25 OUTLET
S_11121177292 0.013 0.1 2.0 5.0 25 OUTLET
S_10994453386 0.013 0.1 2.0 5.0 25 OUTLET
S_9510028770 0.013 0.1 2.0 5.0 25 OUTLET
S_9525461684 0.013 0.1 2.0 5.0 25 OUTLET
S_9708811991 0.013 0.1 2.0 5.0 25 OUTLET
S_12147412806 0.013 0.1 2.0 5.0 25 OUTLET
S_12169759724 0.013 0.1 2.0 5.0 25 OUTLET
S_9757079870 0.013 0.1 2.0 5.0 25 OUTLET
S_9757079872 0.013 0.1 2.0 5.0 25 OUTLET
S_13135583074 0.013 0.1 2.0 5.0 25 OUTLET
S_13135583071 0.013 0.1 2.0 5.0 25 OUTLET
S_9759551602 0.013 0.1 2.0 5.0 25 OUTLET
S_12169759734 0.013 0.1 2.0 5.0 25 OUTLET
S_9784518333 0.013 0.1 2.0 5.0 25 OUTLET
S_9784518334 0.013 0.1 2.0 5.0 25 OUTLET
S_11434263478 0.013 0.1 2.0 5.0 25 OUTLET
S_13343872440 0.013 0.1 2.0 5.0 25 OUTLET
S_10168279044 0.013 0.1 2.0 5.0 25 OUTLET
S_9796082515 0.013 0.1 2.0 5.0 25 OUTLET
S_9796708050 0.013 0.1 2.0 5.0 25 OUTLET
S_9824051075 0.013 0.1 2.0 5.0 25 OUTLET
S_9824245043 0.013 0.1 2.0 5.0 25 OUTLET
S_11184918138 0.013 0.1 2.0 5.0 25 OUTLET
S_9826793285 0.013 0.1 2.0 5.0 25 OUTLET
S_9826793286 0.013 0.1 2.0 5.0 25 OUTLET
S_11233009356 0.013 0.1 2.0 5.0 25 OUTLET
S_12506414300 0.013 0.1 2.0 5.0 25 OUTLET
S_9846394217 0.013 0.1 2.0 5.0 25 OUTLET
S_11428038811 0.013 0.1 2.0 5.0 25 OUTLET
S_10969136196 0.013 0.1 2.0 5.0 25 OUTLET
S_10969136194 0.013 0.1 2.0 5.0 25 OUTLET
S_13877530781 0.013 0.1 2.0 5.0 25 OUTLET
S_11509998741 0.013 0.1 2.0 5.0 25 OUTLET
S_13903770309 0.013 0.1 2.0 5.0 25 OUTLET
S_10172868165 0.013 0.1 2.0 5.0 25 OUTLET
S_10172914467 0.013 0.1 2.0 5.0 25 OUTLET
S_10172935937 0.013 0.1 2.0 5.0 25 OUTLET
S_10172935939 0.013 0.1 2.0 5.0 25 OUTLET
S_10172942119 0.013 0.1 2.0 5.0 25 OUTLET
S_10172979378 0.013 0.1 2.0 5.0 25 OUTLET
S_11359603296 0.013 0.1 2.0 5.0 25 OUTLET
S_11432115299 0.013 0.1 2.0 5.0 25 OUTLET
S_10172979412 0.013 0.1 2.0 5.0 25 OUTLET
S_10172979415 0.013 0.1 2.0 5.0 25 OUTLET
S_10172982422 0.013 0.1 2.0 5.0 25 OUTLET
S_10173119094 0.013 0.1 2.0 5.0 25 OUTLET
S_13140374056 0.013 0.1 2.0 5.0 25 OUTLET
S_10173119096 0.013 0.1 2.0 5.0 25 OUTLET
S_10175047394 0.013 0.1 2.0 5.0 25 OUTLET
S_10175047396 0.013 0.1 2.0 5.0 25 OUTLET
S_10182373816 0.013 0.1 2.0 5.0 25 OUTLET
S_10182376305 0.013 0.1 2.0 5.0 25 OUTLET
S_10182376304 0.013 0.1 2.0 5.0 25 OUTLET
S_10182376306 0.013 0.1 2.0 5.0 25 OUTLET
S_10182376308 0.013 0.1 2.0 5.0 25 OUTLET
S_10182376310 0.013 0.1 2.0 5.0 25 OUTLET
S_10182379412 0.013 0.1 2.0 5.0 25 OUTLET
S_12198988557 0.013 0.1 2.0 5.0 25 OUTLET
S_12432886068 0.013 0.1 2.0 5.0 25 OUTLET
S_10182451858 0.013 0.1 2.0 5.0 25 OUTLET
S_11290335534 0.013 0.1 2.0 5.0 25 OUTLET
S_12651793611 0.013 0.1 2.0 5.0 25 OUTLET
S_10221211848 0.013 0.1 2.0 5.0 25 OUTLET
S_12169759733 0.013 0.1 2.0 5.0 25 OUTLET
S_12169759721 0.013 0.1 2.0 5.0 25 OUTLET
S_10948126479 0.013 0.1 2.0 5.0 25 OUTLET
S_12106511659 0.013 0.1 2.0 5.0 25 OUTLET
S_12144258015 0.013 0.1 2.0 5.0 25 OUTLET
S_10994159749 0.013 0.1 2.0 5.0 25 OUTLET
S_10994329192 0.013 0.1 2.0 5.0 25 OUTLET
S_10994329200 0.013 0.1 2.0 5.0 25 OUTLET
S_10994377348 0.013 0.1 2.0 5.0 25 OUTLET
S_12443901195 0.013 0.1 2.0 5.0 25 OUTLET
S_10994411032 0.013 0.1 2.0 5.0 25 OUTLET
S_10994402343 0.013 0.1 2.0 5.0 25 OUTLET
S_10994402344 0.013 0.1 2.0 5.0 25 OUTLET
S_10994402345 0.013 0.1 2.0 5.0 25 OUTLET
S_12435660636 0.013 0.1 2.0 5.0 25 OUTLET
S_10994411033 0.013 0.1 2.0 5.0 25 OUTLET
S_11017145233 0.013 0.1 2.0 5.0 25 OUTLET
S_10996655572 0.013 0.1 2.0 5.0 25 OUTLET
S_10996777703 0.013 0.1 2.0 5.0 25 OUTLET
S_10996868635 0.013 0.1 2.0 5.0 25 OUTLET
S_11034031540 0.013 0.1 2.0 5.0 25 OUTLET
S_10996869891 0.013 0.1 2.0 5.0 25 OUTLET
S_11034031538 0.013 0.1 2.0 5.0 25 OUTLET
S_10996869896 0.013 0.1 2.0 5.0 25 OUTLET
S_10996944953 0.013 0.1 2.0 5.0 25 OUTLET
S_10996992471 0.013 0.1 2.0 5.0 25 OUTLET
S_11002591560 0.013 0.1 2.0 5.0 25 OUTLET
S_11002608085 0.013 0.1 2.0 5.0 25 OUTLET
S_13347226823 0.013 0.1 2.0 5.0 25 OUTLET
S_11009627053 0.013 0.1 2.0 5.0 25 OUTLET
S_11009632657 0.013 0.1 2.0 5.0 25 OUTLET
S_11011674942 0.013 0.1 2.0 5.0 25 OUTLET
S_11011674943 0.013 0.1 2.0 5.0 25 OUTLET
S_11011971396 0.013 0.1 2.0 5.0 25 OUTLET
S_11025131193 0.013 0.1 2.0 5.0 25 OUTLET
S_11034031539 0.013 0.1 2.0 5.0 25 OUTLET
S_11034031541 0.013 0.1 2.0 5.0 25 OUTLET
S_11075395481 0.013 0.1 2.0 5.0 25 OUTLET
S_11121177293 0.013 0.1 2.0 5.0 25 OUTLET
S_12151494704 0.013 0.1 2.0 5.0 25 OUTLET
S_11220661004 0.013 0.1 2.0 5.0 25 OUTLET
S_11233009357 0.013 0.1 2.0 5.0 25 OUTLET
S_11260020609 0.013 0.1 2.0 5.0 25 OUTLET
S_11260020610 0.013 0.1 2.0 5.0 25 OUTLET
S_11955031767 0.013 0.1 2.0 5.0 25 OUTLET
S_11395511434 0.013 0.1 2.0 5.0 25 OUTLET
S_11397517841 0.013 0.1 2.0 5.0 25 OUTLET
S_11408964579 0.013 0.1 2.0 5.0 25 OUTLET
S_11408964580 0.013 0.1 2.0 5.0 25 OUTLET
S_11408964584 0.013 0.1 2.0 5.0 25 OUTLET
S_11408964581 0.013 0.1 2.0 5.0 25 OUTLET
S_11408964583 0.013 0.1 2.0 5.0 25 OUTLET
S_11408964589 0.013 0.1 2.0 5.0 25 OUTLET
S_11408964585 0.013 0.1 2.0 5.0 25 OUTLET
S_11408964587 0.013 0.1 2.0 5.0 25 OUTLET
S_11408964586 0.013 0.1 2.0 5.0 25 OUTLET
S_11408964590 0.013 0.1 2.0 5.0 25 OUTLET
S_11408964588 0.013 0.1 2.0 5.0 25 OUTLET
S_11408964591 0.013 0.1 2.0 5.0 25 OUTLET
S_11414694996 0.013 0.1 2.0 5.0 25 OUTLET
S_11414759654 0.013 0.1 2.0 5.0 25 OUTLET
S_11428038810 0.013 0.1 2.0 5.0 25 OUTLET
S_11428038812 0.013 0.1 2.0 5.0 25 OUTLET
S_11428038814 0.013 0.1 2.0 5.0 25 OUTLET
S_11428038815 0.013 0.1 2.0 5.0 25 OUTLET
S_11922878283 0.013 0.1 2.0 5.0 25 OUTLET
S_12060861662 0.013 0.1 2.0 5.0 25 OUTLET
S_11428038817 0.013 0.1 2.0 5.0 25 OUTLET
S_11433644720 0.013 0.1 2.0 5.0 25 OUTLET
S_11433644721 0.013 0.1 2.0 5.0 25 OUTLET
S_12477867929 0.013 0.1 2.0 5.0 25 OUTLET
S_13928938237 0.013 0.1 2.0 5.0 25 OUTLET
S_11703595135 0.013 0.1 2.0 5.0 25 OUTLET
S_11873774240 0.013 0.1 2.0 5.0 25 OUTLET
S_12157177352 0.013 0.1 2.0 5.0 25 OUTLET
S_11921590006 0.013 0.1 2.0 5.0 25 OUTLET
S_12169759722 0.013 0.1 2.0 5.0 25 OUTLET
S_12137575005 0.013 0.1 2.0 5.0 25 OUTLET
S_13757868548 0.013 0.1 2.0 5.0 25 OUTLET
S_12060861592 0.013 0.1 2.0 5.0 25 OUTLET
S_12100338251 0.013 0.1 2.0 5.0 25 OUTLET
S_12106511663 0.013 0.1 2.0 5.0 25 OUTLET
S_12144258013 0.013 0.1 2.0 5.0 25 OUTLET
S_12145839288 0.013 0.1 2.0 5.0 25 OUTLET
S_12147412805 0.013 0.1 2.0 5.0 25 OUTLET
S_12169759723 0.013 0.1 2.0 5.0 25 OUTLET
S_12169759726 0.013 0.1 2.0 5.0 25 OUTLET
S_12169759731 0.013 0.1 2.0 5.0 25 OUTLET
S_12963900368 0.013 0.1 2.0 5.0 25 OUTLET
S_12176161390 0.013 0.1 2.0 5.0 25 OUTLET
S_13743331082 0.013 0.1 2.0 5.0 25 OUTLET
S_12176161400 0.013 0.1 2.0 5.0 25 OUTLET
S_12185693393 0.013 0.1 2.0 5.0 25 OUTLET
S_12187854997 0.013 0.1 2.0 5.0 25 OUTLET
S_12198988556 0.013 0.1 2.0 5.0 25 OUTLET
S_12250445350 0.013 0.1 2.0 5.0 25 OUTLET
S_12278137174 0.013 0.1 2.0 5.0 25 OUTLET
S_12543439896 0.013 0.1 2.0 5.0 25 OUTLET
S_12435660637 0.013 0.1 2.0 5.0 25 OUTLET
S_12443097982 0.013 0.1 2.0 5.0 25 OUTLET
S_12443097985 0.013 0.1 2.0 5.0 25 OUTLET
S_12443097984 0.013 0.1 2.0 5.0 25 OUTLET
S_12443097987 0.013 0.1 2.0 5.0 25 OUTLET
S_12443097986 0.013 0.1 2.0 5.0 25 OUTLET
S_12443097989 0.013 0.1 2.0 5.0 25 OUTLET
S_12446863536 0.013 0.1 2.0 5.0 25 OUTLET
S_12468537408 0.013 0.1 2.0 5.0 25 OUTLET
S_12655271582 0.013 0.1 2.0 5.0 25 OUTLET
S_12963900366 0.013 0.1 2.0 5.0 25 OUTLET
S_12997741438 0.013 0.1 2.0 5.0 25 OUTLET
S_13877530782 0.013 0.1 2.0 5.0 25 OUTLET
S_13077693352 0.013 0.1 2.0 5.0 25 OUTLET
S_13130383419 0.013 0.1 2.0 5.0 25 OUTLET
S_13134720404 0.013 0.1 2.0 5.0 25 OUTLET
S_13134720442 0.013 0.1 2.0 5.0 25 OUTLET
S_13135583069 0.013 0.1 2.0 5.0 25 OUTLET
S_13136176381 0.013 0.1 2.0 5.0 25 OUTLET
S_13137760928 0.013 0.1 2.0 5.0 25 OUTLET
S_13137760956 0.013 0.1 2.0 5.0 25 OUTLET
S_13140521147 0.013 0.1 2.0 5.0 25 OUTLET
S_13142028562 0.013 0.1 2.0 5.0 25 OUTLET
S_13142028597 0.013 0.1 2.0 5.0 25 OUTLET
S_13238937707 0.013 0.1 2.0 5.0 25 OUTLET
S_13347226822 0.013 0.1 2.0 5.0 25 OUTLET
S_13736562871 0.013 0.1 2.0 5.0 25 OUTLET
S_13736567810 0.013 0.1 2.0 5.0 25 OUTLET
S_13738231244 0.013 0.1 2.0 5.0 25 OUTLET
S_13743331025 0.013 0.1 2.0 5.0 25 OUTLET
S_13743331043 0.013 0.1 2.0 5.0 25 OUTLET
S_13875979598 0.013 0.1 2.0 5.0 25 OUTLET
S_12956054174 0.013 0.1 2.0 5.0 25 OUTLET

[INFILTRATION]
;;Subcatchment MaxRate MinRate Decay DryTime MaxInfil
S_260908311 75.0 3.0 4.0 7.0 0
S_10721527309 75.0 3.0 4.0 7.0 0
S_4472266108 75.0 3.0 4.0 7.0 0
S_262268684 75.0 3.0 4.0 7.0 0
S_266371138 75.0 3.0 4.0 7.0 0
S_9828511707 75.0 3.0 4.0 7.0 0
S_3870651477 75.0 3.0 4.0 7.0 0
S_262268685 75.0 3.0 4.0 7.0 0
S_7298619223 75.0 3.0 4.0 7.0 0
S_349027597 75.0 3.0 4.0 7.0 0
S_3870651479 75.0 3.0 4.0 7.0 0
S_3149622374 75.0 3.0 4.0 7.0 0
S_262459524 75.0 3.0 4.0 7.0 0
S_13144006534 75.0 3.0 4.0 7.0 0
S_262459526 75.0 3.0 4.0 7.0 0
S_12655271583 75.0 3.0 4.0 7.0 0
S_3149619842 75.0 3.0 4.0 7.0 0
S_262459527 75.0 3.0 4.0 7.0 0
S_264129270 75.0 3.0 4.0 7.0 0
S_12183845711 75.0 3.0 4.0 7.0 0
S_264129289 75.0 3.0 4.0 7.0 0
S_264141527 75.0 3.0 4.0 7.0 0
S_9179098227 75.0 3.0 4.0 7.0 0
S_3141425534 75.0 3.0 4.0 7.0 0
S_264129319 75.0 3.0 4.0 7.0 0
S_264147890 75.0 3.0 4.0 7.0 0
S_5724583886 75.0 3.0 4.0 7.0 0
S_5930997555 75.0 3.0 4.0 7.0 0
S_3141425542 75.0 3.0 4.0 7.0 0
S_3161309799 75.0 3.0 4.0 7.0 0
S_264189089 75.0 3.0 4.0 7.0 0
S_3149619847 75.0 3.0 4.0 7.0 0
S_3149619851 75.0 3.0 4.0 7.0 0
S_3149619853 75.0 3.0 4.0 7.0 0
S_6536271335 75.0 3.0 4.0 7.0 0
S_264845660 75.0 3.0 4.0 7.0 0
S_13135627938 75.0 3.0 4.0 7.0 0
S_2389701677 75.0 3.0 4.0 7.0 0
S_264845710 75.0 3.0 4.0 7.0 0
S_3148667904 75.0 3.0 4.0 7.0 0
S_3148667896 75.0 3.0 4.0 7.0 0
S_9859790834 75.0 3.0 4.0 7.0 0
S_264845740 75.0 3.0 4.0 7.0 0
S_1315048083 75.0 3.0 4.0 7.0 0
S_3872540688 75.0 3.0 4.0 7.0 0
S_3872540686 75.0 3.0 4.0 7.0 0
S_264845751 75.0 3.0 4.0 7.0 0
S_3872533488 75.0 3.0 4.0 7.0 0
S_3872533478 75.0 3.0 4.0 7.0 0
S_2206930282 75.0 3.0 4.0 7.0 0
S_1644166489 75.0 3.0 4.0 7.0 0
S_267210547 75.0 3.0 4.0 7.0 0
S_267210550 75.0 3.0 4.0 7.0 0
S_7147115841 75.0 3.0 4.0 7.0 0
S_2099691667 75.0 3.0 4.0 7.0 0
S_5919853090 75.0 3.0 4.0 7.0 0
S_267215656 75.0 3.0 4.0 7.0 0
S_13075849008 75.0 3.0 4.0 7.0 0
S_3148580198 75.0 3.0 4.0 7.0 0
S_2206930283 75.0 3.0 4.0 7.0 0
S_274569246 75.0 3.0 4.0 7.0 0
S_12176161387 75.0 3.0 4.0 7.0 0
S_274569296 75.0 3.0 4.0 7.0 0
S_3141473152 75.0 3.0 4.0 7.0 0
S_7328379155 75.0 3.0 4.0 7.0 0
S_274569309 75.0 3.0 4.0 7.0 0
S_274570242 75.0 3.0 4.0 7.0 0
S_7328379172 75.0 3.0 4.0 7.0 0
S_274569328 75.0 3.0 4.0 7.0 0
S_7328379173 75.0 3.0 4.0 7.0 0
S_3141473132 75.0 3.0 4.0 7.0 0
S_3141472722 75.0 3.0 4.0 7.0 0
S_274569348 75.0 3.0 4.0 7.0 0
S_3141473140 75.0 3.0 4.0 7.0 0
S_3141473150 75.0 3.0 4.0 7.0 0
S_3141473145 75.0 3.0 4.0 7.0 0
S_3170006930 75.0 3.0 4.0 7.0 0
S_11563497460 75.0 3.0 4.0 7.0 0
S_274570292 75.0 3.0 4.0 7.0 0
S_1387622103 75.0 3.0 4.0 7.0 0
S_4824673767 75.0 3.0 4.0 7.0 0
S_7328379200 75.0 3.0 4.0 7.0 0
S_274576719 75.0 3.0 4.0 7.0 0
S_4475150582 75.0 3.0 4.0 7.0 0
S_2268546167 75.0 3.0 4.0 7.0 0
S_292565231 75.0 3.0 4.0 7.0 0
S_7479630325 75.0 3.0 4.0 7.0 0
S_7479630930 75.0 3.0 4.0 7.0 0
S_7479630950 75.0 3.0 4.0 7.0 0
S_292565243 75.0 3.0 4.0 7.0 0
S_7478154729 75.0 3.0 4.0 7.0 0
S_7478154719 75.0 3.0 4.0 7.0 0
S_7479630320 75.0 3.0 4.0 7.0 0
S_293709519 75.0 3.0 4.0 7.0 0
S_2034648224 75.0 3.0 4.0 7.0 0
S_3771990524 75.0 3.0 4.0 7.0 0
S_2268546111 75.0 3.0 4.0 7.0 0
S_293709525 75.0 3.0 4.0 7.0 0
S_3771990505 75.0 3.0 4.0 7.0 0
S_7328379022 75.0 3.0 4.0 7.0 0
S_7328379067 75.0 3.0 4.0 7.0 0
S_302499540 75.0 3.0 4.0 7.0 0
S_6197379428 75.0 3.0 4.0 7.0 0
S_1748486107 75.0 3.0 4.0 7.0 0
S_5778474214 75.0 3.0 4.0 7.0 0
S_307401420 75.0 3.0 4.0 7.0 0
S_429781973 75.0 3.0 4.0 7.0 0
S_11070754936 75.0 3.0 4.0 7.0 0
S_590698291 75.0 3.0 4.0 7.0 0
S_3715148292 75.0 3.0 4.0 7.0 0
S_429780762 75.0 3.0 4.0 7.0 0
S_429780764 75.0 3.0 4.0 7.0 0
S_590698298 75.0 3.0 4.0 7.0 0
S_9828540923 75.0 3.0 4.0 7.0 0
S_590698311 75.0 3.0 4.0 7.0 0
S_590698302 75.0 3.0 4.0 7.0 0
S_429781781 75.0 3.0 4.0 7.0 0
S_590698314 75.0 3.0 4.0 7.0 0
S_2483733242 75.0 3.0 4.0 7.0 0
S_590698312 75.0 3.0 4.0 7.0 0
S_429781782 75.0 3.0 4.0 7.0 0
S_650076942 75.0 3.0 4.0 7.0 0
S_3150107472 75.0 3.0 4.0 7.0 0
S_3150107471 75.0 3.0 4.0 7.0 0
S_429783956 75.0 3.0 4.0 7.0 0
S_12059211981 75.0 3.0 4.0 7.0 0
S_5930945945 75.0 3.0 4.0 7.0 0
S_429783966 75.0 3.0 4.0 7.0 0
S_1694231991 75.0 3.0 4.0 7.0 0
S_961816867 75.0 3.0 4.0 7.0 0
S_515736998 75.0 3.0 4.0 7.0 0
S_11891216393 75.0 3.0 4.0 7.0 0
S_574762971 75.0 3.0 4.0 7.0 0
S_574762980 75.0 3.0 4.0 7.0 0
S_574762976 75.0 3.0 4.0 7.0 0
S_10175047393 75.0 3.0 4.0 7.0 0
S_574762978 75.0 3.0 4.0 7.0 0
S_10213547236 75.0 3.0 4.0 7.0 0
S_12279397378 75.0 3.0 4.0 7.0 0
S_12319493407 75.0 3.0 4.0 7.0 0
S_574762987 75.0 3.0 4.0 7.0 0
S_2099691681 75.0 3.0 4.0 7.0 0
S_11399565982 75.0 3.0 4.0 7.0 0
S_11011994983 75.0 3.0 4.0 7.0 0
S_574763005 75.0 3.0 4.0 7.0 0
S_11075395480 75.0 3.0 4.0 7.0 0
S_13816840517 75.0 3.0 4.0 7.0 0
S_574763010 75.0 3.0 4.0 7.0 0
S_6180297958 75.0 3.0 4.0 7.0 0
S_3504349796 75.0 3.0 4.0 7.0 0
S_10996723268 75.0 3.0 4.0 7.0 0
S_11527430411 75.0 3.0 4.0 7.0 0
S_13137760931 75.0 3.0 4.0 7.0 0
S_590698294 75.0 3.0 4.0 7.0 0
S_3558431203 75.0 3.0 4.0 7.0 0
S_590698296 75.0 3.0 4.0 7.0 0
S_590698300 75.0 3.0 4.0 7.0 0
S_590698318 75.0 3.0 4.0 7.0 0
S_1305577019 75.0 3.0 4.0 7.0 0
S_590698313 75.0 3.0 4.0 7.0 0
S_590698328 75.0 3.0 4.0 7.0 0
S_7265834831 75.0 3.0 4.0 7.0 0
S_3170496474 75.0 3.0 4.0 7.0 0
S_590698330 75.0 3.0 4.0 7.0 0
S_1558259250 75.0 3.0 4.0 7.0 0
S_1693112084 75.0 3.0 4.0 7.0 0
S_695070306 75.0 3.0 4.0 7.0 0
S_10969136192 75.0 3.0 4.0 7.0 0
S_2113348452 75.0 3.0 4.0 7.0 0
S_695070314 75.0 3.0 4.0 7.0 0
S_3148655277 75.0 3.0 4.0 7.0 0
S_4915966850 75.0 3.0 4.0 7.0 0
S_3148655275 75.0 3.0 4.0 7.0 0
S_695070403 75.0 3.0 4.0 7.0 0
S_3148656438 75.0 3.0 4.0 7.0 0
S_7479631129 75.0 3.0 4.0 7.0 0
S_12468537412 75.0 3.0 4.0 7.0 0
S_695070406 75.0 3.0 4.0 7.0 0
S_13077693351 75.0 3.0 4.0 7.0 0
S_6802224021 75.0 3.0 4.0 7.0 0
S_695070408 75.0 3.0 4.0 7.0 0
S_3148656447 75.0 3.0 4.0 7.0 0
S_7147949887 75.0 3.0 4.0 7.0 0
S_13875979600 75.0 3.0 4.0 7.0 0
S_695079385 75.0 3.0 4.0 7.0 0
S_7328099146 75.0 3.0 4.0 7.0 0
S_10182468120 75.0 3.0 4.0 7.0 0
S_818630839 75.0 3.0 4.0 7.0 0
S_1387622149 75.0 3.0 4.0 7.0 0
S_3148609358 75.0 3.0 4.0 7.0 0
S_11182448718 75.0 3.0 4.0 7.0 0
S_818634499 75.0 3.0 4.0 7.0 0
S_818634502 75.0 3.0 4.0 7.0 0
S_827145938 75.0 3.0 4.0 7.0 0
S_3148633513 75.0 3.0 4.0 7.0 0
S_818634513 75.0 3.0 4.0 7.0 0
S_3170006921 75.0 3.0 4.0 7.0 0
S_929965958 75.0 3.0 4.0 7.0 0
S_10996944954 75.0 3.0 4.0 7.0 0
S_825408102 75.0 3.0 4.0 7.0 0
S_7479630561 75.0 3.0 4.0 7.0 0
S_956077413 75.0 3.0 4.0 7.0 0
S_13875979449 75.0 3.0 4.0 7.0 0
S_844403663 75.0 3.0 4.0 7.0 0
S_6536884399 75.0 3.0 4.0 7.0 0
S_6141753929 75.0 3.0 4.0 7.0 0
S_956058174 75.0 3.0 4.0 7.0 0
S_3157684368 75.0 3.0 4.0 7.0 0
S_929965968 75.0 3.0 4.0 7.0 0
S_2349412314 75.0 3.0 4.0 7.0 0
S_10996638660 75.0 3.0 4.0 7.0 0
S_929965972 75.0 3.0 4.0 7.0 0
S_956058186 75.0 3.0 4.0 7.0 0
S_929965977 75.0 3.0 4.0 7.0 0
S_929965973 75.0 3.0 4.0 7.0 0
S_1390345459 75.0 3.0 4.0 7.0 0
S_7301790590 75.0 3.0 4.0 7.0 0
S_3157684367 75.0 3.0 4.0 7.0 0
S_7479631029 75.0 3.0 4.0 7.0 0
S_7479631046 75.0 3.0 4.0 7.0 0
S_1694231590 75.0 3.0 4.0 7.0 0
S_10994329194 75.0 3.0 4.0 7.0 0
S_1067315124 75.0 3.0 4.0 7.0 0
S_3161309802 75.0 3.0 4.0 7.0 0
S_12272816024 75.0 3.0 4.0 7.0 0
S_11185418653 75.0 3.0 4.0 7.0 0
S_1083495045 75.0 3.0 4.0 7.0 0
S_2387290813 75.0 3.0 4.0 7.0 0
S_1083500526 75.0 3.0 4.0 7.0 0
S_3149622352 75.0 3.0 4.0 7.0 0
S_2387123504 75.0 3.0 4.0 7.0 0
S_1083500529 75.0 3.0 4.0 7.0 0
S_1132734424 75.0 3.0 4.0 7.0 0
S_1186777885 75.0 3.0 4.0 7.0 0
S_7263153533 75.0 3.0 4.0 7.0 0
S_12649685464 75.0 3.0 4.0 7.0 0
S_11002591551 75.0 3.0 4.0 7.0 0
S_1186777924 75.0 3.0 4.0 7.0 0
S_4447404413 75.0 3.0 4.0 7.0 0
S_1186777952 75.0 3.0 4.0 7.0 0
S_7328379151 75.0 3.0 4.0 7.0 0
S_1186777966 75.0 3.0 4.0 7.0 0
S_6195813805 75.0 3.0 4.0 7.0 0
S_1186777956 75.0 3.0 4.0 7.0 0
S_7328379157 75.0 3.0 4.0 7.0 0
S_13743331044 75.0 3.0 4.0 7.0 0
S_1224322808 75.0 3.0 4.0 7.0 0
S_7263316354 75.0 3.0 4.0 7.0 0
S_2034648220 75.0 3.0 4.0 7.0 0
S_2268546130 75.0 3.0 4.0 7.0 0
S_1244527875 75.0 3.0 4.0 7.0 0
S_2828324523 75.0 3.0 4.0 7.0 0
S_2387579010 75.0 3.0 4.0 7.0 0
S_1244527888 75.0 3.0 4.0 7.0 0
S_6342458097 75.0 3.0 4.0 7.0 0
S_1315049037 75.0 3.0 4.0 7.0 0
S_1300454732 75.0 3.0 4.0 7.0 0
S_11922878281 75.0 3.0 4.0 7.0 0
S_1321535551 75.0 3.0 4.0 7.0 0
S_1305577009 75.0 3.0 4.0 7.0 0
S_11234065193 75.0 3.0 4.0 7.0 0
S_6168052376 75.0 3.0 4.0 7.0 0
S_1314077241 75.0 3.0 4.0 7.0 0
S_7479631472 75.0 3.0 4.0 7.0 0
S_7478154540 75.0 3.0 4.0 7.0 0
S_11370378569 75.0 3.0 4.0 7.0 0
S_1314077247 75.0 3.0 4.0 7.0 0
S_6168067117 75.0 3.0 4.0 7.0 0
S_7478154497 75.0 3.0 4.0 7.0 0
S_7736381401 75.0 3.0 4.0 7.0 0
S_1314077248 75.0 3.0 4.0 7.0 0
S_5777147300 75.0 3.0 4.0 7.0 0
S_5777147337 75.0 3.0 4.0 7.0 0
S_1315048058 75.0 3.0 4.0 7.0 0
S_3148668048 75.0 3.0 4.0 7.0 0
S_6141957199 75.0 3.0 4.0 7.0 0
S_1315048061 75.0 3.0 4.0 7.0 0
S_1315048060 75.0 3.0 4.0 7.0 0
S_11009627049 75.0 3.0 4.0 7.0 0
S_10172982421 75.0 3.0 4.0 7.0 0
S_2206930291 75.0 3.0 4.0 7.0 0
S_10172982423 75.0 3.0 4.0 7.0 0
S_1315048075 75.0 3.0 4.0 7.0 0
S_3148668044 75.0 3.0 4.0 7.0 0
S_3148668042 75.0 3.0 4.0 7.0 0
S_10232292384 75.0 3.0 4.0 7.0 0
S_1315048078 75.0 3.0 4.0 7.0 0
S_8433749411 75.0 3.0 4.0 7.0 0
S_6183009077 75.0 3.0 4.0 7.0 0
S_1315048080 75.0 3.0 4.0 7.0 0
S_1315052254 75.0 3.0 4.0 7.0 0
S_2387579012 75.0 3.0 4.0 7.0 0
S_1315049031 75.0 3.0 4.0 7.0 0
S_10173119093 75.0 3.0 4.0 7.0 0
S_1315049034 75.0 3.0 4.0 7.0 0
S_13140374079 75.0 3.0 4.0 7.0 0
S_11009632656 75.0 3.0 4.0 7.0 0
S_3148668037 75.0 3.0 4.0 7.0 0
S_3148668038 75.0 3.0 4.0 7.0 0
S_1319974913 75.0 3.0 4.0 7.0 0
S_5372340496 75.0 3.0 4.0 7.0 0
S_1319974914 75.0 3.0 4.0 7.0 0
S_11865827584 75.0 3.0 4.0 7.0 0
S_12060861661 75.0 3.0 4.0 7.0 0
S_1367979481 75.0 3.0 4.0 7.0 0
S_4446729192 75.0 3.0 4.0 7.0 0
S_1383248215 75.0 3.0 4.0 7.0 0
S_3148645671 75.0 3.0 4.0 7.0 0
S_3148655238 75.0 3.0 4.0 7.0 0
S_3148655236 75.0 3.0 4.0 7.0 0
S_1383248254 75.0 3.0 4.0 7.0 0
S_3148655266 75.0 3.0 4.0 7.0 0
S_7478155165 75.0 3.0 4.0 7.0 0
S_1383248309 75.0 3.0 4.0 7.0 0
S_10168257533 75.0 3.0 4.0 7.0 0
S_12462993523 75.0 3.0 4.0 7.0 0
S_1387622086 75.0 3.0 4.0 7.0 0
S_2195883502 75.0 3.0 4.0 7.0 0
S_12334925123 75.0 3.0 4.0 7.0 0
S_1387622091 75.0 3.0 4.0 7.0 0
S_2268546103 75.0 3.0 4.0 7.0 0
S_10994097991 75.0 3.0 4.0 7.0 0
S_10182451860 75.0 3.0 4.0 7.0 0
S_3141475567 75.0 3.0 4.0 7.0 0
S_1387622131 75.0 3.0 4.0 7.0 0
S_2268546143 75.0 3.0 4.0 7.0 0
S_2268546123 75.0 3.0 4.0 7.0 0
S_1387622145 75.0 3.0 4.0 7.0 0
S_2268546106 75.0 3.0 4.0 7.0 0
S_10182451857 75.0 3.0 4.0 7.0 0
S_2268546110 75.0 3.0 4.0 7.0 0
S_13064841548 75.0 3.0 4.0 7.0 0
S_3504349795 75.0 3.0 4.0 7.0 0
S_5777299715 75.0 3.0 4.0 7.0 0
S_1614318567 75.0 3.0 4.0 7.0 0
S_2130361899 75.0 3.0 4.0 7.0 0
S_12060861673 75.0 3.0 4.0 7.0 0
S_1614318730 75.0 3.0 4.0 7.0 0
S_1614318635 75.0 3.0 4.0 7.0 0
S_6562185321 75.0 3.0 4.0 7.0 0
S_11428038813 75.0 3.0 4.0 7.0 0
S_1615766875 75.0 3.0 4.0 7.0 0
S_11017227499 75.0 3.0 4.0 7.0 0
S_1615766938 75.0 3.0 4.0 7.0 0
S_6536473101 75.0 3.0 4.0 7.0 0
S_1615766958 75.0 3.0 4.0 7.0 0
S_1615766885 75.0 3.0 4.0 7.0 0
S_1615767016 75.0 3.0 4.0 7.0 0
S_1615766914 75.0 3.0 4.0 7.0 0
S_1615766985 75.0 3.0 4.0 7.0 0
S_1615767002 75.0 3.0 4.0 7.0 0
S_3684986226 75.0 3.0 4.0 7.0 0
S_1615766921 75.0 3.0 4.0 7.0 0
S_6536473099 75.0 3.0 4.0 7.0 0
S_3237573297 75.0 3.0 4.0 7.0 0
S_6536473104 75.0 3.0 4.0 7.0 0
S_6968263671 75.0 3.0 4.0 7.0 0
S_1615767007 75.0 3.0 4.0 7.0 0
S_9846394228 75.0 3.0 4.0 7.0 0
S_1615767013 75.0 3.0 4.0 7.0 0
S_11397517840 75.0 3.0 4.0 7.0 0
S_11070754935 75.0 3.0 4.0 7.0 0
S_1645178566 75.0 3.0 4.0 7.0 0
S_1645178612 75.0 3.0 4.0 7.0 0
S_1683173710 75.0 3.0 4.0 7.0 0
S_1683173716 75.0 3.0 4.0 7.0 0
S_7478154651 75.0 3.0 4.0 7.0 0
S_7147103496 75.0 3.0 4.0 7.0 0
S_11078308794 75.0 3.0 4.0 7.0 0
S_11428038816 75.0 3.0 4.0 7.0 0
S_2446054167 75.0 3.0 4.0 7.0 0
S_1714977975 75.0 3.0 4.0 7.0 0
S_1714984580 75.0 3.0 4.0 7.0 0
S_12009305216 75.0 3.0 4.0 7.0 0
S_1714984568 75.0 3.0 4.0 7.0 0
S_8403844099 75.0 3.0 4.0 7.0 0
S_5776756937 75.0 3.0 4.0 7.0 0
S_1714984609 75.0 3.0 4.0 7.0 0
S_13144414990 75.0 3.0 4.0 7.0 0
S_1815485809 75.0 3.0 4.0 7.0 0
S_3148587503 75.0 3.0 4.0 7.0 0
S_1817170894 75.0 3.0 4.0 7.0 0
S_5689989229 75.0 3.0 4.0 7.0 0
S_7328007720 75.0 3.0 4.0 7.0 0
S_5772629055 75.0 3.0 4.0 7.0 0
S_1817170897 75.0 3.0 4.0 7.0 0
S_5689989225 75.0 3.0 4.0 7.0 0
S_5689989227 75.0 3.0 4.0 7.0 0
S_7478154681 75.0 3.0 4.0 7.0 0
S_1817170898 75.0 3.0 4.0 7.0 0
S_6499300015 75.0 3.0 4.0 7.0 0
S_1827247449 75.0 3.0 4.0 7.0 0
S_5778521345 75.0 3.0 4.0 7.0 0
S_1827634843 75.0 3.0 4.0 7.0 0
S_1906888933 75.0 3.0 4.0 7.0 0
S_11220661003 75.0 3.0 4.0 7.0 0
S_1914928013 75.0 3.0 4.0 7.0 0
S_10182390928 75.0 3.0 4.0 7.0 0
S_4682937550 75.0 3.0 4.0 7.0 0
S_2034648230 75.0 3.0 4.0 7.0 0
S_2034648234 75.0 3.0 4.0 7.0 0
S_2034648222 75.0 3.0 4.0 7.0 0
S_7266164820 75.0 3.0 4.0 7.0 0
S_2034648226 75.0 3.0 4.0 7.0 0
S_7328379076 75.0 3.0 4.0 7.0 0
S_2034648233 75.0 3.0 4.0 7.0 0
S_2034648225 75.0 3.0 4.0 7.0 0
S_4447100001 75.0 3.0 4.0 7.0 0
S_2268546160 75.0 3.0 4.0 7.0 0
S_2268546125 75.0 3.0 4.0 7.0 0
S_2268546136 75.0 3.0 4.0 7.0 0
S_2034648235 75.0 3.0 4.0 7.0 0
S_2041854927 75.0 3.0 4.0 7.0 0
S_2268546140 75.0 3.0 4.0 7.0 0
S_4448123006 75.0 3.0 4.0 7.0 0
S_2268546144 75.0 3.0 4.0 7.0 0
S_2041854936 75.0 3.0 4.0 7.0 0
S_2268546152 75.0 3.0 4.0 7.0 0
S_2099691584 75.0 3.0 4.0 7.0 0
S_5354906276 75.0 3.0 4.0 7.0 0
S_6194830177 75.0 3.0 4.0 7.0 0
S_2099691601 75.0 3.0 4.0 7.0 0
S_2099691630 75.0 3.0 4.0 7.0 0
S_12517783371 75.0 3.0 4.0 7.0 0
S_12517783377 75.0 3.0 4.0 7.0 0
S_2099691637 75.0 3.0 4.0 7.0 0
S_2387361293 75.0 3.0 4.0 7.0 0
S_5807148396 75.0 3.0 4.0 7.0 0
S_6130070511 75.0 3.0 4.0 7.0 0
S_2099691661 75.0 3.0 4.0 7.0 0
S_8530739259 75.0 3.0 4.0 7.0 0
S_13823559215 75.0 3.0 4.0 7.0 0
S_11011674941 75.0 3.0 4.0 7.0 0
S_10172914465 75.0 3.0 4.0 7.0 0
S_2099691686 75.0 3.0 4.0 7.0 0
S_2387367081 75.0 3.0 4.0 7.0 0
S_12151458578 75.0 3.0 4.0 7.0 0
S_6749666079 75.0 3.0 4.0 7.0 0
S_11891163805 75.0 3.0 4.0 7.0 0
S_6536473139 75.0 3.0 4.0 7.0 0
S_2156205416 75.0 3.0 4.0 7.0 0
S_6904648005 75.0 3.0 4.0 7.0 0
S_2412953615 75.0 3.0 4.0 7.0 0
S_2180904962 75.0 3.0 4.0 7.0 0
S_2268546087 75.0 3.0 4.0 7.0 0
S_2195883497 75.0 3.0 4.0 7.0 0
S_4445588631 75.0 3.0 4.0 7.0 0
S_2206930257 75.0 3.0 4.0 7.0 0
S_3148668088 75.0 3.0 4.0 7.0 0
S_2206930285 75.0 3.0 4.0 7.0 0
S_2206930279 75.0 3.0 4.0 7.0 0
S_2206930259 75.0 3.0 4.0 7.0 0
S_2206930263 75.0 3.0 4.0 7.0 0
S_2206930274 75.0 3.0 4.0 7.0 0
S_3148668073 75.0 3.0 4.0 7.0 0
S_3148668067 75.0 3.0 4.0 7.0 0
S_2206930265 75.0 3.0 4.0 7.0 0
S_2206930266 75.0 3.0 4.0 7.0 0
S_2206930270 75.0 3.0 4.0 7.0 0
S_3148668114 75.0 3.0 4.0 7.0 0
S_2206930278 75.0 3.0 4.0 7.0 0
S_2387579019 75.0 3.0 4.0 7.0 0
S_3148668099 75.0 3.0 4.0 7.0 0
S_2206930277 75.0 3.0 4.0 7.0 0
S_3148668072 75.0 3.0 4.0 7.0 0
S_3148668071 75.0 3.0 4.0 7.0 0
S_10172979379 75.0 3.0 4.0 7.0 0
S_2206930284 75.0 3.0 4.0 7.0 0
S_2206930286 75.0 3.0 4.0 7.0 0
S_3148668107 75.0 3.0 4.0 7.0 0
S_3148668112 75.0 3.0 4.0 7.0 0
S_2206930293 75.0 3.0 4.0 7.0 0
S_10172979380 75.0 3.0 4.0 7.0 0
S_2268546082 75.0 3.0 4.0 7.0 0
S_2268546086 75.0 3.0 4.0 7.0 0
S_2268546089 75.0 3.0 4.0 7.0 0
S_2268546096 75.0 3.0 4.0 7.0 0
S_2268546093 75.0 3.0 4.0 7.0 0
S_2268546100 75.0 3.0 4.0 7.0 0
S_2268546095 75.0 3.0 4.0 7.0 0
S_4475055875 75.0 3.0 4.0 7.0 0
S_2268546105 75.0 3.0 4.0 7.0 0
S_2268546114 75.0 3.0 4.0 7.0 0
S_4974503765 75.0 3.0 4.0 7.0 0
S_7328345274 75.0 3.0 4.0 7.0 0
S_2268546121 75.0 3.0 4.0 7.0 0
S_3148657060 75.0 3.0 4.0 7.0 0
S_2268546117 75.0 3.0 4.0 7.0 0
S_4448123019 75.0 3.0 4.0 7.0 0
S_2268546132 75.0 3.0 4.0 7.0 0
S_6144032627 75.0 3.0 4.0 7.0 0
S_5388808643 75.0 3.0 4.0 7.0 0
S_2268546146 75.0 3.0 4.0 7.0 0
S_2268546161 75.0 3.0 4.0 7.0 0
S_2268546149 75.0 3.0 4.0 7.0 0
S_2268546151 75.0 3.0 4.0 7.0 0
S_4475150583 75.0 3.0 4.0 7.0 0
S_13142029192 75.0 3.0 4.0 7.0 0
S_2268546156 75.0 3.0 4.0 7.0 0
S_2268546158 75.0 3.0 4.0 7.0 0
S_2268546159 75.0 3.0 4.0 7.0 0
S_2268546163 75.0 3.0 4.0 7.0 0
S_3590694360 75.0 3.0 4.0 7.0 0
S_3148614512 75.0 3.0 4.0 7.0 0
S_2268546165 75.0 3.0 4.0 7.0 0
S_2268546166 75.0 3.0 4.0 7.0 0
S_3590694361 75.0 3.0 4.0 7.0 0
S_10725368291 75.0 3.0 4.0 7.0 0
S_3803663193 75.0 3.0 4.0 7.0 0
S_3141425530 75.0 3.0 4.0 7.0 0
S_5776756946 75.0 3.0 4.0 7.0 0
S_4540978393 75.0 3.0 4.0 7.0 0
S_2387407562 75.0 3.0 4.0 7.0 0
S_10056058174 75.0 3.0 4.0 7.0 0
S_3872533486 75.0 3.0 4.0 7.0 0
S_10094041459 75.0 3.0 4.0 7.0 0
S_3148668068 75.0 3.0 4.0 7.0 0
S_3148668100 75.0 3.0 4.0 7.0 0
S_3157670226 75.0 3.0 4.0 7.0 0
S_2391229483 75.0 3.0 4.0 7.0 0
S_3148645652 75.0 3.0 4.0 7.0 0
S_3148645665 75.0 3.0 4.0 7.0 0
S_3148656434 75.0 3.0 4.0 7.0 0
S_3148645692 75.0 3.0 4.0 7.0 0
S_2406966810 75.0 3.0 4.0 7.0 0
S_2406966812 75.0 3.0 4.0 7.0 0
S_6505394016 75.0 3.0 4.0 7.0 0
S_10147078393 75.0 3.0 4.0 7.0 0
S_2407838682 75.0 3.0 4.0 7.0 0
S_10213547238 75.0 3.0 4.0 7.0 0
S_11011650785 75.0 3.0 4.0 7.0 0
S_11891163804 75.0 3.0 4.0 7.0 0
S_2413006760 75.0 3.0 4.0 7.0 0
S_3150118040 75.0 3.0 4.0 7.0 0
S_2414360817 75.0 3.0 4.0 7.0 0
S_11509998750 75.0 3.0 4.0 7.0 0
S_2828324522 75.0 3.0 4.0 7.0 0
S_9708811990 75.0 3.0 4.0 7.0 0
S_3141425537 75.0 3.0 4.0 7.0 0
S_3141425538 75.0 3.0 4.0 7.0 0
S_3141425539 75.0 3.0 4.0 7.0 0
S_3141425540 75.0 3.0 4.0 7.0 0
S_3141425541 75.0 3.0 4.0 7.0 0
S_3141425543 75.0 3.0 4.0 7.0 0
S_3141452102 75.0 3.0 4.0 7.0 0
S_7328379166 75.0 3.0 4.0 7.0 0
S_13736567789 75.0 3.0 4.0 7.0 0
S_3141452104 75.0 3.0 4.0 7.0 0
S_3141452108 75.0 3.0 4.0 7.0 0
S_7262830544 75.0 3.0 4.0 7.0 0
S_3141452106 75.0 3.0 4.0 7.0 0
S_3141452111 75.0 3.0 4.0 7.0 0
S_3141452107 75.0 3.0 4.0 7.0 0
S_3141452113 75.0 3.0 4.0 7.0 0
S_7262830543 75.0 3.0 4.0 7.0 0
S_3504895466 75.0 3.0 4.0 7.0 0
S_3141452114 75.0 3.0 4.0 7.0 0
S_3141452115 75.0 3.0 4.0 7.0 0
S_3141452118 75.0 3.0 4.0 7.0 0
S_6136413730 75.0 3.0 4.0 7.0 0
S_4474704607 75.0 3.0 4.0 7.0 0
S_3141452119 75.0 3.0 4.0 7.0 0
S_3141452120 75.0 3.0 4.0 7.0 0
S_6136413729 75.0 3.0 4.0 7.0 0
S_10997029517 75.0 3.0 4.0 7.0 0
S_10997029523 75.0 3.0 4.0 7.0 0
S_3141452121 75.0 3.0 4.0 7.0 0
S_3141473146 75.0 3.0 4.0 7.0 0
S_3141452122 75.0 3.0 4.0 7.0 0
S_3141452126 75.0 3.0 4.0 7.0 0
S_3868740751 75.0 3.0 4.0 7.0 0
S_3141452125 75.0 3.0 4.0 7.0 0
S_13742285040 75.0 3.0 4.0 7.0 0
S_3141473131 75.0 3.0 4.0 7.0 0
S_4462376684 75.0 3.0 4.0 7.0 0
S_3141473133 75.0 3.0 4.0 7.0 0
S_3141473135 75.0 3.0 4.0 7.0 0
S_4462416977 75.0 3.0 4.0 7.0 0
S_3141473136 75.0 3.0 4.0 7.0 0
S_3170006931 75.0 3.0 4.0 7.0 0
S_3141473134 75.0 3.0 4.0 7.0 0
S_3141473138 75.0 3.0 4.0 7.0 0
S_13738230989 75.0 3.0 4.0 7.0 0
S_3141473139 75.0 3.0 4.0 7.0 0
S_6505328002 75.0 3.0 4.0 7.0 0
S_3141473149 75.0 3.0 4.0 7.0 0
S_3141473147 75.0 3.0 4.0 7.0 0
S_13738231243 75.0 3.0 4.0 7.0 0
S_10683903422 75.0 3.0 4.0 7.0 0
S_3141473151 75.0 3.0 4.0 7.0 0
S_3504895273 75.0 3.0 4.0 7.0 0
S_3141473155 75.0 3.0 4.0 7.0 0
S_6180293490 75.0 3.0 4.0 7.0 0
S_3141475564 75.0 3.0 4.0 7.0 0
S_13743331026 75.0 3.0 4.0 7.0 0
S_6560163455 75.0 3.0 4.0 7.0 0
S_3148580144 75.0 3.0 4.0 7.0 0
S_10175047395 75.0 3.0 4.0 7.0 0
S_3148580145 75.0 3.0 4.0 7.0 0
S_12250445349 75.0 3.0 4.0 7.0 0
S_7465559430 75.0 3.0 4.0 7.0 0
S_3148587479 75.0 3.0 4.0 7.0 0
S_7479630861 75.0 3.0 4.0 7.0 0
S_3148587482 75.0 3.0 4.0 7.0 0
S_6137643400 75.0 3.0 4.0 7.0 0
S_3148587485 75.0 3.0 4.0 7.0 0
S_13250405522 75.0 3.0 4.0 7.0 0
S_7479630867 75.0 3.0 4.0 7.0 0
S_7479630847 75.0 3.0 4.0 7.0 0
S_7479630882 75.0 3.0 4.0 7.0 0
S_3148587489 75.0 3.0 4.0 7.0 0
S_3148587495 75.0 3.0 4.0 7.0 0
S_7479630469 75.0 3.0 4.0 7.0 0
S_6914358632 75.0 3.0 4.0 7.0 0
S_3148587490 75.0 3.0 4.0 7.0 0
S_6194830173 75.0 3.0 4.0 7.0 0
S_7479630459 75.0 3.0 4.0 7.0 0
S_7479630500 75.0 3.0 4.0 7.0 0
S_7479630520 75.0 3.0 4.0 7.0 0
S_3148587502 75.0 3.0 4.0 7.0 0
S_6143252361 75.0 3.0 4.0 7.0 0
S_7436685266 75.0 3.0 4.0 7.0 0
S_7478154731 75.0 3.0 4.0 7.0 0
S_6536473134 75.0 3.0 4.0 7.0 0
S_3148614498 75.0 3.0 4.0 7.0 0
S_3148620681 75.0 3.0 4.0 7.0 0
S_4446468155 75.0 3.0 4.0 7.0 0
S_3148614507 75.0 3.0 4.0 7.0 0
S_6885777459 75.0 3.0 4.0 7.0 0
S_10994159748 75.0 3.0 4.0 7.0 0
S_3148614513 75.0 3.0 4.0 7.0 0
S_4475027232 75.0 3.0 4.0 7.0 0
S_3148614516 75.0 3.0 4.0 7.0 0
S_3148614515 75.0 3.0 4.0 7.0 0
S_6562178338 75.0 3.0 4.0 7.0 0
S_3148620677 75.0 3.0 4.0 7.0 0
S_3148619693 75.0 3.0 4.0 7.0 0
S_3148657085 75.0 3.0 4.0 7.0 0
S_3148619697 75.0 3.0 4.0 7.0 0
S_3148619698 75.0 3.0 4.0 7.0 0
S_6194291027 75.0 3.0 4.0 7.0 0
S_3148620680 75.0 3.0 4.0 7.0 0
S_3148619699 75.0 3.0 4.0 7.0 0
S_4475027228 75.0 3.0 4.0 7.0 0
S_3148620676 75.0 3.0 4.0 7.0 0
S_4446471884 75.0 3.0 4.0 7.0 0
S_10182373813 75.0 3.0 4.0 7.0 0
S_3148620696 75.0 3.0 4.0 7.0 0
S_4475027221 75.0 3.0 4.0 7.0 0
S_4475027226 75.0 3.0 4.0 7.0 0
S_3148620698 75.0 3.0 4.0 7.0 0
S_5370756307 75.0 3.0 4.0 7.0 0
S_13928938241 75.0 3.0 4.0 7.0 0
S_3148645678 75.0 3.0 4.0 7.0 0
S_3148645653 75.0 3.0 4.0 7.0 0
S_3148645681 75.0 3.0 4.0 7.0 0
S_3148645655 75.0 3.0 4.0 7.0 0
S_3148655285 75.0 3.0 4.0 7.0 0
S_3148655284 75.0 3.0 4.0 7.0 0
S_3148645664 75.0 3.0 4.0 7.0 0
S_3148645670 75.0 3.0 4.0 7.0 0
S_3148645667 75.0 3.0 4.0 7.0 0
S_7479631170 75.0 3.0 4.0 7.0 0
S_3148645691 75.0 3.0 4.0 7.0 0
S_3148655234 75.0 3.0 4.0 7.0 0
S_3148645673 75.0 3.0 4.0 7.0 0
S_3148645685 75.0 3.0 4.0 7.0 0
S_3148645674 75.0 3.0 4.0 7.0 0
S_3148645675 75.0 3.0 4.0 7.0 0
S_7479631201 75.0 3.0 4.0 7.0 0
S_3148645700 75.0 3.0 4.0 7.0 0
S_7479631193 75.0 3.0 4.0 7.0 0
S_3148645677 75.0 3.0 4.0 7.0 0
S_7479631168 75.0 3.0 4.0 7.0 0
S_3148645684 75.0 3.0 4.0 7.0 0
S_3148645683 75.0 3.0 4.0 7.0 0
S_3148645693 75.0 3.0 4.0 7.0 0
S_7479631133 75.0 3.0 4.0 7.0 0
S_6888084544 75.0 3.0 4.0 7.0 0
S_3148645698 75.0 3.0 4.0 7.0 0
S_3148645696 75.0 3.0 4.0 7.0 0
S_3148645697 75.0 3.0 4.0 7.0 0
S_7479631182 75.0 3.0 4.0 7.0 0
S_7479631181 75.0 3.0 4.0 7.0 0
S_3148645699 75.0 3.0 4.0 7.0 0
S_3148655235 75.0 3.0 4.0 7.0 0
S_3148655239 75.0 3.0 4.0 7.0 0
S_7479631141 75.0 3.0 4.0 7.0 0
S_3148655287 75.0 3.0 4.0 7.0 0
S_3148655283 75.0 3.0 4.0 7.0 0
S_3148655242 75.0 3.0 4.0 7.0 0
S_3148655243 75.0 3.0 4.0 7.0 0
S_3148655291 75.0 3.0 4.0 7.0 0
S_3148655248 75.0 3.0 4.0 7.0 0
S_3148655249 75.0 3.0 4.0 7.0 0
S_7479631204 75.0 3.0 4.0 7.0 0
S_3148655253 75.0 3.0 4.0 7.0 0
S_3148655260 75.0 3.0 4.0 7.0 0
S_7479631146 75.0 3.0 4.0 7.0 0
S_3148655261 75.0 3.0 4.0 7.0 0
S_7479631148 75.0 3.0 4.0 7.0 0
S_3148655262 75.0 3.0 4.0 7.0 0
S_3148655263 75.0 3.0 4.0 7.0 0
S_3148655264 75.0 3.0 4.0 7.0 0
S_3148655265 75.0 3.0 4.0 7.0 0
S_3148655268 75.0 3.0 4.0 7.0 0
S_7479631149 75.0 3.0 4.0 7.0 0
S_7479631210 75.0 3.0 4.0 7.0 0
S_3148656432 75.0 3.0 4.0 7.0 0
S_9720271254 75.0 3.0 4.0 7.0 0
S_3148655290 75.0 3.0 4.0 7.0 0
S_3148655295 75.0 3.0 4.0 7.0 0
S_3148655302 75.0 3.0 4.0 7.0 0
S_3148655300 75.0 3.0 4.0 7.0 0
S_3148655296 75.0 3.0 4.0 7.0 0
S_12695959789 75.0 3.0 4.0 7.0 0
S_3148655317 75.0 3.0 4.0 7.0 0
S_3148655299 75.0 3.0 4.0 7.0 0
S_3148655307 75.0 3.0 4.0 7.0 0
S_3148655313 75.0 3.0 4.0 7.0 0
S_3148655308 75.0 3.0 4.0 7.0 0
S_3148655312 75.0 3.0 4.0 7.0 0
S_3148655316 75.0 3.0 4.0 7.0 0
S_3148655325 75.0 3.0 4.0 7.0 0
S_3148655322 75.0 3.0 4.0 7.0 0
S_3148655328 75.0 3.0 4.0 7.0 0
S_3148656436 75.0 3.0 4.0 7.0 0
S_3148656435 75.0 3.0 4.0 7.0 0
S_7479631153 75.0 3.0 4.0 7.0 0
S_3148656440 75.0 3.0 4.0 7.0 0
S_3148656442 75.0 3.0 4.0 7.0 0
S_10994386528 75.0 3.0 4.0 7.0 0
S_10994402342 75.0 3.0 4.0 7.0 0
S_3148656446 75.0 3.0 4.0 7.0 0
S_3148656451 75.0 3.0 4.0 7.0 0
S_10994386529 75.0 3.0 4.0 7.0 0
S_12443901843 75.0 3.0 4.0 7.0 0
S_7484216048 75.0 3.0 4.0 7.0 0
S_12144258014 75.0 3.0 4.0 7.0 0
S_3148657069 75.0 3.0 4.0 7.0 0
S_10182376307 75.0 3.0 4.0 7.0 0
S_3148657081 75.0 3.0 4.0 7.0 0
S_4475027129 75.0 3.0 4.0 7.0 0
S_6194014544 75.0 3.0 4.0 7.0 0
S_3148657084 75.0 3.0 4.0 7.0 0
S_11106970230 75.0 3.0 4.0 7.0 0
S_10172979414 75.0 3.0 4.0 7.0 0
S_6204951065 75.0 3.0 4.0 7.0 0
S_3148667908 75.0 3.0 4.0 7.0 0
S_3148667924 75.0 3.0 4.0 7.0 0
S_6194008055 75.0 3.0 4.0 7.0 0
S_3148667925 75.0 3.0 4.0 7.0 0
S_3148668030 75.0 3.0 4.0 7.0 0
S_10172979410 75.0 3.0 4.0 7.0 0
S_3148668029 75.0 3.0 4.0 7.0 0
S_10172979411 75.0 3.0 4.0 7.0 0
S_3148668041 75.0 3.0 4.0 7.0 0
S_3148668043 75.0 3.0 4.0 7.0 0
S_3148668045 75.0 3.0 4.0 7.0 0
S_10172982419 75.0 3.0 4.0 7.0 0
S_6204951079 75.0 3.0 4.0 7.0 0
S_5726284291 75.0 3.0 4.0 7.0 0
S_3148668105 75.0 3.0 4.0 7.0 0
S_3148668106 75.0 3.0 4.0 7.0 0
S_3148668111 75.0 3.0 4.0 7.0 0
S_10172979382 75.0 3.0 4.0 7.0 0
S_3148668115 75.0 3.0 4.0 7.0 0
S_10173119095 75.0 3.0 4.0 7.0 0
S_3148668116 75.0 3.0 4.0 7.0 0
S_3149619837 75.0 3.0 4.0 7.0 0
S_3149619838 75.0 3.0 4.0 7.0 0
S_10994470325 75.0 3.0 4.0 7.0 0
S_3149619839 75.0 3.0 4.0 7.0 0
S_3149619841 75.0 3.0 4.0 7.0 0
S_11378886517 75.0 3.0 4.0 7.0 0
S_3149619840 75.0 3.0 4.0 7.0 0
S_13140521075 75.0 3.0 4.0 7.0 0
S_3149619850 75.0 3.0 4.0 7.0 0
S_3149619854 75.0 3.0 4.0 7.0 0
S_3149619852 75.0 3.0 4.0 7.0 0
S_3149622362 75.0 3.0 4.0 7.0 0
S_3149622354 75.0 3.0 4.0 7.0 0
S_13140521149 75.0 3.0 4.0 7.0 0
S_7239768143 75.0 3.0 4.0 7.0 0
S_3150107475 75.0 3.0 4.0 7.0 0
S_3150107474 75.0 3.0 4.0 7.0 0
S_3150107476 75.0 3.0 4.0 7.0 0
S_3150107479 75.0 3.0 4.0 7.0 0
S_12155154060 75.0 3.0 4.0 7.0 0
S_12155154062 75.0 3.0 4.0 7.0 0
S_12155154056 75.0 3.0 4.0 7.0 0
S_3150107773 75.0 3.0 4.0 7.0 0
S_9846394225 75.0 3.0 4.0 7.0 0
S_6536473107 75.0 3.0 4.0 7.0 0
S_3157670219 75.0 3.0 4.0 7.0 0
S_10172979413 75.0 3.0 4.0 7.0 0
S_3157670223 75.0 3.0 4.0 7.0 0
S_13903770310 75.0 3.0 4.0 7.0 0
S_3161309795 75.0 3.0 4.0 7.0 0
S_3161309798 75.0 3.0 4.0 7.0 0
S_3161309797 75.0 3.0 4.0 7.0 0
S_3161309801 75.0 3.0 4.0 7.0 0
S_3161309800 75.0 3.0 4.0 7.0 0
S_12506414299 75.0 3.0 4.0 7.0 0
S_9830778271 75.0 3.0 4.0 7.0 0
S_4447421339 75.0 3.0 4.0 7.0 0
S_3170478574 75.0 3.0 4.0 7.0 0
S_10996992466 75.0 3.0 4.0 7.0 0
S_9788419608 75.0 3.0 4.0 7.0 0
S_4447382437 75.0 3.0 4.0 7.0 0
S_3170496477 75.0 3.0 4.0 7.0 0
S_11002608083 75.0 3.0 4.0 7.0 0
S_3463462869 75.0 3.0 4.0 7.0 0
S_3463462871 75.0 3.0 4.0 7.0 0
S_3463462870 75.0 3.0 4.0 7.0 0
S_6458940001 75.0 3.0 4.0 7.0 0
S_10182729200 75.0 3.0 4.0 7.0 0
S_3500405710 75.0 3.0 4.0 7.0 0
S_7479630768 75.0 3.0 4.0 7.0 0
S_3500405711 75.0 3.0 4.0 7.0 0
S_3500405714 75.0 3.0 4.0 7.0 0
S_7479630771 75.0 3.0 4.0 7.0 0
S_3500405734 75.0 3.0 4.0 7.0 0
S_3500405712 75.0 3.0 4.0 7.0 0
S_3500405713 75.0 3.0 4.0 7.0 0
S_3500405737 75.0 3.0 4.0 7.0 0
S_7479630770 75.0 3.0 4.0 7.0 0
S_3500405715 75.0 3.0 4.0 7.0 0
S_7479630775 75.0 3.0 4.0 7.0 0
S_3500405717 75.0 3.0 4.0 7.0 0
S_3500405720 75.0 3.0 4.0 7.0 0
S_7479630763 75.0 3.0 4.0 7.0 0
S_3500405723 75.0 3.0 4.0 7.0 0
S_3500405722 75.0 3.0 4.0 7.0 0
S_10172935936 75.0 3.0 4.0 7.0 0
S_3500405725 75.0 3.0 4.0 7.0 0
S_10172935938 75.0 3.0 4.0 7.0 0
S_3500405729 75.0 3.0 4.0 7.0 0
S_11434263477 75.0 3.0 4.0 7.0 0
S_3500405730 75.0 3.0 4.0 7.0 0
S_3500405731 75.0 3.0 4.0 7.0 0
S_7479630782 75.0 3.0 4.0 7.0 0
S_13816806093 75.0 3.0 4.0 7.0 0
S_3500405732 75.0 3.0 4.0 7.0 0
S_6196989888 75.0 3.0 4.0 7.0 0
S_10172938609 75.0 3.0 4.0 7.0 0
S_10172938606 75.0 3.0 4.0 7.0 0
S_3500405738 75.0 3.0 4.0 7.0 0
S_10172938611 75.0 3.0 4.0 7.0 0
S_3500405740 75.0 3.0 4.0 7.0 0
S_7479630758 75.0 3.0 4.0 7.0 0
S_3500405741 75.0 3.0 4.0 7.0 0
S_7479630780 75.0 3.0 4.0 7.0 0
S_3500405745 75.0 3.0 4.0 7.0 0
S_6196989893 75.0 3.0 4.0 7.0 0
S_7301789574 75.0 3.0 4.0 7.0 0
S_6758558444 75.0 3.0 4.0 7.0 0
S_3504895274 75.0 3.0 4.0 7.0 0
S_3715148285 75.0 3.0 4.0 7.0 0
S_11234065453 75.0 3.0 4.0 7.0 0
S_3771990469 75.0 3.0 4.0 7.0 0
S_3771990522 75.0 3.0 4.0 7.0 0
S_3771990523 75.0 3.0 4.0 7.0 0
S_3771990536 75.0 3.0 4.0 7.0 0
S_3771990535 75.0 3.0 4.0 7.0 0
S_3771990914 75.0 3.0 4.0 7.0 0
S_3771990553 75.0 3.0 4.0 7.0 0
S_3771990545 75.0 3.0 4.0 7.0 0
S_3771990866 75.0 3.0 4.0 7.0 0
S_3771990555 75.0 3.0 4.0 7.0 0
S_3771990873 75.0 3.0 4.0 7.0 0
S_3771990859 75.0 3.0 4.0 7.0 0
S_3771990861 75.0 3.0 4.0 7.0 0
S_3771990888 75.0 3.0 4.0 7.0 0
S_3771990869 75.0 3.0 4.0 7.0 0
S_3771990894 75.0 3.0 4.0 7.0 0
S_3778310159 75.0 3.0 4.0 7.0 0
S_3778310161 75.0 3.0 4.0 7.0 0
S_3868740750 75.0 3.0 4.0 7.0 0
S_12145839287 75.0 3.0 4.0 7.0 0
S_3870651478 75.0 3.0 4.0 7.0 0
S_3870651480 75.0 3.0 4.0 7.0 0
S_3872407423 75.0 3.0 4.0 7.0 0
S_7328007223 75.0 3.0 4.0 7.0 0
S_3872407428 75.0 3.0 4.0 7.0 0
S_3872407427 75.0 3.0 4.0 7.0 0
S_6132071550 75.0 3.0 4.0 7.0 0
S_7328007225 75.0 3.0 4.0 7.0 0
S_3872407429 75.0 3.0 4.0 7.0 0
S_3872407466 75.0 3.0 4.0 7.0 0
S_3872407468 75.0 3.0 4.0 7.0 0
S_3872533474 75.0 3.0 4.0 7.0 0
S_3872533476 75.0 3.0 4.0 7.0 0
S_3872533479 75.0 3.0 4.0 7.0 0
S_3872533480 75.0 3.0 4.0 7.0 0
S_10172979407 75.0 3.0 4.0 7.0 0
S_3872533482 75.0 3.0 4.0 7.0 0
S_11268733245 75.0 3.0 4.0 7.0 0
S_3872533483 75.0 3.0 4.0 7.0 0
S_11432094041 75.0 3.0 4.0 7.0 0
S_3872533484 75.0 3.0 4.0 7.0 0
S_11404841379 75.0 3.0 4.0 7.0 0
S_3872533489 75.0 3.0 4.0 7.0 0
S_3872533485 75.0 3.0 4.0 7.0 0
S_3872540685 75.0 3.0 4.0 7.0 0
S_3872540684 75.0 3.0 4.0 7.0 0
S_3872540687 75.0 3.0 4.0 7.0 0
S_3872540689 75.0 3.0 4.0 7.0 0
S_4285700668 75.0 3.0 4.0 7.0 0
S_4285700669 75.0 3.0 4.0 7.0 0
S_4445503529 75.0 3.0 4.0 7.0 0
S_4446468152 75.0 3.0 4.0 7.0 0
S_6194089776 75.0 3.0 4.0 7.0 0
S_4446471885 75.0 3.0 4.0 7.0 0
S_10056058173 75.0 3.0 4.0 7.0 0
S_13142028598 75.0 3.0 4.0 7.0 0
S_4448123015 75.0 3.0 4.0 7.0 0
S_4462384503 75.0 3.0 4.0 7.0 0
S_7328379175 75.0 3.0 4.0 7.0 0
S_13738231056 75.0 3.0 4.0 7.0 0
S_4472266103 75.0 3.0 4.0 7.0 0
S_8403844097 75.0 3.0 4.0 7.0 0
S_4474487225 75.0 3.0 4.0 7.0 0
S_11011971395 75.0 3.0 4.0 7.0 0
S_11399454153 75.0 3.0 4.0 7.0 0
S_4474487238 75.0 3.0 4.0 7.0 0
S_6884558833 75.0 3.0 4.0 7.0 0
S_4474487265 75.0 3.0 4.0 7.0 0
S_7263153539 75.0 3.0 4.0 7.0 0
S_6152308058 75.0 3.0 4.0 7.0 0
S_4475027224 75.0 3.0 4.0 7.0 0
S_4475027222 75.0 3.0 4.0 7.0 0
S_4475027231 75.0 3.0 4.0 7.0 0
S_4475027229 75.0 3.0 4.0 7.0 0
S_4475027230 75.0 3.0 4.0 7.0 0
S_4540978394 75.0 3.0 4.0 7.0 0
S_7479630892 75.0 3.0 4.0 7.0 0
S_13238937706 75.0 3.0 4.0 7.0 0
S_4734151709 75.0 3.0 4.0 7.0 0
S_12185693394 75.0 3.0 4.0 7.0 0
S_9921271169 75.0 3.0 4.0 7.0 0
S_7479630483 75.0 3.0 4.0 7.0 0
S_5370756309 75.0 3.0 4.0 7.0 0
S_5388808641 75.0 3.0 4.0 7.0 0
S_5398408451 75.0 3.0 4.0 7.0 0
S_5689989226 75.0 3.0 4.0 7.0 0
S_5689989228 75.0 3.0 4.0 7.0 0
S_5689989230 75.0 3.0 4.0 7.0 0
S_9958736551 75.0 3.0 4.0 7.0 0
S_5773497557 75.0 3.0 4.0 7.0 0
S_7736381406 75.0 3.0 4.0 7.0 0
S_8374410177 75.0 3.0 4.0 7.0 0
S_5774292417 75.0 3.0 4.0 7.0 0
S_5774292427 75.0 3.0 4.0 7.0 0
S_5774293614 75.0 3.0 4.0 7.0 0
S_5776596292 75.0 3.0 4.0 7.0 0
S_12009305215 75.0 3.0 4.0 7.0 0
S_13136176386 75.0 3.0 4.0 7.0 0
S_5777147338 75.0 3.0 4.0 7.0 0
S_5777147341 75.0 3.0 4.0 7.0 0
S_7478154515 75.0 3.0 4.0 7.0 0
S_5777147345 75.0 3.0 4.0 7.0 0
S_7478154516 75.0 3.0 4.0 7.0 0
S_5777246392 75.0 3.0 4.0 7.0 0
S_5777246422 75.0 3.0 4.0 7.0 0
S_5777246394 75.0 3.0 4.0 7.0 0
S_7328007285 75.0 3.0 4.0 7.0 0
S_5777246395 75.0 3.0 4.0 7.0 0
S_5777246407 75.0 3.0 4.0 7.0 0
S_5777246413 75.0 3.0 4.0 7.0 0
S_5777246412 75.0 3.0 4.0 7.0 0
S_5777246409 75.0 3.0 4.0 7.0 0
S_5777246411 75.0 3.0 4.0 7.0 0
S_7328007265 75.0 3.0 4.0 7.0 0
S_5777246410 75.0 3.0 4.0 7.0 0
S_7328007288 75.0 3.0 4.0 7.0 0
S_5777246426 75.0 3.0 4.0 7.0 0
S_7328007289 75.0 3.0 4.0 7.0 0
S_7328007286 75.0 3.0 4.0 7.0 0
S_5777246425 75.0 3.0 4.0 7.0 0
S_5778503766 75.0 3.0 4.0 7.0 0
S_12690206052 75.0 3.0 4.0 7.0 0
S_5843951128 75.0 3.0 4.0 7.0 0
S_6894177760 75.0 3.0 4.0 7.0 0
S_11414694995 75.0 3.0 4.0 7.0 0
S_7147053364 75.0 3.0 4.0 7.0 0
S_12187854996 75.0 3.0 4.0 7.0 0
S_10175064193 75.0 3.0 4.0 7.0 0
S_7298619209 75.0 3.0 4.0 7.0 0
S_6019669025 75.0 3.0 4.0 7.0 0
S_6019669026 75.0 3.0 4.0 7.0 0
S_7479631470 75.0 3.0 4.0 7.0 0
S_7328007243 75.0 3.0 4.0 7.0 0
S_6137643401 75.0 3.0 4.0 7.0 0
S_13134720405 75.0 3.0 4.0 7.0 0
S_13134720410 75.0 3.0 4.0 7.0 0
S_6141748417 75.0 3.0 4.0 7.0 0
S_6141748418 75.0 3.0 4.0 7.0 0
S_6141753923 75.0 3.0 4.0 7.0 0
S_12100338250 75.0 3.0 4.0 7.0 0
S_9510028744 75.0 3.0 4.0 7.0 0
S_6141753927 75.0 3.0 4.0 7.0 0
S_10994377647 75.0 3.0 4.0 7.0 0
S_6141957193 75.0 3.0 4.0 7.0 0
S_6141957194 75.0 3.0 4.0 7.0 0
S_6141957197 75.0 3.0 4.0 7.0 0
S_6141957196 75.0 3.0 4.0 7.0 0
S_6141957195 75.0 3.0 4.0 7.0 0
S_6142233154 75.0 3.0 4.0 7.0 0
S_7043760928 75.0 3.0 4.0 7.0 0
S_6142233157 75.0 3.0 4.0 7.0 0
S_6143252362 75.0 3.0 4.0 7.0 0
S_6143252363 75.0 3.0 4.0 7.0 0
S_7437331404 75.0 3.0 4.0 7.0 0
S_7437296682 75.0 3.0 4.0 7.0 0
S_6144032626 75.0 3.0 4.0 7.0 0
S_6144095981 75.0 3.0 4.0 7.0 0
S_13875979441 75.0 3.0 4.0 7.0 0
S_6152784946 75.0 3.0 4.0 7.0 0
S_11395651197 75.0 3.0 4.0 7.0 0
S_11685087325 75.0 3.0 4.0 7.0 0
S_7478154579 75.0 3.0 4.0 7.0 0
S_6180290589 75.0 3.0 4.0 7.0 0
S_6180290590 75.0 3.0 4.0 7.0 0
S_6180291877 75.0 3.0 4.0 7.0 0
S_13736567811 75.0 3.0 4.0 7.0 0
S_6180291884 75.0 3.0 4.0 7.0 0
S_6180293488 75.0 3.0 4.0 7.0 0
S_13742285043 75.0 3.0 4.0 7.0 0
S_6180297957 75.0 3.0 4.0 7.0 0
S_10996777702 75.0 3.0 4.0 7.0 0
S_10996868634 75.0 3.0 4.0 7.0 0
S_6194008056 75.0 3.0 4.0 7.0 0
S_6194014538 75.0 3.0 4.0 7.0 0
S_11408964582 75.0 3.0 4.0 7.0 0
S_7484216053 75.0 3.0 4.0 7.0 0
S_7147081175 75.0 3.0 4.0 7.0 0
S_7479631105 75.0 3.0 4.0 7.0 0
S_6196883741 75.0 3.0 4.0 7.0 0
S_10168279045 75.0 3.0 4.0 7.0 0
S_6196883747 75.0 3.0 4.0 7.0 0
S_6888399011 75.0 3.0 4.0 7.0 0
S_9749202516 75.0 3.0 4.0 7.0 0
S_6196989886 75.0 3.0 4.0 7.0 0
S_6196989887 75.0 3.0 4.0 7.0 0
S_10172938612 75.0 3.0 4.0 7.0 0
S_6196989892 75.0 3.0 4.0 7.0 0
S_6196989891 75.0 3.0 4.0 7.0 0
S_10172938610 75.0 3.0 4.0 7.0 0
S_10172938605 75.0 3.0 4.0 7.0 0
S_6196989889 75.0 3.0 4.0 7.0 0
S_11066374004 75.0 3.0 4.0 7.0 0
S_6196989890 75.0 3.0 4.0 7.0 0
S_10172942118 75.0 3.0 4.0 7.0 0
S_7479630751 75.0 3.0 4.0 7.0 0
S_7263153521 75.0 3.0 4.0 7.0 0
S_6197671075 75.0 3.0 4.0 7.0 0
S_11290340685 75.0 3.0 4.0 7.0 0
S_6499300016 75.0 3.0 4.0 7.0 0
S_7328007824 75.0 3.0 4.0 7.0 0
S_11395791821 75.0 3.0 4.0 7.0 0
S_6505394017 75.0 3.0 4.0 7.0 0
S_10680776590 75.0 3.0 4.0 7.0 0
S_6753563683 75.0 3.0 4.0 7.0 0
S_6536473096 75.0 3.0 4.0 7.0 0
S_6536473097 75.0 3.0 4.0 7.0 0
S_9846394226 75.0 3.0 4.0 7.0 0
S_6536473098 75.0 3.0 4.0 7.0 0
S_6536473100 75.0 3.0 4.0 7.0 0
S_11397532787 75.0 3.0 4.0 7.0 0
S_6536473106 75.0 3.0 4.0 7.0 0
S_6536473109 75.0 3.0 4.0 7.0 0
S_11397532788 75.0 3.0 4.0 7.0 0
S_11397532789 75.0 3.0 4.0 7.0 0
S_6536473137 75.0 3.0 4.0 7.0 0
S_6536473138 75.0 3.0 4.0 7.0 0
S_6536882163 75.0 3.0 4.0 7.0 0
S_6536882164 75.0 3.0 4.0 7.0 0
S_6536884402 75.0 3.0 4.0 7.0 0
S_10994329181 75.0 3.0 4.0 7.0 0
S_6536884398 75.0 3.0 4.0 7.0 0
S_10994377346 75.0 3.0 4.0 7.0 0
S_6536884400 75.0 3.0 4.0 7.0 0
S_6536884401 75.0 3.0 4.0 7.0 0
S_6536884405 75.0 3.0 4.0 7.0 0
S_10994329190 75.0 3.0 4.0 7.0 0
S_6562185320 75.0 3.0 4.0 7.0 0
S_1275552789 75.0 3.0 4.0 7.0 0
S_6631012279 75.0 3.0 4.0 7.0 0
S_10172868164 75.0 3.0 4.0 7.0 0
S_9824245046 75.0 3.0 4.0 7.0 0
S_6749735684 75.0 3.0 4.0 7.0 0
S_6768481191 75.0 3.0 4.0 7.0 0
S_7043731241 75.0 3.0 4.0 7.0 0
S_6753563684 75.0 3.0 4.0 7.0 0
S_6755740921 75.0 3.0 4.0 7.0 0
S_10989354751 75.0 3.0 4.0 7.0 0
S_6755740924 75.0 3.0 4.0 7.0 0
S_6755740926 75.0 3.0 4.0 7.0 0
S_7328007827 75.0 3.0 4.0 7.0 0
S_6758558441 75.0 3.0 4.0 7.0 0
S_10996648270 75.0 3.0 4.0 7.0 0
S_6758646579 75.0 3.0 4.0 7.0 0
S_6768481190 75.0 3.0 4.0 7.0 0
S_6802224014 75.0 3.0 4.0 7.0 0
S_6802224015 75.0 3.0 4.0 7.0 0
S_6884558829 75.0 3.0 4.0 7.0 0
S_6885777456 75.0 3.0 4.0 7.0 0
S_6902137283 75.0 3.0 4.0 7.0 0
S_6885777458 75.0 3.0 4.0 7.0 0
S_6887668015 75.0 3.0 4.0 7.0 0
S_9840153329 75.0 3.0 4.0 7.0 0
S_12443097988 75.0 3.0 4.0 7.0 0
S_12147412804 75.0 3.0 4.0 7.0 0
S_9796082511 75.0 3.0 4.0 7.0 0
S_9796082514 75.0 3.0 4.0 7.0 0
S_6894631549 75.0 3.0 4.0 7.0 0
S_6894631550 75.0 3.0 4.0 7.0 0
S_6901616696 75.0 3.0 4.0 7.0 0
S_6901616701 75.0 3.0 4.0 7.0 0
S_6901616703 75.0 3.0 4.0 7.0 0
S_12452602835 75.0 3.0 4.0 7.0 0
S_12194261264 75.0 3.0 4.0 7.0 0
S_6904648003 75.0 3.0 4.0 7.0 0
S_6911622972 75.0 3.0 4.0 7.0 0
S_6911622971 75.0 3.0 4.0 7.0 0
S_6914358596 75.0 3.0 4.0 7.0 0
S_6914358633 75.0 3.0 4.0 7.0 0
S_6914358616 75.0 3.0 4.0 7.0 0
S_6914358625 75.0 3.0 4.0 7.0 0
S_6914358630 75.0 3.0 4.0 7.0 0
S_12462722212 75.0 3.0 4.0 7.0 0
S_6914358626 75.0 3.0 4.0 7.0 0
S_6914358627 75.0 3.0 4.0 7.0 0
S_9179098233 75.0 3.0 4.0 7.0 0
S_7479631043 75.0 3.0 4.0 7.0 0
S_7479631050 75.0 3.0 4.0 7.0 0
S_7479631061 75.0 3.0 4.0 7.0 0
S_6914358648 75.0 3.0 4.0 7.0 0
S_6914358631 75.0 3.0 4.0 7.0 0
S_6914358649 75.0 3.0 4.0 7.0 0
S_10182456214 75.0 3.0 4.0 7.0 0
S_7479630545 75.0 3.0 4.0 7.0 0
S_6968263670 75.0 3.0 4.0 7.0 0
S_7095228341 75.0 3.0 4.0 7.0 0
S_7478154530 75.0 3.0 4.0 7.0 0
S_7095228343 75.0 3.0 4.0 7.0 0
S_7095265249 75.0 3.0 4.0 7.0 0
S_7097308434 75.0 3.0 4.0 7.0 0
S_7097308435 75.0 3.0 4.0 7.0 0
S_7138066340 75.0 3.0 4.0 7.0 0
S_13130383416 75.0 3.0 4.0 7.0 0
S_7147081174 75.0 3.0 4.0 7.0 0
S_7479630457 75.0 3.0 4.0 7.0 0
S_7479630456 75.0 3.0 4.0 7.0 0
S_7147100015 75.0 3.0 4.0 7.0 0
S_13134720443 75.0 3.0 4.0 7.0 0
S_7147100023 75.0 3.0 4.0 7.0 0
S_13823559216 75.0 3.0 4.0 7.0 0
S_7147986885 75.0 3.0 4.0 7.0 0
S_7147986187 75.0 3.0 4.0 7.0 0
S_12651830520 75.0 3.0 4.0 7.0 0
S_7263153520 75.0 3.0 4.0 7.0 0
S_7265834830 75.0 3.0 4.0 7.0 0
S_7263153527 75.0 3.0 4.0 7.0 0
S_7265834819 75.0 3.0 4.0 7.0 0
S_7263316361 75.0 3.0 4.0 7.0 0
S_7266164815 75.0 3.0 4.0 7.0 0
S_9179098228 75.0 3.0 4.0 7.0 0
S_7298619246 75.0 3.0 4.0 7.0 0
S_12558535618 75.0 3.0 4.0 7.0 0
S_13135583058 75.0 3.0 4.0 7.0 0
S_9757079871 75.0 3.0 4.0 7.0 0
S_7301789573 75.0 3.0 4.0 7.0 0
S_10996655571 75.0 3.0 4.0 7.0 0
S_7301790589 75.0 3.0 4.0 7.0 0
S_7328007238 75.0 3.0 4.0 7.0 0
S_7478154531 75.0 3.0 4.0 7.0 0
S_7328007284 75.0 3.0 4.0 7.0 0
S_7328007287 75.0 3.0 4.0 7.0 0
S_7478154670 75.0 3.0 4.0 7.0 0
S_7328007723 75.0 3.0 4.0 7.0 0
S_7328007816 75.0 3.0 4.0 7.0 0
S_7602632240 75.0 3.0 4.0 7.0 0
S_7328099161 75.0 3.0 4.0 7.0 0
S_7328007822 75.0 3.0 4.0 7.0 0
S_7328007823 75.0 3.0 4.0 7.0 0
S_7328099142 75.0 3.0 4.0 7.0 0
S_7328099147 75.0 3.0 4.0 7.0 0
S_7328099157 75.0 3.0 4.0 7.0 0
S_7328099162 75.0 3.0 4.0 7.0 0
S_7328345273 75.0 3.0 4.0 7.0 0
S_13142028564 75.0 3.0 4.0 7.0 0
S_7328345275 75.0 3.0 4.0 7.0 0
S_12415673019 75.0 3.0 4.0 7.0 0
S_13142028560 75.0 3.0 4.0 7.0 0
S_7328379058 75.0 3.0 4.0 7.0 0
S_7328379077 75.0 3.0 4.0 7.0 0
S_7328379154 75.0 3.0 4.0 7.0 0
S_7328379156 75.0 3.0 4.0 7.0 0
S_9849585566 75.0 3.0 4.0 7.0 0
S_11707855552 75.0 3.0 4.0 7.0 0
S_7328379167 75.0 3.0 4.0 7.0 0
S_13736562866 75.0 3.0 4.0 7.0 0
S_7328379176 75.0 3.0 4.0 7.0 0
S_7328379201 75.0 3.0 4.0 7.0 0
S_7432261686 75.0 3.0 4.0 7.0 0
S_7432261687 75.0 3.0 4.0 7.0 0
S_7479631027 75.0 3.0 4.0 7.0 0
S_7479630316 75.0 3.0 4.0 7.0 0
S_7437296683 75.0 3.0 4.0 7.0 0
S_7479630324 75.0 3.0 4.0 7.0 0
S_7437331394 75.0 3.0 4.0 7.0 0
S_7437331401 75.0 3.0 4.0 7.0 0
S_7479631031 75.0 3.0 4.0 7.0 0
S_7437331400 75.0 3.0 4.0 7.0 0
S_7465559431 75.0 3.0 4.0 7.0 0
S_11432092734 75.0 3.0 4.0 7.0 0
S_7478154505 75.0 3.0 4.0 7.0 0
S_7478154524 75.0 3.0 4.0 7.0 0
S_7478154518 75.0 3.0 4.0 7.0 0
S_7478154523 75.0 3.0 4.0 7.0 0
S_7478154532 75.0 3.0 4.0 7.0 0
S_7478154534 75.0 3.0 4.0 7.0 0
S_7478154539 75.0 3.0 4.0 7.0 0
S_7478154545 75.0 3.0 4.0 7.0 0
S_7478154544 75.0 3.0 4.0 7.0 0
S_7478154575 75.0 3.0 4.0 7.0 0
S_7478154576 75.0 3.0 4.0 7.0 0
S_7478154577 75.0 3.0 4.0 7.0 0
S_11433644719 75.0 3.0 4.0 7.0 0
S_7478154725 75.0 3.0 4.0 7.0 0
S_7478154786 75.0 3.0 4.0 7.0 0
S_12447971611 75.0 3.0 4.0 7.0 0
S_7478154787 75.0 3.0 4.0 7.0 0
S_11921590003 75.0 3.0 4.0 7.0 0
S_12446863535 75.0 3.0 4.0 7.0 0
S_12443097983 75.0 3.0 4.0 7.0 0
S_7479630319 75.0 3.0 4.0 7.0 0
S_7479630422 75.0 3.0 4.0 7.0 0
S_7479630444 75.0 3.0 4.0 7.0 0
S_7479630455 75.0 3.0 4.0 7.0 0
S_7479630458 75.0 3.0 4.0 7.0 0
S_7479630480 75.0 3.0 4.0 7.0 0
S_7479630512 75.0 3.0 4.0 7.0 0
S_7479630537 75.0 3.0 4.0 7.0 0
S_7479630747 75.0 3.0 4.0 7.0 0
S_7479630756 75.0 3.0 4.0 7.0 0
S_9784518335 75.0 3.0 4.0 7.0 0
S_10172935935 75.0 3.0 4.0 7.0 0
S_7479630767 75.0 3.0 4.0 7.0 0
S_7479630769 75.0 3.0 4.0 7.0 0
S_7479630772 75.0 3.0 4.0 7.0 0
S_7479630773 75.0 3.0 4.0 7.0 0
S_9784518332 75.0 3.0 4.0 7.0 0
S_7479630774 75.0 3.0 4.0 7.0 0
S_7479630779 75.0 3.0 4.0 7.0 0
S_11434263476 75.0 3.0 4.0 7.0 0
S_12477867928 75.0 3.0 4.0 7.0 0
S_7479630777 75.0 3.0 4.0 7.0 0
S_7479630778 75.0 3.0 4.0 7.0 0
S_7479630836 75.0 3.0 4.0 7.0 0
S_7479630845 75.0 3.0 4.0 7.0 0
S_7479630846 75.0 3.0 4.0 7.0 0
S_7479630851 75.0 3.0 4.0 7.0 0
S_7479630857 75.0 3.0 4.0 7.0 0
S_9784652733 75.0 3.0 4.0 7.0 0
S_7479630860 75.0 3.0 4.0 7.0 0
S_7479630866 75.0 3.0 4.0 7.0 0
S_7479630871 75.0 3.0 4.0 7.0 0
S_7479630868 75.0 3.0 4.0 7.0 0
S_7479630875 75.0 3.0 4.0 7.0 0
S_7479630878 75.0 3.0 4.0 7.0 0
S_7479630883 75.0 3.0 4.0 7.0 0
S_7479630901 75.0 3.0 4.0 7.0 0
S_7479630959 75.0 3.0 4.0 7.0 0
S_11434843380 75.0 3.0 4.0 7.0 0
S_7479630941 75.0 3.0 4.0 7.0 0
S_7479630944 75.0 3.0 4.0 7.0 0
S_12464922958 75.0 3.0 4.0 7.0 0
S_7479630985 75.0 3.0 4.0 7.0 0
S_7479631021 75.0 3.0 4.0 7.0 0
S_7479631030 75.0 3.0 4.0 7.0 0
S_7479631047 75.0 3.0 4.0 7.0 0
S_7479631049 75.0 3.0 4.0 7.0 0
S_7479631125 75.0 3.0 4.0 7.0 0
S_7479631135 75.0 3.0 4.0 7.0 0
S_7479631134 75.0 3.0 4.0 7.0 0
S_7479631136 75.0 3.0 4.0 7.0 0
S_7479631147 75.0 3.0 4.0 7.0 0
S_7479631152 75.0 3.0 4.0 7.0 0
S_7479631169 75.0 3.0 4.0 7.0 0
S_7479631180 75.0 3.0 4.0 7.0 0
S_7479631187 75.0 3.0 4.0 7.0 0
S_7479631192 75.0 3.0 4.0 7.0 0
S_7479631213 75.0 3.0 4.0 7.0 0
S_7479631444 75.0 3.0 4.0 7.0 0
S_10948126480 75.0 3.0 4.0 7.0 0
S_7479631471 75.0 3.0 4.0 7.0 0
S_7479631476 75.0 3.0 4.0 7.0 0
S_7484216047 75.0 3.0 4.0 7.0 0
S_10182376309 75.0 3.0 4.0 7.0 0
S_7484216051 75.0 3.0 4.0 7.0 0
S_7484216052 75.0 3.0 4.0 7.0 0
S_10182376302 75.0 3.0 4.0 7.0 0
S_13130383417 75.0 3.0 4.0 7.0 0
S_7602632242 75.0 3.0 4.0 7.0 0
S_11009632658 75.0 3.0 4.0 7.0 0
S_10196255890 75.0 3.0 4.0 7.0 0
S_8609029843 75.0 3.0 4.0 7.0 0
S_12279397377 75.0 3.0 4.0 7.0 0
S_9179098226 75.0 3.0 4.0 7.0 0
S_9510028747 75.0 3.0 4.0 7.0 0
S_11121177292 75.0 3.0 4.0 7.0 0
S_10994453386 75.0 3.0 4.0 7.0 0
S_9510028770 75.0 3.0 4.0 7.0 0
S_9525461684 75.0 3.0 4.0 7.0 0
S_9708811991 75.0 3.0 4.0 7.0 0
S_12147412806 75.0 3.0 4.0 7.0 0
S_12169759724 75.0 3.0 4.0 7.0 0
S_9757079870 75.0 3.0 4.0 7.0 0
S_9757079872 75.0 3.0 4.0 7.0 0
S_13135583074 75.0 3.0 4.0 7.0 0
S_13135583071 75.0 3.0 4.0 7.0 0
S_9759551602 75.0 3.0 4.0 7.0 0
S_12169759734 75.0 3.0 4.0 7.0 0
S_9784518333 75.0 3.0 4.0 7.0 0
S_9784518334 75.0 3.0 4.0 7.0 0
S_11434263478 75.0 3.0 4.0 7.0 0
S_13343872440 75.0 3.0 4.0 7.0 0
S_10168279044 75.0 3.0 4.0 7.0 0
S_9796082515 75.0 3.0 4.0 7.0 0
S_9796708050 75.0 3.0 4.0 7.0 0
S_9824051075 75.0 3.0 4.0 7.0 0
S_9824245043 75.0 3.0 4.0 7.0 0
S_11184918138 75.0 3.0 4.0 7.0 0
S_9826793285 75.0 3.0 4.0 7.0 0
S_9826793286 75.0 3.0 4.0 7.0 0
S_11233009356 75.0 3.0 4.0 7.0 0
S_12506414300 75.0 3.0 4.0 7.0 0
S_9846394217 75.0 3.0 4.0 7.0 0
S_11428038811 75.0 3.0 4.0 7.0 0
S_10969136196 75.0 3.0 4.0 7.0 0
S_10969136194 75.0 3.0 4.0 7.0 0
S_13877530781 75.0 3.0 4.0 7.0 0
S_11509998741 75.0 3.0 4.0 7.0 0
S_13903770309 75.0 3.0 4.0 7.0 0
S_10172868165 75.0 3.0 4.0 7.0 0
S_10172914467 75.0 3.0 4.0 7.0 0
S_10172935937 75.0 3.0 4.0 7.0 0
S_10172935939 75.0 3.0 4.0 7.0 0
S_10172942119 75.0 3.0 4.0 7.0 0
S_10172979378 75.0 3.0 4.0 7.0 0
S_11359603296 75.0 3.0 4.0 7.0 0
S_11432115299 75.0 3.0 4.0 7.0 0
S_10172979412 75.0 3.0 4.0 7.0 0
S_10172979415 75.0 3.0 4.0 7.0 0
S_10172982422 75.0 3.0 4.0 7.0 0
S_10173119094 75.0 3.0 4.0 7.0 0
S_13140374056 75.0 3.0 4.0 7.0 0
S_10173119096 75.0 3.0 4.0 7.0 0
S_10175047394 75.0 3.0 4.0 7.0 0
S_10175047396 75.0 3.0 4.0 7.0 0
S_10182373816 75.0 3.0 4.0 7.0 0
S_10182376305 75.0 3.0 4.0 7.0 0
S_10182376304 75.0 3.0 4.0 7.0 0
S_10182376306 75.0 3.0 4.0 7.0 0
S_10182376308 75.0 3.0 4.0 7.0 0
S_10182376310 75.0 3.0 4.0 7.0 0
S_10182379412 75.0 3.0 4.0 7.0 0
S_12198988557 75.0 3.0 4.0 7.0 0
S_12432886068 75.0 3.0 4.0 7.0 0
S_10182451858 75.0 3.0 4.0 7.0 0
S_11290335534 75.0 3.0 4.0 7.0 0
S_12651793611 75.0 3.0 4.0 7.0 0
S_10221211848 75.0 3.0 4.0 7.0 0
S_12169759733 75.0 3.0 4.0 7.0 0
S_12169759721 75.0 3.0 4.0 7.0 0
S_10948126479 75.0 3.0 4.0 7.0 0
S_12106511659 75.0 3.0 4.0 7.0 0
S_12144258015 75.0 3.0 4.0 7.0 0
S_10994159749 75.0 3.0 4.0 7.0 0
S_10994329192 75.0 3.0 4.0 7.0 0
S_10994329200 75.0 3.0 4.0 7.0 0
S_10994377348 75.0 3.0 4.0 7.0 0
S_12443901195 75.0 3.0 4.0 7.0 0
S_10994411032 75.0 3.0 4.0 7.0 0
S_10994402343 75.0 3.0 4.0 7.0 0
S_10994402344 75.0 3.0 4.0 7.0 0
S_10994402345 75.0 3.0 4.0 7.0 0
S_12435660636 75.0 3.0 4.0 7.0 0
S_10994411033 75.0 3.0 4.0 7.0 0
S_11017145233 75.0 3.0 4.0 7.0 0
S_10996655572 75.0 3.0 4.0 7.0 0
S_10996777703 75.0 3.0 4.0 7.0 0
S_10996868635 75.0 3.0 4.0 7.0 0
S_11034031540 75.0 3.0 4.0 7.0 0
S_10996869891 75.0 3.0 4.0 7.0 0
S_11034031538 75.0 3.0 4.0 7.0 0
S_10996869896 75.0 3.0 4.0 7.0 0
S_10996944953 75.0 3.0 4.0 7.0 0
S_10996992471 75.0 3.0 4.0 7.0 0
S_11002591560 75.0 3.0 4.0 7.0 0
S_11002608085 75.0 3.0 4.0 7.0 0
S_13347226823 75.0 3.0 4.0 7.0 0
S_11009627053 75.0 3.0 4.0 7.0 0
S_11009632657 75.0 3.0 4.0 7.0 0
S_11011674942 75.0 3.0 4.0 7.0 0
S_11011674943 75.0 3.0 4.0 7.0 0
S_11011971396 75.0 3.0 4.0 7.0 0
S_11025131193 75.0 3.0 4.0 7.0 0
S_11034031539 75.0 3.0 4.0 7.0 0
S_11034031541 75.0 3.0 4.0 7.0 0
S_11075395481 75.0 3.0 4.0 7.0 0
S_11121177293 75.0 3.0 4.0 7.0 0
S_12151494704 75.0 3.0 4.0 7.0 0
S_11220661004 75.0 3.0 4.0 7.0 0
S_11233009357 75.0 3.0 4.0 7.0 0
S_11260020609 75.0 3.0 4.0 7.0 0
S_11260020610 75.0 3.0 4.0 7.0 0
S_11955031767 75.0 3.0 4.0 7.0 0
S_11395511434 75.0 3.0 4.0 7.0 0
S_11397517841 75.0 3.0 4.0 7.0 0
S_11408964579 75.0 3.0 4.0 7.0 0
S_11408964580 75.0 3.0 4.0 7.0 0
S_11408964584 75.0 3.0 4.0 7.0 0
S_11408964581 75.0 3.0 4.0 7.0 0
S_11408964583 75.0 3.0 4.0 7.0 0
S_11408964589 75.0 3.0 4.0 7.0 0
S_11408964585 75.0 3.0 4.0 7.0 0
S_11408964587 75.0 3.0 4.0 7.0 0
S_11408964586 75.0 3.0 4.0 7.0 0
S_11408964590 75.0 3.0 4.0 7.0 0
S_11408964588 75.0 3.0 4.0 7.0 0
S_11408964591 75.0 3.0 4.0 7.0 0
S_11414694996 75.0 3.0 4.0 7.0 0
S_11414759654 75.0 3.0 4.0 7.0 0
S_11428038810 75.0 3.0 4.0 7.0 0
S_11428038812 75.0 3.0 4.0 7.0 0
S_11428038814 75.0 3.0 4.0 7.0 0
S_11428038815 75.0 3.0 4.0 7.0 0
S_11922878283 75.0 3.0 4.0 7.0 0
S_12060861662 75.0 3.0 4.0 7.0 0
S_11428038817 75.0 3.0 4.0 7.0 0
S_11433644720 75.0 3.0 4.0 7.0 0
S_11433644721 75.0 3.0 4.0 7.0 0
S_12477867929 75.0 3.0 4.0 7.0 0
S_13928938237 75.0 3.0 4.0 7.0 0
S_11703595135 75.0 3.0 4.0 7.0 0
S_11873774240 75.0 3.0 4.0 7.0 0
S_12157177352 75.0 3.0 4.0 7.0 0
S_11921590006 75.0 3.0 4.0 7.0 0
S_12169759722 75.0 3.0 4.0 7.0 0
S_12137575005 75.0 3.0 4.0 7.0 0
S_13757868548 75.0 3.0 4.0 7.0 0
S_12060861592 75.0 3.0 4.0 7.0 0
S_12100338251 75.0 3.0 4.0 7.0 0
S_12106511663 75.0 3.0 4.0 7.0 0
S_12144258013 75.0 3.0 4.0 7.0 0
S_12145839288 75.0 3.0 4.0 7.0 0
S_12147412805 75.0 3.0 4.0 7.0 0
S_12169759723 75.0 3.0 4.0 7.0 0
S_12169759726 75.0 3.0 4.0 7.0 0
S_12169759731 75.0 3.0 4.0 7.0 0
S_12963900368 75.0 3.0 4.0 7.0 0
S_12176161390 75.0 3.0 4.0 7.0 0
S_13743331082 75.0 3.0 4.0 7.0 0
S_12176161400 75.0 3.0 4.0 7.0 0
S_12185693393 75.0 3.0 4.0 7.0 0
S_12187854997 75.0 3.0 4.0 7.0 0
S_12198988556 75.0 3.0 4.0 7.0 0
S_12250445350 75.0 3.0 4.0 7.0 0
S_12278137174 75.0 3.0 4.0 7.0 0
S_12543439896 75.0 3.0 4.0 7.0 0
S_12435660637 75.0 3.0 4.0 7.0 0
S_12443097982 75.0 3.0 4.0 7.0 0
S_12443097985 75.0 3.0 4.0 7.0 0
S_12443097984 75.0 3.0 4.0 7.0 0
S_12443097987 75.0 3.0 4.0 7.0 0
S_12443097986 75.0 3.0 4.0 7.0 0
S_12443097989 75.0 3.0 4.0 7.0 0
S_12446863536 75.0 3.0 4.0 7.0 0
S_12468537408 75.0 3.0 4.0 7.0 0
S_12655271582 75.0 3.0 4.0 7.0 0
S_12963900366 75.0 3.0 4.0 7.0 0
S_12997741438 75.0 3.0 4.0 7.0 0
S_13877530782 75.0 3.0 4.0 7.0 0
S_13077693352 75.0 3.0 4.0 7.0 0
S_13130383419 75.0 3.0 4.0 7.0 0
S_13134720404 75.0 3.0 4.0 7.0 0
S_13134720442 75.0 3.0 4.0 7.0 0
S_13135583069 75.0 3.0 4.0 7.0 0
S_13136176381 75.0 3.0 4.0 7.0 0
S_13137760928 75.0 3.0 4.0 7.0 0
S_13137760956 75.0 3.0 4.0 7.0 0
S_13140521147 75.0 3.0 4.0 7.0 0
S_13142028562 75.0 3.0 4.0 7.0 0
S_13142028597 75.0 3.0 4.0 7.0 0
S_13238937707 75.0 3.0 4.0 7.0 0
S_13347226822 75.0 3.0 4.0 7.0 0
S_13736562871 75.0 3.0 4.0 7.0 0
S_13736567810 75.0 3.0 4.0 7.0 0
S_13738231244 75.0 3.0 4.0 7.0 0
S_13743331025 75.0 3.0 4.0 7.0 0
S_13743331043 75.0 3.0 4.0 7.0 0
S_13875979598 75.0 3.0 4.0 7.0 0
S_12956054174 75.0 3.0 4.0 7.0 0

[JUNCTIONS]
;;Name Elevation MaxDepth InitDepth SurDepth Aponded
J_260908311 884.37 3.0 0 0 100
J_10721527309 885.86 3.0 0 0 100
J_4472266108 886.49 3.0 0 0 100
J_262268684 886.58 3.0 0 0 100
J_266371138 888.27 3.0 0 0 100
J_9828511707 888.00 3.0 0 0 100
J_3870651477 889.37 3.0 0 0 100
J_262268685 889.15 3.0 0 0 100
J_7298619223 887.97 3.0 0 0 100
J_349027597 890.30 3.0 0 0 100
J_3870651479 889.60 3.0 0 0 100
J_3149622374 889.08 3.0 0 0 100
J_262459524 890.04 3.0 0 0 100
J_13144006534 887.64 3.0 0 0 100
J_262459526 888.66 3.0 0 0 100
J_12655271583 890.38 3.0 0 0 100
J_3149619842 889.31 3.0 0 0 100
J_262459527 889.15 3.0 0 0 100
J_264129270 884.68 3.0 0 0 100
J_12183845711 885.48 3.0 0 0 100
J_264129289 882.62 3.0 0 0 100
J_264141527 882.58 3.0 0 0 100
J_9179098227 879.79 3.0 0 0 100
J_3141425534 884.37 3.0 0 0 100
J_264129319 880.25 3.0 0 0 100
J_264147890 878.82 3.0 0 0 100
J_5724583886 878.95 3.0 0 0 100
J_5930997555 880.47 3.0 0 0 100
J_3141425542 881.45 3.0 0 0 100
J_3161309799 883.02 3.0 0 0 100
J_264189089 889.44 3.0 0 0 100
J_3149619847 887.70 3.0 0 0 100
J_3149619851 887.32 3.0 0 0 100
J_3149619853 889.02 3.0 0 0 100
J_6536271335 889.35 3.0 0 0 100
J_264845660 884.16 3.0 0 0 100
J_13135627938 883.83 3.0 0 0 100
J_2389701677 884.37 3.0 0 0 100
J_264845710 883.05 3.0 0 0 100
J_3148667904 883.10 3.0 0 0 100
J_3148667896 881.29 3.0 0 0 100
J_9859790834 881.01 3.0 0 0 100
J_264845740 879.14 3.0 0 0 100
J_1315048083 879.49 3.0 0 0 100
J_3872540688 878.91 3.0 0 0 100
J_3872540686 878.98 3.0 0 0 100
J_264845751 879.86 3.0 0 0 100
J_3872533488 879.64 3.0 0 0 100
J_3872533478 879.91 3.0 0 0 100
J_2206930282 876.38 3.0 0 0 100
J_1644166489 886.25 3.0 0 0 100
J_267210547 885.86 3.0 0 0 100
J_267210550 888.84 3.0 0 0 100
J_7147115841 887.82 3.0 0 0 100
J_2099691667 884.99 3.0 0 0 100
J_5919853090 887.72 3.0 0 0 100
J_267215656 876.10 3.0 0 0 100
J_13075849008 875.18 3.0 0 0 100
J_3148580198 876.25 3.0 0 0 100
J_2206930283 876.85 3.0 0 0 100
J_274569246 893.41 3.0 0 0 100
J_12176161387 894.07 3.0 0 0 100
J_274569296 895.07 3.0 0 0 100
J_3141473152 894.71 3.0 0 0 100
J_7328379155 893.22 3.0 0 0 100
J_274569309 895.04 3.0 0 0 100
J_274570242 893.39 3.0 0 0 100
J_7328379172 894.64 3.0 0 0 100
J_274569328 894.25 3.0 0 0 100
J_7328379173 892.18 3.0 0 0 100
J_3141473132 892.67 3.0 0 0 100
J_3141472722 891.95 3.0 0 0 100
J_274569348 891.26 3.0 0 0 100
J_3141473140 891.65 3.0 0 0 100
J_3141473150 891.12 3.0 0 0 100
J_3141473145 892.35 3.0 0 0 100
J_3170006930 892.98 3.0 0 0 100
J_11563497460 894.61 3.0 0 0 100
J_274570292 894.43 3.0 0 0 100
J_1387622103 893.01 3.0 0 0 100
J_4824673767 894.35 3.0 0 0 100
J_7328379200 894.55 3.0 0 0 100
J_274576719 905.02 3.0 0 0 100
J_4475150582 905.19 3.0 0 0 100
J_2268546167 904.80 3.0 0 0 100
J_292565231 883.76 3.0 0 0 100
J_7479630325 882.41 3.0 0 0 100
J_7479630930 883.07 3.0 0 0 100
J_7479630950 884.10 3.0 0 0 100
J_292565243 882.87 3.0 0 0 100
J_7478154729 883.69 3.0 0 0 100
J_7478154719 885.32 3.0 0 0 100
J_7479630320 883.81 3.0 0 0 100
J_293709519 904.29 3.0 0 0 100
J_2034648224 903.69 3.0 0 0 100
J_3771990524 902.52 3.0 0 0 100
J_2268546111 903.51 3.0 0 0 100
J_293709525 904.23 3.0 0 0 100
J_3771990505 904.24 3.0 0 0 100
J_7328379022 903.03 3.0 0 0 100
J_7328379067 902.10 3.0 0 0 100
J_302499540 890.83 3.0 0 0 100
J_6197379428 890.66 3.0 0 0 100
J_1748486107 890.19 3.0 0 0 100
J_5778474214 891.71 3.0 0 0 100
J_307401420 889.39 3.0 0 0 100
J_429781973 889.01 3.0 0 0 100
J_11070754936 890.64 3.0 0 0 100
J_590698291 889.24 3.0 0 0 100
J_3715148292 891.58 3.0 0 0 100
J_429780762 891.77 3.0 0 0 100
J_429780764 892.55 3.0 0 0 100
J_590698298 891.26 3.0 0 0 100
J_9828540923 887.60 3.0 0 0 100
J_590698311 891.28 3.0 0 0 100
J_590698302 891.93 3.0 0 0 100
J_429781781 890.87 3.0 0 0 100
J_590698314 891.99 3.0 0 0 100
J_2483733242 892.19 3.0 0 0 100
J_590698312 889.83 3.0 0 0 100
J_429781782 892.53 3.0 0 0 100
J_650076942 891.23 3.0 0 0 100
J_3150107472 889.85 3.0 0 0 100
J_3150107471 891.14 3.0 0 0 100
J_429783956 893.83 3.0 0 0 100
J_12059211981 894.13 3.0 0 0 100
J_5930945945 895.50 3.0 0 0 100
J_429783966 895.75 3.0 0 0 100
J_1694231991 892.97 3.0 0 0 100
J_961816867 895.32 3.0 0 0 100
J_515736998 901.46 3.0 0 0 100
J_11891216393 900.72 3.0 0 0 100
J_574762971 882.64 3.0 0 0 100
J_574762980 885.29 3.0 0 0 100
J_574762976 885.19 3.0 0 0 100
J_10175047393 887.50 3.0 0 0 100
J_574762978 887.55 3.0 0 0 100
J_10213547236 884.42 3.0 0 0 100
J_12279397378 885.33 3.0 0 0 100
J_12319493407 885.28 3.0 0 0 100
J_574762987 882.90 3.0 0 0 100
J_2099691681 883.53 3.0 0 0 100
J_11399565982 884.96 3.0 0 0 100
J_11011994983 884.12 3.0 0 0 100
J_574763005 884.87 3.0 0 0 100
J_11075395480 886.15 3.0 0 0 100
J_13816840517 885.11 3.0 0 0 100
J_574763010 887.52 3.0 0 0 100
J_6180297958 889.21 3.0 0 0 100
J_3504349796 888.66 3.0 0 0 100
J_10996723268 889.40 3.0 0 0 100
J_11527430411 887.59 3.0 0 0 100
J_13137760931 888.92 3.0 0 0 100
J_590698294 891.79 3.0 0 0 100
J_3558431203 892.48 3.0 0 0 100
J_590698296 891.45 3.0 0 0 100
J_590698300 890.97 3.0 0 0 100
J_590698318 892.21 3.0 0 0 100
J_1305577019 891.73 3.0 0 0 100
J_590698313 891.84 3.0 0 0 100
J_590698328 891.42 3.0 0 0 100
J_7265834831 892.42 3.0 0 0 100
J_3170496474 894.12 3.0 0 0 100
J_590698330 893.81 3.0 0 0 100
J_1558259250 890.98 3.0 0 0 100
J_1693112084 891.99 3.0 0 0 100
J_695070306 897.61 3.0 0 0 100
J_10969136192 898.49 3.0 0 0 100
J_2113348452 897.22 3.0 0 0 100
J_695070314 891.25 3.0 0 0 100
J_3148655277 890.88 3.0 0 0 100
J_4915966850 888.90 3.0 0 0 100
J_3148655275 889.96 3.0 0 0 100
J_695070403 891.33 3.0 0 0 100
J_3148656438 892.40 3.0 0 0 100
J_7479631129 892.90 3.0 0 0 100
J_12468537412 891.76 3.0 0 0 100
J_695070406 893.69 3.0 0 0 100
J_13077693351 891.80 3.0 0 0 100
J_6802224021 891.81 3.0 0 0 100
J_695070408 891.23 3.0 0 0 100
J_3148656447 892.00 3.0 0 0 100
J_7147949887 891.42 3.0 0 0 100
J_13875979600 891.93 3.0 0 0 100
J_695079385 877.41 3.0 0 0 100
J_7328099146 879.41 3.0 0 0 100
J_10182468120 877.43 3.0 0 0 100
J_818630839 904.23 3.0 0 0 100
J_1387622149 903.37 3.0 0 0 100
J_3148609358 899.95 3.0 0 0 100
J_11182448718 903.00 3.0 0 0 100
J_818634499 894.75 3.0 0 0 100
J_818634502 892.12 3.0 0 0 100
J_827145938 890.04 3.0 0 0 100
J_3148633513 894.66 3.0 0 0 100
J_818634513 889.22 3.0 0 0 100
J_3170006921 890.04 3.0 0 0 100
J_929965958 889.47 3.0 0 0 100
J_10996944954 890.92 3.0 0 0 100
J_825408102 882.34 3.0 0 0 100
J_7479630561 879.40 3.0 0 0 100
J_956077413 881.28 3.0 0 0 100
J_13875979449 891.09 3.0 0 0 100
J_844403663 898.52 3.0 0 0 100
J_6536884399 898.34 3.0 0 0 100
J_6141753929 898.80 3.0 0 0 100
J_956058174 889.35 3.0 0 0 100
J_3157684368 888.95 3.0 0 0 100
J_929965968 888.97 3.0 0 0 100
J_2349412314 889.47 3.0 0 0 100
J_10996638660 889.20 3.0 0 0 100
J_929965972 888.73 3.0 0 0 100
J_956058186 889.72 3.0 0 0 100
J_929965977 890.06 3.0 0 0 100
J_929965973 888.45 3.0 0 0 100
J_1390345459 890.09 3.0 0 0 100
J_7301790590 889.61 3.0 0 0 100
J_3157684367 890.31 3.0 0 0 100
J_7479631029 881.06 3.0 0 0 100
J_7479631046 882.28 3.0 0 0 100
J_1694231590 894.58 3.0 0 0 100
J_10994329194 896.57 3.0 0 0 100
J_1067315124 882.30 3.0 0 0 100
J_3161309802 883.38 3.0 0 0 100
J_12272816024 883.84 3.0 0 0 100
J_11185418653 884.74 3.0 0 0 100
J_1083495045 882.72 3.0 0 0 100
J_2387290813 883.41 3.0 0 0 100
J_1083500526 889.08 3.0 0 0 100
J_3149622352 889.14 3.0 0 0 100
J_2387123504 885.96 3.0 0 0 100
J_1083500529 886.44 3.0 0 0 100
J_1132734424 890.04 3.0 0 0 100
J_1186777885 893.07 3.0 0 0 100
J_7263153533 893.52 3.0 0 0 100
J_12649685464 892.80 3.0 0 0 100
J_11002591551 893.15 3.0 0 0 100
J_1186777924 894.42 3.0 0 0 100
J_4447404413 894.75 3.0 0 0 100
J_1186777952 892.52 3.0 0 0 100
J_7328379151 893.47 3.0 0 0 100
J_1186777966 893.69 3.0 0 0 100
J_6195813805 892.80 3.0 0 0 100
J_1186777956 894.81 3.0 0 0 100
J_7328379157 894.35 3.0 0 0 100
J_13743331044 893.66 3.0 0 0 100
J_1224322808 904.47 3.0 0 0 100
J_7263316354 905.66 3.0 0 0 100
J_2034648220 904.28 3.0 0 0 100
J_2268546130 904.10 3.0 0 0 100
J_1244527875 880.84 3.0 0 0 100
J_2828324523 880.27 3.0 0 0 100
J_2387579010 878.35 3.0 0 0 100
J_1244527888 878.08 3.0 0 0 100
J_6342458097 880.95 3.0 0 0 100
J_1315049037 878.99 3.0 0 0 100
J_1300454732 897.09 3.0 0 0 100
J_11922878281 897.39 3.0 0 0 100
J_1321535551 896.23 3.0 0 0 100
J_1305577009 890.34 3.0 0 0 100
J_11234065193 889.53 3.0 0 0 100
J_6168052376 893.00 3.0 0 0 100
J_1314077241 878.66 3.0 0 0 100
J_7479631472 877.37 3.0 0 0 100
J_7478154540 877.65 3.0 0 0 100
J_11370378569 879.14 3.0 0 0 100
J_1314077247 879.15 3.0 0 0 100
J_6168067117 880.54 3.0 0 0 100
J_7478154497 879.81 3.0 0 0 100
J_7736381401 880.77 3.0 0 0 100
J_1314077248 877.80 3.0 0 0 100
J_5777147300 879.29 3.0 0 0 100
J_5777147337 877.53 3.0 0 0 100
J_1315048058 881.28 3.0 0 0 100
J_3148668048 880.15 3.0 0 0 100
J_6141957199 880.71 3.0 0 0 100
J_1315048061 881.98 3.0 0 0 100
J_1315048060 881.11 3.0 0 0 100
J_11009627049 881.08 3.0 0 0 100
J_10172982421 878.96 3.0 0 0 100
J_2206930291 881.41 3.0 0 0 100
J_10172982423 881.04 3.0 0 0 100
J_1315048075 880.12 3.0 0 0 100
J_3148668044 879.14 3.0 0 0 100
J_3148668042 880.43 3.0 0 0 100
J_10232292384 880.94 3.0 0 0 100
J_1315048078 882.50 3.0 0 0 100
J_8433749411 881.95 3.0 0 0 100
J_6183009077 881.91 3.0 0 0 100
J_1315048080 881.55 3.0 0 0 100
J_1315052254 881.50 3.0 0 0 100
J_2387579012 880.67 3.0 0 0 100
J_1315049031 881.62 3.0 0 0 100
J_10173119093 879.52 3.0 0 0 100
J_1315049034 878.67 3.0 0 0 100
J_13140374079 880.51 3.0 0 0 100
J_11009632656 879.43 3.0 0 0 100
J_3148668037 880.40 3.0 0 0 100
J_3148668038 881.51 3.0 0 0 100
J_1319974913 887.76 3.0 0 0 100
J_5372340496 888.63 3.0 0 0 100
J_1319974914 888.68 3.0 0 0 100
J_11865827584 888.74 3.0 0 0 100
J_12060861661 894.92 3.0 0 0 100
J_1367979481 891.82 3.0 0 0 100
J_4446729192 890.62 3.0 0 0 100
J_1383248215 889.60 3.0 0 0 100
J_3148645671 891.08 3.0 0 0 100
J_3148655238 891.08 3.0 0 0 100
J_3148655236 891.78 3.0 0 0 100
J_1383248254 891.62 3.0 0 0 100
J_3148655266 889.39 3.0 0 0 100
J_7478155165 891.55 3.0 0 0 100
J_1383248309 887.22 3.0 0 0 100
J_10168257533 888.62 3.0 0 0 100
J_12462993523 885.56 3.0 0 0 100
J_1387622086 905.04 3.0 0 0 100
J_2195883502 903.70 3.0 0 0 100
J_12334925123 903.77 3.0 0 0 100
J_1387622091 904.02 3.0 0 0 100
J_2268546103 902.35 3.0 0 0 100
J_10994097991 903.27 3.0 0 0 100
J_10182451860 903.92 3.0 0 0 100
J_3141475567 893.82 3.0 0 0 100
J_1387622131 903.61 3.0 0 0 100
J_2268546143 905.91 3.0 0 0 100
J_2268546123 905.66 3.0 0 0 100
J_1387622145 902.66 3.0 0 0 100
J_2268546106 904.08 3.0 0 0 100
J_10182451857 903.77 3.0 0 0 100
J_2268546110 902.84 3.0 0 0 100
J_13064841548 904.43 3.0 0 0 100
J_3504349795 887.83 3.0 0 0 100
J_5777299715 888.04 3.0 0 0 100
J_1614318567 900.93 3.0 0 0 100
J_2130361899 899.54 3.0 0 0 100
J_12060861673 900.69 3.0 0 0 100
J_1614318730 899.63 3.0 0 0 100
J_1614318635 901.49 3.0 0 0 100
J_6562185321 904.79 3.0 0 0 100
J_11428038813 898.18 3.0 0 0 100
J_1615766875 901.12 3.0 0 0 100
J_11017227499 899.51 3.0 0 0 100
J_1615766938 900.42 3.0 0 0 100
J_6536473101 900.32 3.0 0 0 100
J_1615766958 901.62 3.0 0 0 100
J_1615766885 899.51 3.0 0 0 100
J_1615767016 901.43 3.0 0 0 100
J_1615766914 901.31 3.0 0 0 100
J_1615766985 901.80 3.0 0 0 100
J_1615767002 900.11 3.0 0 0 100
J_3684986226 899.75 3.0 0 0 100
J_1615766921 899.82 3.0 0 0 100
J_6536473099 900.00 3.0 0 0 100
J_3237573297 900.65 3.0 0 0 100
J_6536473104 898.49 3.0 0 0 100
J_6968263671 899.54 3.0 0 0 100
J_1615767007 899.94 3.0 0 0 100
J_9846394228 899.04 3.0 0 0 100
J_1615767013 900.65 3.0 0 0 100
J_11397517840 901.63 3.0 0 0 100
J_11070754935 889.45 3.0 0 0 100
J_1645178566 887.30 3.0 0 0 100
J_1645178612 888.23 3.0 0 0 100
J_1683173710 878.34 3.0 0 0 100
J_1683173716 879.34 3.0 0 0 100
J_7478154651 879.85 3.0 0 0 100
J_7147103496 890.27 3.0 0 0 100
J_11078308794 892.16 3.0 0 0 100
J_11428038816 896.94 3.0 0 0 100
J_2446054167 892.76 3.0 0 0 100
J_1714977975 885.02 3.0 0 0 100
J_1714984580 884.63 3.0 0 0 100
J_12009305216 886.04 3.0 0 0 100
J_1714984568 886.37 3.0 0 0 100
J_8403844099 885.78 3.0 0 0 100
J_5776756937 885.99 3.0 0 0 100
J_1714984609 886.93 3.0 0 0 100
J_13144414990 889.85 3.0 0 0 100
J_1815485809 885.02 3.0 0 0 100
J_3148587503 885.53 3.0 0 0 100
J_1817170894 875.93 3.0 0 0 100
J_5689989229 876.03 3.0 0 0 100
J_7328007720 878.04 3.0 0 0 100
J_5772629055 875.37 3.0 0 0 100
J_1817170897 875.77 3.0 0 0 100
J_5689989225 877.82 3.0 0 0 100
J_5689989227 876.67 3.0 0 0 100
J_7478154681 876.22 3.0 0 0 100
J_1817170898 877.30 3.0 0 0 100
J_6499300015 878.53 3.0 0 0 100
J_1827247449 888.11 3.0 0 0 100
J_5778521345 886.20 3.0 0 0 100
J_1827634843 887.66 3.0 0 0 100
J_1906888933 881.51 3.0 0 0 100
J_11220661003 880.97 3.0 0 0 100
J_1914928013 883.23 3.0 0 0 100
J_10182390928 883.50 3.0 0 0 100
J_4682937550 883.05 3.0 0 0 100
J_2034648230 905.30 3.0 0 0 100
J_2034648234 904.31 3.0 0 0 100
J_2034648222 904.60 3.0 0 0 100
J_7266164820 906.13 3.0 0 0 100
J_2034648226 904.64 3.0 0 0 100
J_7328379076 904.69 3.0 0 0 100
J_2034648233 904.83 3.0 0 0 100
J_2034648225 904.48 3.0 0 0 100
J_4447100001 903.57 3.0 0 0 100
J_2268546160 904.29 3.0 0 0 100
J_2268546125 904.61 3.0 0 0 100
J_2268546136 905.67 3.0 0 0 100
J_2034648235 903.50 3.0 0 0 100
J_2041854927 905.80 3.0 0 0 100
J_2268546140 905.01 3.0 0 0 100
J_4448123006 905.13 3.0 0 0 100
J_2268546144 905.68 3.0 0 0 100
J_2041854936 903.95 3.0 0 0 100
J_2268546152 905.35 3.0 0 0 100
J_2099691584 879.58 3.0 0 0 100
J_5354906276 877.86 3.0 0 0 100
J_6194830177 877.92 3.0 0 0 100
J_2099691601 887.50 3.0 0 0 100
J_2099691630 884.34 3.0 0 0 100
J_12517783371 883.43 3.0 0 0 100
J_12517783377 884.16 3.0 0 0 100
J_2099691637 883.64 3.0 0 0 100
J_2387361293 881.41 3.0 0 0 100
J_5807148396 883.78 3.0 0 0 100
J_6130070511 882.59 3.0 0 0 100
J_2099691661 881.25 3.0 0 0 100
J_8530739259 879.34 3.0 0 0 100
J_13823559215 880.73 3.0 0 0 100
J_11011674941 885.42 3.0 0 0 100
J_10172914465 883.29 3.0 0 0 100
J_2099691686 882.58 3.0 0 0 100
J_2387367081 882.05 3.0 0 0 100
J_12151458578 880.29 3.0 0 0 100
J_6749666079 897.27 3.0 0 0 100
J_11891163805 900.98 3.0 0 0 100
J_6536473139 899.16 3.0 0 0 100
J_2156205416 897.15 3.0 0 0 100
J_6904648005 896.74 3.0 0 0 100
J_2412953615 898.28 3.0 0 0 100
J_2180904962 902.39 3.0 0 0 100
J_2268546087 903.66 3.0 0 0 100
J_2195883497 904.94 3.0 0 0 100
J_4445588631 906.75 3.0 0 0 100
J_2206930257 877.48 3.0 0 0 100
J_3148668088 876.79 3.0 0 0 100
J_2206930285 875.86 3.0 0 0 100
J_2206930279 877.02 3.0 0 0 100
J_2206930259 875.37 3.0 0 0 100
J_2206930263 874.90 3.0 0 0 100
J_2206930274 877.05 3.0 0 0 100
J_3148668073 874.94 3.0 0 0 100
J_3148668067 877.72 3.0 0 0 100
J_2206930265 876.60 3.0 0 0 100
J_2206930266 877.22 3.0 0 0 100
J_2206930270 878.27 3.0 0 0 100
J_3148668114 878.24 3.0 0 0 100
J_2206930278 876.93 3.0 0 0 100
J_2387579019 877.62 3.0 0 0 100
J_3148668099 877.87 3.0 0 0 100
J_2206930277 876.25 3.0 0 0 100
J_3148668072 876.14 3.0 0 0 100
J_3148668071 878.96 3.0 0 0 100
J_10172979379 877.27 3.0 0 0 100
J_2206930284 877.46 3.0 0 0 100
J_2206930286 876.56 3.0 0 0 100
J_3148668107 875.28 3.0 0 0 100
J_3148668112 877.76 3.0 0 0 100
J_2206930293 877.29 3.0 0 0 100
J_10172979380 875.92 3.0 0 0 100
J_2268546082 902.79 3.0 0 0 100
J_2268546086 902.22 3.0 0 0 100
J_2268546089 904.01 3.0 0 0 100
J_2268546096 903.62 3.0 0 0 100
J_2268546093 904.03 3.0 0 0 100
J_2268546100 904.34 3.0 0 0 100
J_2268546095 903.85 3.0 0 0 100
J_4475055875 905.08 3.0 0 0 100
J_2268546105 904.92 3.0 0 0 100
J_2268546114 904.62 3.0 0 0 100
J_4974503765 904.48 3.0 0 0 100
J_7328345274 902.77 3.0 0 0 100
J_2268546121 903.88 3.0 0 0 100
J_3148657060 905.32 3.0 0 0 100
J_2268546117 905.38 3.0 0 0 100
J_4448123019 905.19 3.0 0 0 100
J_2268546132 904.05 3.0 0 0 100
J_6144032627 902.92 3.0 0 0 100
J_5388808643 906.17 3.0 0 0 100
J_2268546146 905.27 3.0 0 0 100
J_2268546161 905.82 3.0 0 0 100
J_2268546149 904.36 3.0 0 0 100
J_2268546151 905.18 3.0 0 0 100
J_4475150583 904.27 3.0 0 0 100
J_13142029192 904.78 3.0 0 0 100
J_2268546156 906.03 3.0 0 0 100
J_2268546158 904.46 3.0 0 0 100
J_2268546159 906.03 3.0 0 0 100
J_2268546163 905.23 3.0 0 0 100
J_3590694360 904.57 3.0 0 0 100
J_3148614512 905.30 3.0 0 0 100
J_2268546165 904.62 3.0 0 0 100
J_2268546166 905.62 3.0 0 0 100
J_3590694361 905.74 3.0 0 0 100
J_10725368291 906.48 3.0 0 0 100
J_3803663193 887.24 3.0 0 0 100
J_3141425530 885.57 3.0 0 0 100
J_5776756946 884.59 3.0 0 0 100
J_4540978393 883.07 3.0 0 0 100
J_2387407562 892.28 3.0 0 0 100
J_10056058174 891.86 3.0 0 0 100
J_3872533486 880.73 3.0 0 0 100
J_10094041459 878.88 3.0 0 0 100
J_3148668068 877.72 3.0 0 0 100
J_3148668100 876.83 3.0 0 0 100
J_3157670226 881.87 3.0 0 0 100
J_2391229483 890.22 3.0 0 0 100
J_3148645652 891.28 3.0 0 0 100
J_3148645665 890.65 3.0 0 0 100
J_3148656434 889.97 3.0 0 0 100
J_3148645692 890.66 3.0 0 0 100
J_2406966810 891.32 3.0 0 0 100
J_2406966812 893.36 3.0 0 0 100
J_6505394016 891.00 3.0 0 0 100
J_10147078393 891.27 3.0 0 0 100
J_2407838682 886.38 3.0 0 0 100
J_10213547238 885.64 3.0 0 0 100
J_11011650785 885.91 3.0 0 0 100
J_11891163804 901.42 3.0 0 0 100
J_2413006760 899.47 3.0 0 0 100
J_3150118040 899.03 3.0 0 0 100
J_2414360817 888.36 3.0 0 0 100
J_11509998750 893.95 3.0 0 0 100
J_2828324522 880.79 3.0 0 0 100
J_9708811990 877.81 3.0 0 0 100
J_3141425537 884.46 3.0 0 0 100
J_3141425538 883.80 3.0 0 0 100
J_3141425539 880.88 3.0 0 0 100
J_3141425540 880.66 3.0 0 0 100
J_3141425541 882.87 3.0 0 0 100
J_3141425543 882.43 3.0 0 0 100
J_3141452102 894.12 3.0 0 0 100
J_7328379166 891.33 3.0 0 0 100
J_13736567789 891.56 3.0 0 0 100
J_3141452104 893.35 3.0 0 0 100
J_3141452108 892.92 3.0 0 0 100
J_7262830544 893.79 3.0 0 0 100
J_3141452106 892.23 3.0 0 0 100
J_3141452111 892.90 3.0 0 0 100
J_3141452107 893.44 3.0 0 0 100
J_3141452113 891.35 3.0 0 0 100
J_7262830543 893.60 3.0 0 0 100
J_3504895466 891.06 3.0 0 0 100
J_3141452114 891.66 3.0 0 0 100
J_3141452115 893.26 3.0 0 0 100
J_3141452118 891.20 3.0 0 0 100
J_6136413730 893.17 3.0 0 0 100
J_4474704607 891.10 3.0 0 0 100
J_3141452119 893.47 3.0 0 0 100
J_3141452120 892.14 3.0 0 0 100
J_6136413729 890.57 3.0 0 0 100
J_10997029517 892.64 3.0 0 0 100
J_10997029523 892.30 3.0 0 0 100
J_3141452121 891.53 3.0 0 0 100
J_3141473146 892.21 3.0 0 0 100
J_3141452122 891.66 3.0 0 0 100
J_3141452126 891.76 3.0 0 0 100
J_3868740751 891.34 3.0 0 0 100
J_3141452125 892.72 3.0 0 0 100
J_13742285040 891.96 3.0 0 0 100
J_3141473131 892.79 3.0 0 0 100
J_4462376684 892.43 3.0 0 0 100
J_3141473133 892.79 3.0 0 0 100
J_3141473135 894.35 3.0 0 0 100
J_4462416977 891.82 3.0 0 0 100
J_3141473136 893.14 3.0 0 0 100
J_3170006931 893.76 3.0 0 0 100
J_3141473134 894.04 3.0 0 0 100
J_3141473138 892.31 3.0 0 0 100
J_13738230989 893.37 3.0 0 0 100
J_3141473139 892.14 3.0 0 0 100
J_6505328002 891.01 3.0 0 0 100
J_3141473149 890.95 3.0 0 0 100
J_3141473147 891.34 3.0 0 0 100
J_13738231243 892.21 3.0 0 0 100
J_10683903422 893.38 3.0 0 0 100
J_3141473151 890.76 3.0 0 0 100
J_3504895273 893.05 3.0 0 0 100
J_3141473155 893.67 3.0 0 0 100
J_6180293490 892.58 3.0 0 0 100
J_3141475564 895.61 3.0 0 0 100
J_13743331026 894.16 3.0 0 0 100
J_6560163455 895.18 3.0 0 0 100
J_3148580144 877.98 3.0 0 0 100
J_10175047395 878.27 3.0 0 0 100
J_3148580145 878.01 3.0 0 0 100
J_12250445349 877.38 3.0 0 0 100
J_7465559430 876.49 3.0 0 0 100
J_3148587479 878.50 3.0 0 0 100
J_7479630861 879.79 3.0 0 0 100
J_3148587482 879.22 3.0 0 0 100
J_6137643400 879.47 3.0 0 0 100
J_3148587485 880.48 3.0 0 0 100
J_13250405522 879.69 3.0 0 0 100
J_7479630867 879.38 3.0 0 0 100
J_7479630847 879.58 3.0 0 0 100
J_7479630882 880.91 3.0 0 0 100
J_3148587489 880.93 3.0 0 0 100
J_3148587495 879.41 3.0 0 0 100
J_7479630469 879.62 3.0 0 0 100
J_6914358632 880.94 3.0 0 0 100
J_3148587490 877.72 3.0 0 0 100
J_6194830173 880.34 3.0 0 0 100
J_7479630459 879.08 3.0 0 0 100
J_7479630500 879.36 3.0 0 0 100
J_7479630520 880.06 3.0 0 0 100
J_3148587502 883.87 3.0 0 0 100
J_6143252361 882.59 3.0 0 0 100
J_7436685266 882.01 3.0 0 0 100
J_7478154731 885.16 3.0 0 0 100
J_6536473134 900.84 3.0 0 0 100
J_3148614498 905.51 3.0 0 0 100
J_3148620681 906.77 3.0 0 0 100
J_4446468155 906.70 3.0 0 0 100
J_3148614507 904.34 3.0 0 0 100
J_6885777459 903.12 3.0 0 0 100
J_10994159748 903.10 3.0 0 0 100
J_3148614513 905.04 3.0 0 0 100
J_4475027232 905.17 3.0 0 0 100
J_3148614516 904.44 3.0 0 0 100
J_3148614515 906.08 3.0 0 0 100
J_6562178338 904.57 3.0 0 0 100
J_3148620677 906.81 3.0 0 0 100
J_3148619693 905.86 3.0 0 0 100
J_3148657085 904.40 3.0 0 0 100
J_3148619697 905.54 3.0 0 0 100
J_3148619698 905.60 3.0 0 0 100
J_6194291027 905.08 3.0 0 0 100
J_3148620680 905.02 3.0 0 0 100
J_3148619699 906.40 3.0 0 0 100
J_4475027228 905.14 3.0 0 0 100
J_3148620676 903.84 3.0 0 0 100
J_4446471884 906.52 3.0 0 0 100
J_10182373813 906.10 3.0 0 0 100
J_3148620696 903.37 3.0 0 0 100
J_4475027221 904.37 3.0 0 0 100
J_4475027226 904.70 3.0 0 0 100
J_3148620698 905.25 3.0 0 0 100
J_5370756307 894.15 3.0 0 0 100
J_13928938241 892.88 3.0 0 0 100
J_3148645678 891.82 3.0 0 0 100
J_3148645653 891.27 3.0 0 0 100
J_3148645681 889.96 3.0 0 0 100
J_3148645655 889.21 3.0 0 0 100
J_3148655285 890.35 3.0 0 0 100
J_3148655284 891.57 3.0 0 0 100
J_3148645664 891.26 3.0 0 0 100
J_3148645670 890.46 3.0 0 0 100
J_3148645667 890.31 3.0 0 0 100
J_7479631170 890.31 3.0 0 0 100
J_3148645691 889.79 3.0 0 0 100
J_3148655234 891.52 3.0 0 0 100
J_3148645673 889.99 3.0 0 0 100
J_3148645685 890.37 3.0 0 0 100
J_3148645674 891.05 3.0 0 0 100
J_3148645675 890.63 3.0 0 0 100
J_7479631201 889.33 3.0 0 0 100
J_3148645700 888.82 3.0 0 0 100
J_7479631193 889.38 3.0 0 0 100
J_3148645677 888.39 3.0 0 0 100
J_7479631168 891.70 3.0 0 0 100
J_3148645684 891.06 3.0 0 0 100
J_3148645683 891.74 3.0 0 0 100
J_3148645693 888.60 3.0 0 0 100
J_7479631133 890.56 3.0 0 0 100
J_6888084544 889.79 3.0 0 0 100
J_3148645698 890.73 3.0 0 0 100
J_3148645696 889.02 3.0 0 0 100
J_3148645697 890.43 3.0 0 0 100
J_7479631182 889.28 3.0 0 0 100
J_7479631181 890.36 3.0 0 0 100
J_3148645699 888.84 3.0 0 0 100
J_3148655235 889.97 3.0 0 0 100
J_3148655239 891.37 3.0 0 0 100
J_7479631141 892.87 3.0 0 0 100
J_3148655287 891.12 3.0 0 0 100
J_3148655283 889.53 3.0 0 0 100
J_3148655242 891.66 3.0 0 0 100
J_3148655243 891.09 3.0 0 0 100
J_3148655291 890.62 3.0 0 0 100
J_3148655248 890.22 3.0 0 0 100
J_3148655249 890.61 3.0 0 0 100
J_7479631204 890.64 3.0 0 0 100
J_3148655253 892.32 3.0 0 0 100
J_3148655260 892.76 3.0 0 0 100
J_7479631146 889.88 3.0 0 0 100
J_3148655261 890.18 3.0 0 0 100
J_7479631148 891.78 3.0 0 0 100
J_3148655262 891.74 3.0 0 0 100
J_3148655263 889.41 3.0 0 0 100
J_3148655264 890.95 3.0 0 0 100
J_3148655265 892.47 3.0 0 0 100
J_3148655268 891.67 3.0 0 0 100
J_7479631149 891.62 3.0 0 0 100
J_7479631210 891.15 3.0 0 0 100
J_3148656432 890.32 3.0 0 0 100
J_9720271254 890.06 3.0 0 0 100
J_3148655290 890.22 3.0 0 0 100
J_3148655295 890.04 3.0 0 0 100
J_3148655302 889.32 3.0 0 0 100
J_3148655300 890.58 3.0 0 0 100
J_3148655296 889.17 3.0 0 0 100
J_12695959789 889.71 3.0 0 0 100
J_3148655317 889.18 3.0 0 0 100
J_3148655299 889.82 3.0 0 0 100
J_3148655307 889.11 3.0 0 0 100
J_3148655313 889.37 3.0 0 0 100
J_3148655308 889.96 3.0 0 0 100
J_3148655312 888.87 3.0 0 0 100
J_3148655316 888.98 3.0 0 0 100
J_3148655325 889.14 3.0 0 0 100
J_3148655322 889.11 3.0 0 0 100
J_3148655328 889.06 3.0 0 0 100
J_3148656436 892.40 3.0 0 0 100
J_3148656435 891.94 3.0 0 0 100
J_7479631153 889.86 3.0 0 0 100
J_3148656440 891.62 3.0 0 0 100
J_3148656442 891.86 3.0 0 0 100
J_10994386528 892.64 3.0 0 0 100
J_10994402342 893.57 3.0 0 0 100
J_3148656446 889.91 3.0 0 0 100
J_3148656451 892.50 3.0 0 0 100
J_10994386529 891.04 3.0 0 0 100
J_12443901843 891.63 3.0 0 0 100
J_7484216048 903.08 3.0 0 0 100
J_12144258014 903.17 3.0 0 0 100
J_3148657069 903.56 3.0 0 0 100
J_10182376307 904.70 3.0 0 0 100
J_3148657081 903.19 3.0 0 0 100
J_4475027129 902.79 3.0 0 0 100
J_6194014544 903.49 3.0 0 0 100
J_3148657084 906.31 3.0 0 0 100
J_11106970230 904.89 3.0 0 0 100
J_10172979414 881.34 3.0 0 0 100
J_6204951065 882.94 3.0 0 0 100
J_3148667908 880.26 3.0 0 0 100
J_3148667924 879.61 3.0 0 0 100
J_6194008055 880.05 3.0 0 0 100
J_3148667925 881.61 3.0 0 0 100
J_3148668030 880.31 3.0 0 0 100
J_10172979410 881.80 3.0 0 0 100
J_3148668029 880.45 3.0 0 0 100
J_10172979411 880.64 3.0 0 0 100
J_3148668041 880.12 3.0 0 0 100
J_3148668043 880.98 3.0 0 0 100
J_3148668045 880.03 3.0 0 0 100
J_10172982419 880.19 3.0 0 0 100
J_6204951079 881.86 3.0 0 0 100
J_5726284291 879.74 3.0 0 0 100
J_3148668105 876.26 3.0 0 0 100
J_3148668106 876.83 3.0 0 0 100
J_3148668111 876.02 3.0 0 0 100
J_10172979382 878.32 3.0 0 0 100
J_3148668115 880.04 3.0 0 0 100
J_10173119095 879.24 3.0 0 0 100
J_3148668116 878.58 3.0 0 0 100
J_3149619837 888.73 3.0 0 0 100
J_3149619838 889.17 3.0 0 0 100
J_10994470325 889.06 3.0 0 0 100
J_3149619839 888.43 3.0 0 0 100
J_3149619841 888.22 3.0 0 0 100
J_11378886517 889.13 3.0 0 0 100
J_3149619840 889.32 3.0 0 0 100
J_13140521075 889.71 3.0 0 0 100
J_3149619850 887.44 3.0 0 0 100
J_3149619854 888.32 3.0 0 0 100
J_3149619852 887.72 3.0 0 0 100
J_3149622362 888.70 3.0 0 0 100
J_3149622354 888.87 3.0 0 0 100
J_13140521149 889.83 3.0 0 0 100
J_7239768143 887.55 3.0 0 0 100
J_3150107475 891.33 3.0 0 0 100
J_3150107474 889.58 3.0 0 0 100
J_3150107476 889.26 3.0 0 0 100
J_3150107479 890.66 3.0 0 0 100
J_12155154060 889.48 3.0 0 0 100
J_12155154062 890.55 3.0 0 0 100
J_12155154056 890.69 3.0 0 0 100
J_3150107773 892.25 3.0 0 0 100
J_9846394225 899.80 3.0 0 0 100
J_6536473107 900.07 3.0 0 0 100
J_3157670219 881.56 3.0 0 0 100
J_10172979413 881.97 3.0 0 0 100
J_3157670223 882.14 3.0 0 0 100
J_13903770310 890.81 3.0 0 0 100
J_3161309795 881.51 3.0 0 0 100
J_3161309798 883.76 3.0 0 0 100
J_3161309797 883.93 3.0 0 0 100
J_3161309801 881.59 3.0 0 0 100
J_3161309800 882.15 3.0 0 0 100
J_12506414299 889.72 3.0 0 0 100
J_9830778271 891.39 3.0 0 0 100
J_4447421339 892.57 3.0 0 0 100
J_3170478574 890.33 3.0 0 0 100
J_10996992466 891.03 3.0 0 0 100
J_9788419608 892.12 3.0 0 0 100
J_4447382437 893.77 3.0 0 0 100
J_3170496477 893.80 3.0 0 0 100
J_11002608083 894.45 3.0 0 0 100
J_3463462869 892.45 3.0 0 0 100
J_3463462871 891.72 3.0 0 0 100
J_3463462870 891.02 3.0 0 0 100
J_6458940001 890.88 3.0 0 0 100
J_10182729200 892.07 3.0 0 0 100
J_3500405710 883.94 3.0 0 0 100
J_7479630768 883.12 3.0 0 0 100
J_3500405711 882.31 3.0 0 0 100
J_3500405714 882.31 3.0 0 0 100
J_7479630771 882.58 3.0 0 0 100
J_3500405734 883.26 3.0 0 0 100
J_3500405712 882.85 3.0 0 0 100
J_3500405713 883.12 3.0 0 0 100
J_3500405737 881.78 3.0 0 0 100
J_7479630770 883.00 3.0 0 0 100
J_3500405715 883.38 3.0 0 0 100
J_7479630775 883.78 3.0 0 0 100
J_3500405717 882.21 3.0 0 0 100
J_3500405720 883.47 3.0 0 0 100
J_7479630763 883.08 3.0 0 0 100
J_3500405723 883.76 3.0 0 0 100
J_3500405722 882.54 3.0 0 0 100
J_10172935936 883.95 3.0 0 0 100
J_3500405725 881.89 3.0 0 0 100
J_10172935938 883.11 3.0 0 0 100
J_3500405729 880.52 3.0 0 0 100
J_11434263477 880.83 3.0 0 0 100
J_3500405730 883.31 3.0 0 0 100
J_3500405731 881.52 3.0 0 0 100
J_7479630782 880.77 3.0 0 0 100
J_13816806093 880.32 3.0 0 0 100
J_3500405732 882.36 3.0 0 0 100
J_6196989888 883.36 3.0 0 0 100
J_10172938609 881.30 3.0 0 0 100
J_10172938606 883.54 3.0 0 0 100
J_3500405738 882.78 3.0 0 0 100
J_10172938611 881.56 3.0 0 0 100
J_3500405740 882.90 3.0 0 0 100
J_7479630758 881.57 3.0 0 0 100
J_3500405741 881.39 3.0 0 0 100
J_7479630780 882.13 3.0 0 0 100
J_3500405745 880.99 3.0 0 0 100
J_6196989893 881.85 3.0 0 0 100
J_7301789574 887.79 3.0 0 0 100
J_6758558444 888.72 3.0 0 0 100
J_3504895274 892.43 3.0 0 0 100
J_3715148285 888.66 3.0 0 0 100
J_11234065453 890.57 3.0 0 0 100
J_3771990469 901.22 3.0 0 0 100
J_3771990522 904.30 3.0 0 0 100
J_3771990523 904.82 3.0 0 0 100
J_3771990536 904.61 3.0 0 0 100
J_3771990535 904.11 3.0 0 0 100
J_3771990914 905.84 3.0 0 0 100
J_3771990553 905.26 3.0 0 0 100
J_3771990545 902.97 3.0 0 0 100
J_3771990866 904.68 3.0 0 0 100
J_3771990555 904.37 3.0 0 0 100
J_3771990873 903.97 3.0 0 0 100
J_3771990859 905.04 3.0 0 0 100
J_3771990861 902.85 3.0 0 0 100
J_3771990888 903.39 3.0 0 0 100
J_3771990869 903.73 3.0 0 0 100
J_3771990894 905.30 3.0 0 0 100
J_3778310159 892.96 3.0 0 0 100
J_3778310161 895.38 3.0 0 0 100
J_3868740750 891.01 3.0 0 0 100
J_12145839287 891.40 3.0 0 0 100
J_3870651478 888.62 3.0 0 0 100
J_3870651480 887.85 3.0 0 0 100
J_3872407423 877.77 3.0 0 0 100
J_7328007223 875.65 3.0 0 0 100
J_3872407428 877.54 3.0 0 0 100
J_3872407427 877.37 3.0 0 0 100
J_6132071550 877.72 3.0 0 0 100
J_7328007225 877.42 3.0 0 0 100
J_3872407429 875.65 3.0 0 0 100
J_3872407466 875.54 3.0 0 0 100
J_3872407468 877.48 3.0 0 0 100
J_3872533474 877.13 3.0 0 0 100
J_3872533476 877.55 3.0 0 0 100
J_3872533479 879.59 3.0 0 0 100
J_3872533480 877.66 3.0 0 0 100
J_10172979407 878.91 3.0 0 0 100
J_3872533482 880.54 3.0 0 0 100
J_11268733245 879.81 3.0 0 0 100
J_3872533483 879.04 3.0 0 0 100
J_11432094041 880.87 3.0 0 0 100
J_3872533484 878.29 3.0 0 0 100
J_11404841379 878.52 3.0 0 0 100
J_3872533489 879.77 3.0 0 0 100
J_3872533485 880.85 3.0 0 0 100
J_3872540685 878.31 3.0 0 0 100
J_3872540684 880.43 3.0 0 0 100
J_3872540687 880.00 3.0 0 0 100
J_3872540689 878.62 3.0 0 0 100
J_4285700668 883.37 3.0 0 0 100
J_4285700669 881.79 3.0 0 0 100
J_4445503529 902.75 3.0 0 0 100
J_4446468152 905.92 3.0 0 0 100
J_6194089776 906.79 3.0 0 0 100
J_4446471885 906.04 3.0 0 0 100
J_10056058173 893.29 3.0 0 0 100
J_13142028598 903.57 3.0 0 0 100
J_4448123015 904.72 3.0 0 0 100
J_4462384503 892.93 3.0 0 0 100
J_7328379175 893.90 3.0 0 0 100
J_13738231056 892.59 3.0 0 0 100
J_4472266103 883.45 3.0 0 0 100
J_8403844097 885.60 3.0 0 0 100
J_4474487225 885.23 3.0 0 0 100
J_11011971395 884.60 3.0 0 0 100
J_11399454153 885.27 3.0 0 0 100
J_4474487238 883.11 3.0 0 0 100
J_6884558833 885.70 3.0 0 0 100
J_4474487265 884.79 3.0 0 0 100
J_7263153539 891.12 3.0 0 0 100
J_6152308058 892.29 3.0 0 0 100
J_4475027224 904.47 3.0 0 0 100
J_4475027222 903.97 3.0 0 0 100
J_4475027231 905.99 3.0 0 0 100
J_4475027229 904.79 3.0 0 0 100
J_4475027230 904.78 3.0 0 0 100
J_4540978394 882.05 3.0 0 0 100
J_7479630892 882.71 3.0 0 0 100
J_13238937706 884.92 3.0 0 0 100
J_4734151709 886.71 3.0 0 0 100
J_12185693394 890.07 3.0 0 0 100
J_9921271169 888.44 3.0 0 0 100
J_7479630483 877.53 3.0 0 0 100
J_5370756309 894.11 3.0 0 0 100
J_5388808641 903.57 3.0 0 0 100
J_5398408451 891.94 3.0 0 0 100
J_5689989226 876.19 3.0 0 0 100
J_5689989228 875.70 3.0 0 0 100
J_5689989230 877.05 3.0 0 0 100
J_9958736551 878.91 3.0 0 0 100
J_5773497557 882.44 3.0 0 0 100
J_7736381406 882.42 3.0 0 0 100
J_8374410177 881.55 3.0 0 0 100
J_5774292417 886.21 3.0 0 0 100
J_5774292427 886.53 3.0 0 0 100
J_5774293614 886.29 3.0 0 0 100
J_5776596292 882.30 3.0 0 0 100
J_12009305215 886.43 3.0 0 0 100
J_13136176386 878.10 3.0 0 0 100
J_5777147338 878.57 3.0 0 0 100
J_5777147341 877.23 3.0 0 0 100
J_7478154515 877.01 3.0 0 0 100
J_5777147345 876.73 3.0 0 0 100
J_7478154516 877.92 3.0 0 0 100
J_5777246392 874.93 3.0 0 0 100
J_5777246422 877.15 3.0 0 0 100
J_5777246394 877.31 3.0 0 0 100
J_7328007285 877.39 3.0 0 0 100
J_5777246395 876.49 3.0 0 0 100
J_5777246407 876.87 3.0 0 0 100
J_5777246413 875.26 3.0 0 0 100
J_5777246412 876.50 3.0 0 0 100
J_5777246409 877.12 3.0 0 0 100
J_5777246411 878.10 3.0 0 0 100
J_7328007265 875.80 3.0 0 0 100
J_5777246410 876.52 3.0 0 0 100
J_7328007288 875.30 3.0 0 0 100
J_5777246426 880.61 3.0 0 0 100
J_7328007289 877.40 3.0 0 0 100
J_7328007286 876.66 3.0 0 0 100
J_5777246425 875.71 3.0 0 0 100
J_5778503766 887.02 3.0 0 0 100
J_12690206052 888.78 3.0 0 0 100
J_5843951128 889.85 3.0 0 0 100
J_6894177760 889.36 3.0 0 0 100
J_11414694995 887.62 3.0 0 0 100
J_7147053364 886.96 3.0 0 0 100
J_12187854996 893.93 3.0 0 0 100
J_10175064193 880.23 3.0 0 0 100
J_7298619209 881.15 3.0 0 0 100
J_6019669025 887.35 3.0 0 0 100
J_6019669026 886.35 3.0 0 0 100
J_7479631470 883.12 3.0 0 0 100
J_7328007243 876.82 3.0 0 0 100
J_6137643401 879.21 3.0 0 0 100
J_13134720405 880.12 3.0 0 0 100
J_13134720410 879.67 3.0 0 0 100
J_6141748417 876.73 3.0 0 0 100
J_6141748418 880.29 3.0 0 0 100
J_6141753923 898.93 3.0 0 0 100
J_12100338250 898.71 3.0 0 0 100
J_9510028744 899.13 3.0 0 0 100
J_6141753927 897.21 3.0 0 0 100
J_10994377647 897.95 3.0 0 0 100
J_6141957193 880.99 3.0 0 0 100
J_6141957194 881.41 3.0 0 0 100
J_6141957197 880.66 3.0 0 0 100
J_6141957196 880.30 3.0 0 0 100
J_6141957195 881.84 3.0 0 0 100
J_6142233154 891.71 3.0 0 0 100
J_7043760928 891.65 3.0 0 0 100
J_6142233157 891.14 3.0 0 0 100
J_6143252362 883.75 3.0 0 0 100
J_6143252363 882.58 3.0 0 0 100
J_7437331404 884.34 3.0 0 0 100
J_7437296682 883.50 3.0 0 0 100
J_6144032626 904.19 3.0 0 0 100
J_6144095981 889.31 3.0 0 0 100
J_13875979441 889.90 3.0 0 0 100
J_6152784946 883.97 3.0 0 0 100
J_11395651197 891.44 3.0 0 0 100
J_11685087325 890.90 3.0 0 0 100
J_7478154579 878.83 3.0 0 0 100
J_6180290589 879.50 3.0 0 0 100
J_6180290590 879.56 3.0 0 0 100
J_6180291877 892.02 3.0 0 0 100
J_13736567811 893.90 3.0 0 0 100
J_6180291884 894.25 3.0 0 0 100
J_6180293488 891.62 3.0 0 0 100
J_13742285043 891.87 3.0 0 0 100
J_6180297957 887.70 3.0 0 0 100
J_10996777702 887.73 3.0 0 0 100
J_10996868634 887.42 3.0 0 0 100
J_6194008056 881.80 3.0 0 0 100
J_6194014538 903.42 3.0 0 0 100
J_11408964582 904.22 3.0 0 0 100
J_7484216053 904.91 3.0 0 0 100
J_7147081175 879.55 3.0 0 0 100
J_7479631105 877.69 3.0 0 0 100
J_6196883741 893.93 3.0 0 0 100
J_10168279045 894.15 3.0 0 0 100
J_6196883747 896.19 3.0 0 0 100
J_6888399011 895.32 3.0 0 0 100
J_9749202516 895.63 3.0 0 0 100
J_6196989886 880.46 3.0 0 0 100
J_6196989887 880.72 3.0 0 0 100
J_10172938612 881.69 3.0 0 0 100
J_6196989892 881.54 3.0 0 0 100
J_6196989891 880.96 3.0 0 0 100
J_10172938610 881.90 3.0 0 0 100
J_10172938605 884.09 3.0 0 0 100
J_6196989889 881.38 3.0 0 0 100
J_11066374004 880.28 3.0 0 0 100
J_6196989890 881.24 3.0 0 0 100
J_10172942118 881.77 3.0 0 0 100
J_7479630751 882.67 3.0 0 0 100
J_7263153521 891.18 3.0 0 0 100
J_6197671075 877.97 3.0 0 0 100
J_11290340685 890.23 3.0 0 0 100
J_6499300016 877.28 3.0 0 0 100
J_7328007824 875.87 3.0 0 0 100
J_11395791821 892.26 3.0 0 0 100
J_6505394017 891.22 3.0 0 0 100
J_10680776590 891.95 3.0 0 0 100
J_6753563683 889.36 3.0 0 0 100
J_6536473096 898.42 3.0 0 0 100
J_6536473097 898.14 3.0 0 0 100
J_9846394226 898.28 3.0 0 0 100
J_6536473098 899.14 3.0 0 0 100
J_6536473100 898.83 3.0 0 0 100
J_11397532787 898.50 3.0 0 0 100
J_6536473106 898.90 3.0 0 0 100
J_6536473109 901.06 3.0 0 0 100
J_11397532788 898.65 3.0 0 0 100
J_11397532789 899.18 3.0 0 0 100
J_6536473137 901.37 3.0 0 0 100
J_6536473138 901.69 3.0 0 0 100
J_6536882163 899.32 3.0 0 0 100
J_6536882164 898.30 3.0 0 0 100
J_6536884402 897.65 3.0 0 0 100
J_10994329181 899.03 3.0 0 0 100
J_6536884398 898.20 3.0 0 0 100
J_10994377346 898.55 3.0 0 0 100
J_6536884400 899.75 3.0 0 0 100
J_6536884401 898.65 3.0 0 0 100
J_6536884405 900.31 3.0 0 0 100
J_10994329190 898.42 3.0 0 0 100
J_6562185320 904.15 3.0 0 0 100
J_1275552789 905.30 3.0 0 0 100
J_6631012279 899.76 3.0 0 0 100
J_10172868164 902.15 3.0 0 0 100
J_9824245046 896.66 3.0 0 0 100
J_6749735684 884.21 3.0 0 0 100
J_6768481191 889.69 3.0 0 0 100
J_7043731241 890.84 3.0 0 0 100
J_6753563684 888.56 3.0 0 0 100
J_6755740921 875.35 3.0 0 0 100
J_10989354751 875.10 3.0 0 0 100
J_6755740924 877.40 3.0 0 0 100
J_6755740926 875.25 3.0 0 0 100
J_7328007827 876.36 3.0 0 0 100
J_6758558441 886.33 3.0 0 0 100
J_10996648270 889.89 3.0 0 0 100
J_6758646579 879.02 3.0 0 0 100
J_6768481190 890.39 3.0 0 0 100
J_6802224014 893.01 3.0 0 0 100
J_6802224015 891.65 3.0 0 0 100
J_6884558829 885.30 3.0 0 0 100
J_6885777456 906.01 3.0 0 0 100
J_6902137283 905.05 3.0 0 0 100
J_6885777458 903.51 3.0 0 0 100
J_6887668015 891.21 3.0 0 0 100
J_9840153329 892.52 3.0 0 0 100
J_12443097988 892.00 3.0 0 0 100
J_12147412804 891.60 3.0 0 0 100
J_9796082511 893.61 3.0 0 0 100
J_9796082514 895.13 3.0 0 0 100
J_6894631549 890.68 3.0 0 0 100
J_6894631550 889.08 3.0 0 0 100
J_6901616696 880.72 3.0 0 0 100
J_6901616701 878.80 3.0 0 0 100
J_6901616703 877.83 3.0 0 0 100
J_12452602835 879.56 3.0 0 0 100
J_12194261264 878.91 3.0 0 0 100
J_6904648003 896.24 3.0 0 0 100
J_6911622972 897.82 3.0 0 0 100
J_6911622971 896.38 3.0 0 0 100
J_6914358596 880.75 3.0 0 0 100
J_6914358633 879.82 3.0 0 0 100
J_6914358616 880.92 3.0 0 0 100
J_6914358625 881.41 3.0 0 0 100
J_6914358630 881.21 3.0 0 0 100
J_12462722212 880.90 3.0 0 0 100
J_6914358626 881.49 3.0 0 0 100
J_6914358627 880.79 3.0 0 0 100
J_9179098233 880.90 3.0 0 0 100
J_7479631043 879.91 3.0 0 0 100
J_7479631050 880.67 3.0 0 0 100
J_7479631061 882.33 3.0 0 0 100
J_6914358648 879.74 3.0 0 0 100
J_6914358631 881.23 3.0 0 0 100
J_6914358649 879.94 3.0 0 0 100
J_10182456214 881.95 3.0 0 0 100
J_7479630545 879.06 3.0 0 0 100
J_6968263670 900.68 3.0 0 0 100
J_7095228341 877.02 3.0 0 0 100
J_7478154530 877.64 3.0 0 0 100
J_7095228343 876.50 3.0 0 0 100
J_7095265249 878.12 3.0 0 0 100
J_7097308434 891.69 3.0 0 0 100
J_7097308435 890.55 3.0 0 0 100
J_7138066340 877.02 3.0 0 0 100
J_13130383416 877.26 3.0 0 0 100
J_7147081174 880.21 3.0 0 0 100
J_7479630457 878.58 3.0 0 0 100
J_7479630456 877.90 3.0 0 0 100
J_7147100015 876.82 3.0 0 0 100
J_13134720443 879.79 3.0 0 0 100
J_7147100023 879.85 3.0 0 0 100
J_13823559216 880.22 3.0 0 0 100
J_7147986885 891.72 3.0 0 0 100
J_7147986187 893.13 3.0 0 0 100
J_12651830520 893.16 3.0 0 0 100
J_7263153520 892.18 3.0 0 0 100
J_7265834830 892.83 3.0 0 0 100
J_7263153527 894.59 3.0 0 0 100
J_7265834819 891.86 3.0 0 0 100
J_7263316361 903.32 3.0 0 0 100
J_7266164815 905.30 3.0 0 0 100
J_9179098228 880.22 3.0 0 0 100
J_7298619246 882.17 3.0 0 0 100
J_12558535618 881.55 3.0 0 0 100
J_13135583058 881.26 3.0 0 0 100
J_9757079871 882.83 3.0 0 0 100
J_7301789573 888.09 3.0 0 0 100
J_10996655571 889.31 3.0 0 0 100
J_7301790589 890.64 3.0 0 0 100
J_7328007238 876.88 3.0 0 0 100
J_7478154531 877.34 3.0 0 0 100
J_7328007284 875.29 3.0 0 0 100
J_7328007287 875.83 3.0 0 0 100
J_7478154670 877.68 3.0 0 0 100
J_7328007723 877.17 3.0 0 0 100
J_7328007816 878.08 3.0 0 0 100
J_7602632240 877.84 3.0 0 0 100
J_7328099161 879.03 3.0 0 0 100
J_7328007822 876.13 3.0 0 0 100
J_7328007823 876.72 3.0 0 0 100
J_7328099142 876.98 3.0 0 0 100
J_7328099147 879.40 3.0 0 0 100
J_7328099157 878.04 3.0 0 0 100
J_7328099162 877.49 3.0 0 0 100
J_7328345273 905.09 3.0 0 0 100
J_13142028564 905.65 3.0 0 0 100
J_7328345275 903.27 3.0 0 0 100
J_12415673019 905.14 3.0 0 0 100
J_13142028560 904.70 3.0 0 0 100
J_7328379058 903.39 3.0 0 0 100
J_7328379077 904.96 3.0 0 0 100
J_7328379154 892.53 3.0 0 0 100
J_7328379156 893.99 3.0 0 0 100
J_9849585566 893.10 3.0 0 0 100
J_11707855552 895.21 3.0 0 0 100
J_7328379167 893.96 3.0 0 0 100
J_13736562866 894.28 3.0 0 0 100
J_7328379176 893.29 3.0 0 0 100
J_7328379201 891.73 3.0 0 0 100
J_7432261686 889.90 3.0 0 0 100
J_7432261687 889.79 3.0 0 0 100
J_7479631027 882.27 3.0 0 0 100
J_7479630316 883.79 3.0 0 0 100
J_7437296683 884.26 3.0 0 0 100
J_7479630324 884.49 3.0 0 0 100
J_7437331394 881.94 3.0 0 0 100
J_7437331401 880.78 3.0 0 0 100
J_7479631031 881.23 3.0 0 0 100
J_7437331400 883.49 3.0 0 0 100
J_7465559431 877.75 3.0 0 0 100
J_11432092734 875.64 3.0 0 0 100
J_7478154505 877.64 3.0 0 0 100
J_7478154524 878.81 3.0 0 0 100
J_7478154518 877.91 3.0 0 0 100
J_7478154523 876.34 3.0 0 0 100
J_7478154532 877.30 3.0 0 0 100
J_7478154534 877.87 3.0 0 0 100
J_7478154539 876.30 3.0 0 0 100
J_7478154545 876.34 3.0 0 0 100
J_7478154544 877.34 3.0 0 0 100
J_7478154575 879.41 3.0 0 0 100
J_7478154576 878.03 3.0 0 0 100
J_7478154577 877.87 3.0 0 0 100
J_11433644719 878.01 3.0 0 0 100
J_7478154725 886.43 3.0 0 0 100
J_7478154786 886.38 3.0 0 0 100
J_12447971611 882.91 3.0 0 0 100
J_7478154787 885.08 3.0 0 0 100
J_11921590003 886.42 3.0 0 0 100
J_12446863535 892.35 3.0 0 0 100
J_12443097983 890.90 3.0 0 0 100
J_7479630319 882.30 3.0 0 0 100
J_7479630422 882.63 3.0 0 0 100
J_7479630444 879.74 3.0 0 0 100
J_7479630455 878.89 3.0 0 0 100
J_7479630458 877.78 3.0 0 0 100
J_7479630480 879.27 3.0 0 0 100
J_7479630512 880.49 3.0 0 0 100
J_7479630537 879.69 3.0 0 0 100
J_7479630747 881.47 3.0 0 0 100
J_7479630756 883.70 3.0 0 0 100
J_9784518335 882.77 3.0 0 0 100
J_10172935935 884.51 3.0 0 0 100
J_7479630767 882.75 3.0 0 0 100
J_7479630769 884.44 3.0 0 0 100
J_7479630772 883.12 3.0 0 0 100
J_7479630773 881.24 3.0 0 0 100
J_9784518332 880.85 3.0 0 0 100
J_7479630774 880.81 3.0 0 0 100
J_7479630779 880.45 3.0 0 0 100
J_11434263476 883.15 3.0 0 0 100
J_12477867928 883.97 3.0 0 0 100
J_7479630777 882.90 3.0 0 0 100
J_7479630778 880.72 3.0 0 0 100
J_7479630836 877.74 3.0 0 0 100
J_7479630845 878.88 3.0 0 0 100
J_7479630846 879.37 3.0 0 0 100
J_7479630851 880.38 3.0 0 0 100
J_7479630857 880.71 3.0 0 0 100
J_9784652733 880.18 3.0 0 0 100
J_7479630860 879.17 3.0 0 0 100
J_7479630866 879.42 3.0 0 0 100
J_7479630871 879.45 3.0 0 0 100
J_7479630868 880.45 3.0 0 0 100
J_7479630875 881.00 3.0 0 0 100
J_7479630878 879.23 3.0 0 0 100
J_7479630883 878.81 3.0 0 0 100
J_7479630901 882.23 3.0 0 0 100
J_7479630959 884.22 3.0 0 0 100
J_11434843380 883.11 3.0 0 0 100
J_7479630941 882.23 3.0 0 0 100
J_7479630944 882.40 3.0 0 0 100
J_12464922958 881.77 3.0 0 0 100
J_7479630985 882.12 3.0 0 0 100
J_7479631021 884.00 3.0 0 0 100
J_7479631030 881.18 3.0 0 0 100
J_7479631047 881.74 3.0 0 0 100
J_7479631049 881.82 3.0 0 0 100
J_7479631125 891.52 3.0 0 0 100
J_7479631135 889.95 3.0 0 0 100
J_7479631134 891.61 3.0 0 0 100
J_7479631136 891.55 3.0 0 0 100
J_7479631147 889.19 3.0 0 0 100
J_7479631152 891.48 3.0 0 0 100
J_7479631169 890.70 3.0 0 0 100
J_7479631180 891.18 3.0 0 0 100
J_7479631187 890.53 3.0 0 0 100
J_7479631192 888.51 3.0 0 0 100
J_7479631213 889.95 3.0 0 0 100
J_7479631444 885.55 3.0 0 0 100
J_10948126480 885.09 3.0 0 0 100
J_7479631471 881.14 3.0 0 0 100
J_7479631476 876.64 3.0 0 0 100
J_7484216047 904.14 3.0 0 0 100
J_10182376309 904.41 3.0 0 0 100
J_7484216051 903.75 3.0 0 0 100
J_7484216052 903.82 3.0 0 0 100
J_10182376302 904.14 3.0 0 0 100
J_13130383417 876.61 3.0 0 0 100
J_7602632242 876.78 3.0 0 0 100
J_11009632658 880.04 3.0 0 0 100
J_10196255890 879.56 3.0 0 0 100
J_8609029843 884.80 3.0 0 0 100
J_12279397377 884.39 3.0 0 0 100
J_9179098226 880.58 3.0 0 0 100
J_9510028747 896.80 3.0 0 0 100
J_11121177292 898.95 3.0 0 0 100
J_10994453386 898.92 3.0 0 0 100
J_9510028770 896.45 3.0 0 0 100
J_9525461684 892.99 3.0 0 0 100
J_9708811991 879.56 3.0 0 0 100
J_12147412806 891.14 3.0 0 0 100
J_12169759724 895.09 3.0 0 0 100
J_9757079870 882.90 3.0 0 0 100
J_9757079872 881.72 3.0 0 0 100
J_13135583074 883.30 3.0 0 0 100
J_13135583071 881.24 3.0 0 0 100
J_9759551602 893.39 3.0 0 0 100
J_12169759734 895.45 3.0 0 0 100
J_9784518333 882.52 3.0 0 0 100
J_9784518334 882.81 3.0 0 0 100
J_11434263478 880.78 3.0 0 0 100
J_13343872440 890.75 3.0 0 0 100
J_10168279044 892.91 3.0 0 0 100
J_9796082515 893.90 3.0 0 0 100
J_9796708050 902.36 3.0 0 0 100
J_9824051075 876.57 3.0 0 0 100
J_9824245043 897.07 3.0 0 0 100
J_11184918138 897.26 3.0 0 0 100
J_9826793285 890.98 3.0 0 0 100
J_9826793286 891.13 3.0 0 0 100
J_11233009356 888.16 3.0 0 0 100
J_12506414300 889.98 3.0 0 0 100
J_9846394217 896.66 3.0 0 0 100
J_11428038811 897.84 3.0 0 0 100
J_10969136196 898.23 3.0 0 0 100
J_10969136194 897.85 3.0 0 0 100
J_13877530781 892.28 3.0 0 0 100
J_11509998741 891.50 3.0 0 0 100
J_13903770309 890.31 3.0 0 0 100
J_10172868165 901.52 3.0 0 0 100
J_10172914467 882.48 3.0 0 0 100
J_10172935937 883.06 3.0 0 0 100
J_10172935939 881.77 3.0 0 0 100
J_10172942119 881.69 3.0 0 0 100
J_10172979378 875.37 3.0 0 0 100
J_11359603296 878.63 3.0 0 0 100
J_11432115299 876.35 3.0 0 0 100
J_10172979412 882.60 3.0 0 0 100
J_10172979415 882.86 3.0 0 0 100
J_10172982422 880.47 3.0 0 0 100
J_10173119094 880.74 3.0 0 0 100
J_13140374056 879.90 3.0 0 0 100
J_10173119096 878.41 3.0 0 0 100
J_10175047394 886.97 3.0 0 0 100
J_10175047396 878.07 3.0 0 0 100
J_10182373816 907.24 3.0 0 0 100
J_10182376305 904.01 3.0 0 0 100
J_10182376304 905.16 3.0 0 0 100
J_10182376306 902.97 3.0 0 0 100
J_10182376308 902.38 3.0 0 0 100
J_10182376310 902.64 3.0 0 0 100
J_10182379412 885.23 3.0 0 0 100
J_12198988557 886.96 3.0 0 0 100
J_12432886068 887.55 3.0 0 0 100
J_10182451858 902.43 3.0 0 0 100
J_11290335534 892.37 3.0 0 0 100
J_12651793611 891.01 3.0 0 0 100
J_10221211848 895.19 3.0 0 0 100
J_12169759733 893.66 3.0 0 0 100
J_12169759721 894.69 3.0 0 0 100
J_10948126479 885.75 3.0 0 0 100
J_12106511659 886.34 3.0 0 0 100
J_12144258015 904.40 3.0 0 0 100
J_10994159749 905.08 3.0 0 0 100
J_10994329192 899.76 3.0 0 0 100
J_10994329200 899.61 3.0 0 0 100
J_10994377348 900.70 3.0 0 0 100
J_12443901195 890.94 3.0 0 0 100
J_10994411032 892.57 3.0 0 0 100
J_10994402343 891.76 3.0 0 0 100
J_10994402344 893.24 3.0 0 0 100
J_10994402345 894.12 3.0 0 0 100
J_12435660636 891.52 3.0 0 0 100
J_10994411033 892.41 3.0 0 0 100
J_11017145233 888.49 3.0 0 0 100
J_10996655572 888.65 3.0 0 0 100
J_10996777703 886.40 3.0 0 0 100
J_10996868635 887.82 3.0 0 0 100
J_11034031540 886.41 3.0 0 0 100
J_10996869891 888.46 3.0 0 0 100
J_11034031538 888.83 3.0 0 0 100
J_10996869896 887.65 3.0 0 0 100
J_10996944953 891.18 3.0 0 0 100
J_10996992471 889.55 3.0 0 0 100
J_11002591560 893.42 3.0 0 0 100
J_11002608085 892.47 3.0 0 0 100
J_13347226823 892.27 3.0 0 0 100
J_11009627053 882.57 3.0 0 0 100
J_11009632657 880.42 3.0 0 0 100
J_11011674942 886.96 3.0 0 0 100
J_11011674943 886.23 3.0 0 0 100
J_11011971396 884.42 3.0 0 0 100
J_11025131193 876.44 3.0 0 0 100
J_11034031539 887.54 3.0 0 0 100
J_11034031541 886.44 3.0 0 0 100
J_11075395481 886.09 3.0 0 0 100
J_11121177293 896.61 3.0 0 0 100
J_12151494704 882.46 3.0 0 0 100
J_11220661004 881.36 3.0 0 0 100
J_11233009357 889.60 3.0 0 0 100
J_11260020609 891.34 3.0 0 0 100
J_11260020610 892.00 3.0 0 0 100
J_11955031767 893.76 3.0 0 0 100
J_11395511434 888.82 3.0 0 0 100
J_11397517841 900.80 3.0 0 0 100
J_11408964579 906.84 3.0 0 0 100
J_11408964580 904.66 3.0 0 0 100
J_11408964584 904.86 3.0 0 0 100
J_11408964581 905.34 3.0 0 0 100
J_11408964583 905.68 3.0 0 0 100
J_11408964589 904.48 3.0 0 0 100
J_11408964585 905.99 3.0 0 0 100
J_11408964587 906.30 3.0 0 0 100
J_11408964586 905.65 3.0 0 0 100
J_11408964590 904.55 3.0 0 0 100
J_11408964588 904.75 3.0 0 0 100
J_11408964591 904.56 3.0 0 0 100
J_11414694996 887.62 3.0 0 0 100
J_11414759654 887.37 3.0 0 0 100
J_11428038810 895.91 3.0 0 0 100
J_11428038812 897.15 3.0 0 0 100
J_11428038814 897.40 3.0 0 0 100
J_11428038815 896.96 3.0 0 0 100
J_11922878283 898.10 3.0 0 0 100
J_12060861662 897.05 3.0 0 0 100
J_11428038817 895.59 3.0 0 0 100
J_11433644720 876.73 3.0 0 0 100
J_11433644721 878.06 3.0 0 0 100
J_12477867929 881.69 3.0 0 0 100
J_13928938237 892.50 3.0 0 0 100
J_11703595135 889.41 3.0 0 0 100
J_11873774240 889.94 3.0 0 0 100
J_12157177352 888.67 3.0 0 0 100
J_11921590006 886.85 3.0 0 0 100
J_12169759722 893.77 3.0 0 0 100
J_12137575005 886.51 3.0 0 0 100
J_13757868548 894.80 3.0 0 0 100
J_12060861592 887.85 3.0 0 0 100
J_12100338251 898.62 3.0 0 0 100
J_12106511663 883.77 3.0 0 0 100
J_12144258013 902.48 3.0 0 0 100
J_12145839288 890.10 3.0 0 0 100
J_12147412805 889.81 3.0 0 0 100
J_12169759723 893.57 3.0 0 0 100
J_12169759726 894.54 3.0 0 0 100
J_12169759731 895.81 3.0 0 0 100
J_12963900368 893.88 3.0 0 0 100
J_12176161390 894.01 3.0 0 0 100
J_13743331082 894.24 3.0 0 0 100
J_12176161400 894.30 3.0 0 0 100
J_12185693393 889.79 3.0 0 0 100
J_12187854997 893.94 3.0 0 0 100
J_12198988556 887.56 3.0 0 0 100
J_12250445350 876.75 3.0 0 0 100
J_12278137174 883.97 3.0 0 0 100
J_12543439896 887.33 3.0 0 0 100
J_12435660637 892.06 3.0 0 0 100
J_12443097982 892.29 3.0 0 0 100
J_12443097985 892.29 3.0 0 0 100
J_12443097984 891.51 3.0 0 0 100
J_12443097987 891.53 3.0 0 0 100
J_12443097986 893.16 3.0 0 0 100
J_12443097989 891.78 3.0 0 0 100
J_12446863536 891.71 3.0 0 0 100
J_12468537408 891.66 3.0 0 0 100
J_12655271582 887.79 3.0 0 0 100
J_12963900366 893.01 3.0 0 0 100
J_12997741438 895.78 3.0 0 0 100
J_13877530782 892.33 3.0 0 0 100
J_13077693352 893.17 3.0 0 0 100
J_13130383419 876.06 3.0 0 0 100
J_13134720404 878.45 3.0 0 0 100
J_13134720442 879.66 3.0 0 0 100
J_13135583069 881.19 3.0 0 0 100
J_13136176381 878.51 3.0 0 0 100
J_13137760928 890.64 3.0 0 0 100
J_13137760956 892.54 3.0 0 0 100
J_13140521147 889.19 3.0 0 0 100
J_13142028562 905.37 3.0 0 0 100
J_13142028597 904.43 3.0 0 0 100
J_13238937707 883.81 3.0 0 0 100
J_13347226822 892.05 3.0 0 0 100
J_13736562871 894.05 3.0 0 0 100
J_13736567810 892.61 3.0 0 0 100
J_13738231244 891.21 3.0 0 0 100
J_13743331025 894.38 3.0 0 0 100
J_13743331043 894.17 3.0 0 0 100
J_13875979598 892.76 3.0 0 0 100
J_12956054174 895.24 3.0 0 0 100

[OUTFALLS]
;;Name Elevation Type Stage Data Gated
Outfall_1 873.90 FREE

[CONDUITS]
;;Name FromNode ToNode Length Roughness InOffset OutOffset
C_260908311_10721527309_0 J_260908311 J_10721527309 50.60 0.013 0 0
C_260908311_4472266108_0 J_260908311 J_4472266108 46.41 0.013 0 0
C_10721527309_260908311_0 J_10721527309 J_260908311 50.60 0.013 0 0
C_4472266108_4472266103_0 J_4472266108 J_4472266103 203.77 0.013 0 0
C_4472266108_8403844097_0 J_4472266108 J_8403844097 260.70 0.013 0 0
C_262268684_266371138_0 J_262268684 J_266371138 52.60 0.013 0 0
C_262268684_9828511707_0 J_262268684 J_9828511707 42.20 0.013 0 0
C_262268684_3870651477_0 J_262268684 J_3870651477 103.59 0.013 0 0
C_266371138_1644166489_0 J_266371138 J_1644166489 32.44 0.013 0 0
C_9828511707_262268684_0 J_9828511707 J_262268684 42.20 0.013 0 0
C_9828511707_5774293614_0 J_9828511707 J_5774293614 28.74 0.013 0 0
C_3870651477_3870651479_0 J_3870651477 J_3870651479 26.08 0.013 0 0
C_3870651477_262268684_0 J_3870651477 J_262268684 103.59 0.013 0 0
C_3870651477_3870651478_0 J_3870651477 J_3870651478 100.49 0.013 0 0
C_262268685_7298619223_0 J_262268685 J_7298619223 4.44 0.013 0 0
C_262268685_349027597_0 J_262268685 J_349027597 226.86 0.013 0 0
C_262268685_3870651479_0 J_262268685 J_3870651479 103.37 0.013 0 0
C_262268685_3149622374_0 J_262268685 J_3149622374 91.10 0.013 0 0
C_7298619223_262268685_0 J_7298619223 J_262268685 4.44 0.013 0 0
C_7298619223_1305577009_0 J_7298619223 J_1305577009 71.13 0.013 0 0
C_349027597_262268685_0 J_349027597 J_262268685 226.86 0.013 0 0
C_349027597_590698291_0 J_349027597 J_590698291 68.03 0.013 0 0
C_349027597_3715148292_0 J_349027597 J_3715148292 197.72 0.013 0 0
C_3870651479_3870651477_0 J_3870651479 J_3870651477 26.08 0.013 0 0
C_3870651479_262268685_0 J_3870651479 J_262268685 103.37 0.013 0 0
C_3870651479_3870651480_0 J_3870651479 J_3870651480 97.05 0.013 0 0
C_3149622374_262459524_0 J_3149622374 J_262459524 48.78 0.013 0 0
C_3149622374_262459524_1 J_3149622374 J_262459524 167.02 0.013 0 0
C_3149622374_262268685_0 J_3149622374 J_262268685 91.10 0.013 0 0
C_262459524_3149622374_0 J_262459524 J_3149622374 48.78 0.013 0 0
C_262459524_3149622374_1 J_262459524 J_3149622374 167.02 0.013 0 0
C_262459524_13144006534_0 J_262459524 J_13144006534 18.41 0.013 0 0
C_262459524_262459526_0 J_262459524 J_262459526 111.59 0.013 0 0
C_13144006534_262459524_0 J_13144006534 J_262459524 18.41 0.013 0 0
C_13144006534_11378886517_0 J_13144006534 J_11378886517 28.70 0.013 0 0
C_13144006534_3149619842_0 J_13144006534 J_3149619842 110.72 0.013 0 0
C_262459526_12655271583_0 J_262459526 J_12655271583 21.33 0.013 0 0
C_262459526_3149619842_0 J_262459526 J_3149619842 21.19 0.013 0 0
C_262459526_262459527_0 J_262459526 J_262459527 80.89 0.013 0 0
C_262459526_262459524_0 J_262459526 J_262459524 111.59 0.013 0 0
C_12655271583_11395511434_0 J_12655271583 J_11395511434 10.33 0.013 0 0
C_12655271583_262459526_0 J_12655271583 J_262459526 21.33 0.013 0 0
C_12655271583_12655271582_0 J_12655271583 J_12655271582 37.51 0.013 0 0
C_3149619842_3149619841_0 J_3149619842 J_3149619841 8.24 0.013 0 0
C_3149619842_262459526_0 J_3149619842 J_262459526 21.19 0.013 0 0
C_3149619842_13144006534_0 J_3149619842 J_13144006534 110.72 0.013 0 0
C_262459527_262459526_0 J_262459527 J_262459526 80.89 0.013 0 0
C_264129270_12183845711_0 J_264129270 J_12183845711 235.16 0.013 0 0
C_12183845711_5774292417_0 J_12183845711 J_5774292417 158.75 0.013 0 0
C_264129289_264141527_0 J_264129289 J_264141527 145.89 0.013 0 0
C_264129289_9179098227_0 J_264129289 J_9179098227 367.81 0.013 0 0
C_264129289_3141425534_0 J_264129289 J_3141425534 83.15 0.013 0 0
C_264141527_3141425542_0 J_264141527 J_3141425542 78.81 0.013 0 0
C_264141527_264129289_0 J_264141527 J_264129289 145.89 0.013 0 0
C_264141527_3161309799_0 J_264141527 J_3161309799 82.86 0.013 0 0
C_9179098227_7298619209_0 J_9179098227 J_7298619209 99.06 0.013 0 0
C_9179098227_9179098226_0 J_9179098227 J_9179098226 112.80 0.013 0 0
C_9179098227_264129289_0 J_9179098227 J_264129289 367.81 0.013 0 0
C_3141425534_3141425537_0 J_3141425534 J_3141425537 154.75 0.013 0 0
C_3141425534_264129289_0 J_3141425534 J_264129289 83.15 0.013 0 0
C_3141425534_1083495045_0 J_3141425534 J_1083495045 73.03 0.013 0 0
C_264129319_264147890_0 J_264129319 J_264147890 74.12 0.013 0 0
C_264129319_5724583886_0 J_264129319 J_5724583886 61.68 0.013 0 0
C_264129319_5930997555_0 J_264129319 J_5930997555 54.04 0.013 0 0
C_264147890_264129319_0 J_264147890 J_264129319 74.12 0.013 0 0
C_5724583886_264129319_0 J_5724583886 J_264129319 61.68 0.013 0 0
C_5724583886_9958736551_0 J_5724583886 J_9958736551 73.40 0.013 0 0
C_5724583886_10175047395_0 J_5724583886 J_10175047395 41.95 0.013 0 0
C_5930997555_10175064193_0 J_5930997555 J_10175064193 85.17 0.013 0 0
C_5930997555_264129319_0 J_5930997555 J_264129319 54.04 0.013 0 0
C_5930997555_7298619209_0 J_5930997555 J_7298619209 212.12 0.013 0 0
C_3141425542_3141425540_0 J_3141425542 J_3141425540 55.14 0.013 0 0
C_3141425542_264141527_0 J_3141425542 J_264141527 78.81 0.013 0 0
C_3141425542_3141425543_0 J_3141425542 J_3141425543 42.03 0.013 0 0
C_3161309799_3161309801_0 J_3161309799 J_3161309801 28.87 0.013 0 0
C_3161309799_3141425538_0 J_3161309799 J_3141425538 58.97 0.013 0 0
C_3161309799_264141527_0 J_3161309799 J_264141527 82.86 0.013 0 0
C_264189089_3149619847_0 J_264189089 J_3149619847 21.57 0.013 0 0
C_264189089_3149619851_0 J_264189089 J_3149619851 41.11 0.013 0 0
C_264189089_3149619853_0 J_264189089 J_3149619853 40.12 0.013 0 0
C_264189089_6536271335_0 J_264189089 J_6536271335 221.90 0.013 0 0
C_3149619847_264189089_0 J_3149619847 J_264189089 21.57 0.013 0 0
C_3149619847_3149619839_0 J_3149619847 J_3149619839 31.15 0.013 0 0
C_3149619847_13140521075_0 J_3149619847 J_13140521075 81.24 0.013 0 0
C_3149619851_264189089_0 J_3149619851 J_264189089 41.11 0.013 0 0
C_3149619851_3149619854_0 J_3149619851 J_3149619854 42.46 0.013 0 0
C_3149619851_1083500529_0 J_3149619851 J_1083500529 59.16 0.013 0 0
C_3149619851_3149619850_0 J_3149619851 J_3149619850 116.61 0.013 0 0
C_3149619853_3149619837_0 J_3149619853 J_3149619837 20.32 0.013 0 0
C_3149619853_264189089_0 J_3149619853 J_264189089 40.12 0.013 0 0
C_3149619853_3149619854_0 J_3149619853 J_3149619854 41.08 0.013 0 0
C_6536271335_1083500529_0 J_6536271335 J_1083500529 165.44 0.013 0 0
C_6536271335_264189089_0 J_6536271335 J_264189089 221.90 0.013 0 0
C_264845660_13135627938_0 J_264845660 J_13135627938 40.66 0.013 0 0
C_264845660_2389701677_0 J_264845660 J_2389701677 151.45 0.013 0 0
C_13135627938_10172979413_0 J_13135627938 J_10172979413 86.67 0.013 0 0
C_13135627938_264845660_0 J_13135627938 J_264845660 40.66 0.013 0 0
C_13135627938_12558535618_0 J_13135627938 J_12558535618 27.74 0.013 0 0
C_2389701677_3157670226_0 J_2389701677 J_3157670226 59.22 0.013 0 0
C_2389701677_574762980_0 J_2389701677 J_574762980 427.23 0.013 0 0
C_264845710_3148667904_0 J_264845710 J_3148667904 42.68 0.013 0 0
C_264845710_3148667896_0 J_264845710 J_3148667896 21.08 0.013 0 0
C_264845710_9859790834_0 J_264845710 J_9859790834 217.35 0.013 0 0
C_3148667904_264845710_0 J_3148667904 J_264845710 42.68 0.013 0 0
C_3148667904_3148668037_0 J_3148667904 J_3148668037 147.83 0.013 0 0
C_3148667904_3148667908_0 J_3148667904 J_3148667908 135.30 0.013 0 0
C_3148667896_264845710_0 J_3148667896 J_264845710 21.08 0.013 0 0
C_3148667896_10172979414_0 J_3148667896 J_10172979414 14.81 0.013 0 0
C_3148667896_6204951065_0 J_3148667896 J_6204951065 140.19 0.013 0 0
C_9859790834_264845710_0 J_9859790834 J_264845710 217.35 0.013 0 0
C_264845740_1315048083_0 J_264845740 J_1315048083 35.90 0.013 0 0
C_264845740_3872540688_0 J_264845740 J_3872540688 90.20 0.013 0 0
C_264845740_3872540686_0 J_264845740 J_3872540686 31.00 0.013 0 0
C_1315048083_264845740_0 J_1315048083 J_264845740 35.90 0.013 0 0
C_1315048083_2387579012_0 J_1315048083 J_2387579012 14.30 0.013 0 0
C_1315048083_1315048075_0 J_1315048083 J_1315048075 205.78 0.013 0 0
C_3872540688_3872533486_0 J_3872540688 J_3872533486 33.17 0.013 0 0
C_3872540688_3872533485_0 J_3872540688 J_3872533485 31.37 0.013 0 0
C_3872540688_3872540689_0 J_3872540688 J_3872540689 66.12 0.013 0 0
C_3872540688_264845740_0 J_3872540688 J_264845740 90.20 0.013 0 0
C_3872540686_3872540684_0 J_3872540686 J_3872540684 29.58 0.013 0 0
C_3872540686_3872533485_0 J_3872540686 J_3872533485 96.41 0.013 0 0
C_3872540686_264845740_0 J_3872540686 J_264845740 31.00 0.013 0 0
C_264845751_3872533488_0 J_264845751 J_3872533488 44.74 0.013 0 0
C_264845751_3872533478_0 J_264845751 J_3872533478 55.36 0.013 0 0
C_264845751_2206930282_0 J_264845751 J_2206930282 175.67 0.013 0 0
C_3872533488_264845751_0 J_3872533488 J_264845751 44.74 0.013 0 0
C_3872533488_3872533482_0 J_3872533488 J_3872533482 88.86 0.013 0 0
C_3872533488_11404841379_0 J_3872533488 J_11404841379 32.42 0.013 0 0
C_3872533478_264845751_0 J_3872533478 J_264845751 55.36 0.013 0 0
C_3872533478_3872533474_0 J_3872533478 J_3872533474 69.20 0.013 0 0
C_3872533478_3872533476_0 J_3872533478 J_3872533476 104.62 0.013 0 0
C_2206930282_10172979379_0 J_2206930282 J_10172979379 180.71 0.013 0 0
C_2206930282_264845751_0 J_2206930282 J_264845751 175.67 0.013 0 0
C_2206930282_2206930284_0 J_2206930282 J_2206930284 110.88 0.013 0 0
C_1644166489_11527430411_0 J_1644166489 J_11527430411 195.55 0.013 0 0
C_1644166489_11070754935_0 J_1644166489 J_11070754935 940.07 0.013 0 0
C_267210547_267210550_0 J_267210547 J_267210550 155.40 0.013 0 0
C_267210547_7147115841_0 J_267210547 J_7147115841 30.15 0.013 0 0
C_267210547_7147115841_1 J_267210547 J_7147115841 208.92 0.013 0 0
C_267210550_2099691667_0 J_267210550 J_2099691667 389.61 0.013 0 0
C_267210550_5919853090_0 J_267210550 J_5919853090 104.41 0.013 0 0
C_267210550_267210547_0 J_267210550 J_267210547 155.40 0.013 0 0
C_7147115841_267210547_0 J_7147115841 J_267210547 30.15 0.013 0 0
C_7147115841_267210547_1 J_7147115841 J_267210547 208.92 0.013 0 0
C_7147115841_2099691601_0 J_7147115841 J_2099691601 212.53 0.013 0 0
C_2099691667_267210550_0 J_2099691667 J_267210550 389.61 0.013 0 0
C_2099691667_11011674941_0 J_2099691667 J_11011674941 125.01 0.013 0 0
C_5919853090_7147053364_0 J_5919853090 J_7147053364 72.20 0.013 0 0
C_5919853090_7301790590_0 J_5919853090 J_7301790590 202.75 0.013 0 0
C_5919853090_267210550_0 J_5919853090 J_267210550 104.41 0.013 0 0
C_267215656_13075849008_0 J_267215656 J_13075849008 43.18 0.013 0 0
C_267215656_3148580198_0 J_267215656 J_3148580198 8.41 0.013 0 0
C_267215656_2206930283_0 J_267215656 J_2206930283 159.49 0.013 0 0
C_13075849008_267215656_0 J_13075849008 J_267215656 43.18 0.013 0 0
C_3148580198_267215656_0 J_3148580198 J_267215656 8.41 0.013 0 0
C_3148580198_2206930293_0 J_3148580198 J_2206930293 31.34 0.013 0 0
C_3148580198_7465559430_0 J_3148580198 J_7465559430 196.91 0.013 0 0
C_2206930283_267215656_0 J_2206930283 J_267215656 159.49 0.013 0 0
C_274569246_12176161387_0 J_274569246 J_12176161387 22.05 0.013 0 0
C_274569246_274569296_0 J_274569246 J_274569296 40.60 0.013 0 0
C_274569246_3141473152_0 J_274569246 J_3141473152 25.87 0.013 0 0
C_12176161387_274569246_0 J_12176161387 J_274569246 22.05 0.013 0 0
C_12176161387_7328379157_0 J_12176161387 J_7328379157 76.40 0.013 0 0
C_12176161387_12176161390_0 J_12176161387 J_12176161390 41.63 0.013 0 0
C_274569296_7328379155_0 J_274569296 J_7328379155 63.75 0.013 0 0
C_274569296_274569309_0 J_274569296 J_274569309 36.14 0.013 0 0
C_274569296_274569246_0 J_274569296 J_274569246 40.60 0.013 0 0
C_3141473152_3504895273_0 J_3141473152 J_3504895273 23.88 0.013 0 0
C_3141473152_1186777956_0 J_3141473152 J_1186777956 58.95 0.013 0 0
C_3141473152_274569246_0 J_3141473152 J_274569246 25.87 0.013 0 0
C_7328379155_274569296_0 J_7328379155 J_274569296 63.75 0.013 0 0
C_7328379155_7328379156_0 J_7328379155 J_7328379156 36.97 0.013 0 0
C_7328379155_9849585566_0 J_7328379155 J_9849585566 100.13 0.013 0 0
C_274569309_274570242_0 J_274569309 J_274570242 21.80 0.013 0 0
C_274569309_274569296_0 J_274569309 J_274569296 36.14 0.013 0 0
C_274569309_7328379172_0 J_274569309 J_7328379172 43.87 0.013 0 0
C_274570242_274569309_0 J_274570242 J_274569309 21.80 0.013 0 0
C_274570242_3170006930_0 J_274570242 J_3170006930 63.27 0.013 0 0
C_274570242_11563497460_0 J_274570242 J_11563497460 38.78 0.013 0 0
C_7328379172_274569309_0 J_7328379172 J_274569309 43.87 0.013 0 0
C_274569328_7328379173_0 J_274569328 J_7328379173 15.86 0.013 0 0
C_274569328_3141473132_0 J_274569328 J_3141473132 19.76 0.013 0 0
C_274569328_3141472722_0 J_274569328 J_3141472722 97.05 0.013 0 0
C_7328379173_11563497460_0 J_7328379173 J_11563497460 3.62 0.013 0 0
C_7328379173_274569328_0 J_7328379173 J_274569328 15.86 0.013 0 0
C_7328379173_3170006931_0 J_7328379173 J_3170006931 68.57 0.013 0 0
C_3141473132_3141473133_0 J_3141473132 J_3141473133 66.21 0.013 0 0
C_3141473132_274569328_0 J_3141473132 J_274569328 19.76 0.013 0 0
C_3141473132_3141473135_0 J_3141473132 J_3141473135 37.68 0.013 0 0
C_3141472722_13742285040_0 J_3141472722 J_13742285040 3.31 0.013 0 0
C_3141472722_3141452102_0 J_3141472722 J_3141452102 26.73 0.013 0 0
C_3141472722_274569328_0 J_3141472722 J_274569328 97.05 0.013 0 0
C_274569348_3141473140_0 J_274569348 J_3141473140 27.27 0.013 0 0
C_274569348_3141473150_0 J_274569348 J_3141473150 30.80 0.013 0 0
C_274569348_3141473145_0 J_274569348 J_3141473145 128.04 0.013 0 0
C_3141473140_3141473138_0 J_3141473140 J_3141473138 25.47 0.013 0 0
C_3141473140_274569348_0 J_3141473140 J_274569348 27.27 0.013 0 0
C_3141473140_6505328002_0 J_3141473140 J_6505328002 127.32 0.013 0 0
C_3141473150_3141473151_0 J_3141473150 J_3141473151 81.73 0.013 0 0
C_3141473150_274569348_0 J_3141473150 J_274569348 30.80 0.013 0 0
C_3141473150_3141473146_0 J_3141473150 J_3141473146 36.00 0.013 0 0
C_3141473145_6505328002_0 J_3141473145 J_6505328002 27.41 0.013 0 0
C_3141473145_274569348_0 J_3141473145 J_274569348 128.04 0.013 0 0
C_3141473145_3141473149_0 J_3141473145 J_3141473149 48.12 0.013 0 0
C_3170006930_3170006931_0 J_3170006930 J_3170006931 38.60 0.013 0 0
C_3170006930_274570242_0 J_3170006930 J_274570242 63.27 0.013 0 0
C_3170006930_4447421339_0 J_3170006930 J_4447421339 60.50 0.013 0 0
C_11563497460_7328379173_0 J_11563497460 J_7328379173 3.62 0.013 0 0
C_11563497460_274569309_0 J_11563497460 J_274569309 42.15 0.013 0 0
C_274570292_1387622103_0 J_274570292 J_1387622103 55.52 0.013 0 0
C_274570292_4824673767_0 J_274570292 J_4824673767 13.61 0.013 0 0
C_274570292_7328379200_0 J_274570292 J_7328379200 143.59 0.013 0 0
C_1387622103_3141475567_0 J_1387622103 J_3141475567 75.77 0.013 0 0
C_1387622103_274570292_0 J_1387622103 J_274570292 55.52 0.013 0 0
C_1387622103_4824673767_0 J_1387622103 J_4824673767 52.41 0.013 0 0
C_4824673767_4447421339_0 J_4824673767 J_4447421339 104.51 0.013 0 0
C_4824673767_274570292_0 J_4824673767 J_274570292 13.61 0.013 0 0
C_4824673767_1387622103_0 J_4824673767 J_1387622103 52.41 0.013 0 0
C_7328379200_7328379201_0 J_7328379200 J_7328379201 66.52 0.013 0 0
C_7328379200_3778310159_0 J_7328379200 J_3778310159 435.46 0.013 0 0
C_7328379200_274570292_0 J_7328379200 J_274570292 143.59 0.013 0 0
C_274576719_4475150582_0 J_274576719 J_4475150582 134.63 0.013 0 0
C_274576719_2268546167_0 J_274576719 J_2268546167 65.81 0.013 0 0
C_4475150582_1387622086_0 J_4475150582 J_1387622086 8.67 0.013 0 0
C_4475150582_2268546156_0 J_4475150582 J_2268546156 23.79 0.013 0 0
C_4475150582_274576719_0 J_4475150582 J_274576719 134.63 0.013 0 0
C_2268546167_10725368291_0 J_2268546167 J_10725368291 63.10 0.013 0 0
C_2268546167_274576719_0 J_2268546167 J_274576719 65.81 0.013 0 0
C_2268546167_2268546166_0 J_2268546167 J_2268546166 25.14 0.013 0 0
C_292565231_7479630325_0 J_292565231 J_7479630325 30.10 0.013 0 0
C_292565231_7479630930_0 J_292565231 J_7479630930 14.20 0.013 0 0
C_292565231_7479630950_0 J_292565231 J_7479630950 24.40 0.013 0 0
C_7479630325_292565231_0 J_7479630325 J_292565231 30.10 0.013 0 0
C_7479630325_7479630324_0 J_7479630325 J_7479630324 17.43 0.013 0 0
C_7479630930_11434843380_0 J_7479630930 J_11434843380 81.59 0.013 0 0
C_7479630930_7479630320_0 J_7479630930 J_7479630320 16.47 0.013 0 0
C_7479630930_292565231_0 J_7479630930 J_292565231 14.20 0.013 0 0
C_7479630950_292565231_0 J_7479630950 J_292565231 24.40 0.013 0 0
C_7479630950_7437296682_0 J_7479630950 J_7437296682 4.49 0.013 0 0
C_7479630950_7479630944_0 J_7479630950 J_7479630944 190.18 0.013 0 0
C_292565243_7478154729_0 J_292565243 J_7478154729 27.56 0.013 0 0
C_292565243_7478154719_0 J_292565243 J_7478154719 19.18 0.013 0 0
C_292565243_7479630320_0 J_292565243 J_7479630320 112.01 0.013 0 0
C_7478154729_292565243_0 J_7478154729 J_292565243 27.56 0.013 0 0
C_7478154729_12447971611_0 J_7478154729 J_12447971611 63.75 0.013 0 0
C_7478154729_1914928013_0 J_7478154729 J_1914928013 209.67 0.013 0 0
C_7478154729_7478154725_0 J_7478154729 J_7478154725 155.12 0.013 0 0
C_7478154719_7478154731_0 J_7478154719 J_7478154731 32.40 0.013 0 0
C_7478154719_292565243_0 J_7478154719 J_292565243 19.18 0.013 0 0
C_7479630320_7479630319_0 J_7479630320 J_7479630319 31.02 0.013 0 0
C_7479630320_7479630930_0 J_7479630320 J_7479630930 16.47 0.013 0 0
C_7479630320_292565243_0 J_7479630320 J_292565243 112.01 0.013 0 0
C_293709519_2034648224_0 J_293709519 J_2034648224 3.28 0.013 0 0
C_293709519_3771990524_0 J_293709519 J_3771990524 1137.11 0.013 0 0
C_293709519_2268546111_0 J_293709519 J_2268546111 188.25 0.013 0 0
C_2034648224_293709519_0 J_2034648224 J_293709519 3.28 0.013 0 0
C_2034648224_7328379076_0 J_2034648224 J_7328379076 295.66 0.013 0 0
C_2034648224_2034648233_0 J_2034648224 J_2034648233 161.31 0.013 0 0
C_3771990524_3771990522_0 J_3771990524 J_3771990522 29.75 0.013 0 0
C_3771990524_293709519_0 J_3771990524 J_293709519 1137.11 0.013 0 0
C_3771990524_3771990535_0 J_3771990524 J_3771990535 29.76 0.013 0 0
C_2268546111_2268546121_0 J_2268546111 J_2268546121 34.89 0.013 0 0
C_2268546111_2034648234_0 J_2268546111 J_2034648234 89.03 0.013 0 0
C_2268546111_293709519_0 J_2268546111 J_293709519 188.25 0.013 0 0
C_293709525_3771990505_0 J_293709525 J_3771990505 43.27 0.013 0 0
C_293709525_7328379022_0 J_293709525 J_7328379022 97.70 0.013 0 0
C_293709525_7328379067_0 J_293709525 J_7328379067 132.98 0.013 0 0
C_3771990505_293709525_0 J_3771990505 J_293709525 43.27 0.013 0 0
C_3771990505_2180904962_0 J_3771990505 J_2180904962 130.41 0.013 0 0
C_3771990505_3771990469_0 J_3771990505 J_3771990469 230.34 0.013 0 0
C_7328379022_293709525_0 J_7328379022 J_293709525 97.70 0.013 0 0
C_7328379067_293709525_0 J_7328379067 J_293709525 132.98 0.013 0 0
C_7328379067_6144032627_0 J_7328379067 J_6144032627 372.55 0.013 0 0
C_7328379067_7328379058_0 J_7328379067 J_7328379058 253.83 0.013 0 0
C_302499540_6197379428_0 J_302499540 J_6197379428 143.50 0.013 0 0
C_302499540_1748486107_0 J_302499540 J_1748486107 119.85 0.013 0 0
C_302499540_5778474214_0 J_302499540 J_5778474214 191.57 0.013 0 0
C_6197379428_302499540_0 J_6197379428 J_302499540 143.50 0.013 0 0
C_6197379428_1132734424_0 J_6197379428 J_1132734424 215.30 0.013 0 0
C_6197379428_7263153521_0 J_6197379428 J_7263153521 203.30 0.013 0 0
C_1748486107_13144414990_0 J_1748486107 J_13144414990 81.17 0.013 0 0
C_1748486107_1305577009_0 J_1748486107 J_1305577009 255.38 0.013 0 0
C_1748486107_302499540_0 J_1748486107 J_302499540 119.85 0.013 0 0
C_5778474214_302499540_0 J_5778474214 J_302499540 191.57 0.013 0 0
C_307401420_429781973_0 J_307401420 J_429781973 212.45 0.013 0 0
C_307401420_11070754936_0 J_307401420 J_11070754936 265.26 0.013 0 0
C_429781973_3150107472_0 J_429781973 J_3150107472 62.06 0.013 0 0
C_429781973_3150107471_0 J_429781973 J_3150107471 36.63 0.013 0 0
C_429781973_307401420_0 J_429781973 J_307401420 212.45 0.013 0 0
C_11070754936_11070754935_0 J_11070754936 J_11070754935 9.25 0.013 0 0
C_11070754936_9830778271_0 J_11070754936 J_9830778271 263.24 0.013 0 0
C_590698291_349027597_0 J_590698291 J_349027597 68.03 0.013 0 0
C_590698291_11527430411_0 J_590698291 J_11527430411 119.48 0.013 0 0
C_590698291_13137760931_0 J_590698291 J_13137760931 32.40 0.013 0 0
C_3715148292_11234065453_0 J_3715148292 J_11234065453 40.06 0.013 0 0
C_3715148292_349027597_0 J_3715148292 J_349027597 197.72 0.013 0 0
C_3715148292_3715148285_0 J_3715148292 J_3715148285 54.86 0.013 0 0
C_429780762_429780764_0 J_429780762 J_429780764 116.54 0.013 0 0
C_429780762_590698298_0 J_429780762 J_590698298 57.24 0.013 0 0
C_429780762_9828540923_0 J_429780762 J_9828540923 358.68 0.013 0 0
C_429780764_590698311_0 J_429780764 J_590698311 60.33 0.013 0 0
C_429780764_429780762_0 J_429780764 J_429780762 116.54 0.013 0 0
C_429780764_590698302_0 J_429780764 J_590698302 46.99 0.013 0 0
C_590698298_590698311_0 J_590698298 J_590698311 115.59 0.013 0 0
C_590698298_3558431203_0 J_590698298 J_3558431203 8.50 0.013 0 0
C_590698298_429780762_0 J_590698298 J_429780762 57.24 0.013 0 0
C_9828540923_429780762_0 J_9828540923 J_429780762 358.68 0.013 0 0
C_9828540923_11233009356_0 J_9828540923 J_11233009356 13.84 0.013 0 0
C_590698311_2483733242_0 J_590698311 J_2483733242 55.34 0.013 0 0
C_590698311_429780764_0 J_590698311 J_429780764 60.33 0.013 0 0
C_590698311_590698298_0 J_590698311 J_590698298 115.59 0.013 0 0
C_590698302_590698318_0 J_590698302 J_590698318 179.47 0.013 0 0
C_590698302_1305577019_0 J_590698302 J_1305577019 11.44 0.013 0 0
C_590698302_429780764_0 J_590698302 J_429780764 46.99 0.013 0 0
C_429781781_590698314_0 J_429781781 J_590698314 14.71 0.013 0 0
C_429781781_2483733242_0 J_429781781 J_2483733242 72.44 0.013 0 0
C_429781781_590698312_0 J_429781781 J_590698312 145.23 0.013 0 0
C_590698314_429781782_0 J_590698314 J_429781782 47.13 0.013 0 0
C_590698314_429781781_0 J_590698314 J_429781781 14.71 0.013 0 0
C_590698314_590698313_0 J_590698314 J_590698313 62.47 0.013 0 0
C_2483733242_429781781_0 J_2483733242 J_429781781 72.44 0.013 0 0
C_2483733242_590698311_0 J_2483733242 J_590698311 55.34 0.013 0 0
C_2483733242_590698300_0 J_2483733242 J_590698300 119.88 0.013 0 0
C_590698312_590698296_0 J_590698312 J_590698296 117.83 0.013 0 0
C_590698312_429781781_0 J_590698312 J_429781781 145.23 0.013 0 0
C_590698312_590698300_0 J_590698312 J_590698300 66.17 0.013 0 0
C_429781782_650076942_0 J_429781782 J_650076942 61.36 0.013 0 0
C_429781782_650076942_1 J_429781782 J_650076942 281.43 0.013 0 0
C_429781782_590698314_0 J_429781782 J_590698314 47.13 0.013 0 0
C_429781782_3150107472_0 J_429781782 J_3150107472 180.17 0.013 0 0
C_650076942_429781782_0 J_650076942 J_429781782 61.36 0.013 0 0
C_650076942_429781782_1 J_650076942 J_429781782 281.43 0.013 0 0
C_650076942_1558259250_0 J_650076942 J_1558259250 62.37 0.013 0 0
C_650076942_1693112084_0 J_650076942 J_1693112084 58.42 0.013 0 0
C_3150107472_429781782_0 J_3150107472 J_429781782 180.17 0.013 0 0
C_3150107472_429781973_0 J_3150107472 J_429781973 62.06 0.013 0 0
C_3150107472_3150107475_0 J_3150107472 J_3150107475 85.13 0.013 0 0
C_3150107471_429781973_0 J_3150107471 J_429781973 36.63 0.013 0 0
C_429783956_12059211981_0 J_429783956 J_12059211981 11.57 0.013 0 0
C_429783956_5930945945_0 J_429783956 J_5930945945 15.97 0.013 0 0
C_429783956_429783966_0 J_429783956 J_429783966 162.77 0.013 0 0
C_12059211981_429783956_0 J_12059211981 J_429783956 11.57 0.013 0 0
C_12059211981_3778310159_0 J_12059211981 J_3778310159 77.19 0.013 0 0
C_12059211981_13757868548_0 J_12059211981 J_13757868548 94.17 0.013 0 0
C_5930945945_429783956_0 J_5930945945 J_429783956 15.97 0.013 0 0
C_5930945945_12187854996_0 J_5930945945 J_12187854996 47.95 0.013 0 0
C_429783966_1694231991_0 J_429783966 J_1694231991 177.14 0.013 0 0
C_429783966_961816867_0 J_429783966 J_961816867 170.32 0.013 0 0
C_429783966_429783956_0 J_429783966 J_429783956 162.77 0.013 0 0
C_1694231991_2446054167_0 J_1694231991 J_2446054167 17.90 0.013 0 0
C_1694231991_1694231590_0 J_1694231991 J_1694231590 212.80 0.013 0 0
C_961816867_1694231590_0 J_961816867 J_1694231590 34.21 0.013 0 0
C_961816867_10994329194_0 J_961816867 J_10994329194 548.83 0.013 0 0
C_961816867_429783966_0 J_961816867 J_429783966 170.32 0.013 0 0
C_515736998_11891216393_0 J_515736998 J_11891216393 294.23 0.013 0 0
C_11891216393_6631012279_0 J_11891216393 J_6631012279 29.59 0.013 0 0
C_11891216393_9796708050_0 J_11891216393 J_9796708050 11.20 0.013 0 0
C_574762971_574762980_0 J_574762971 J_574762980 272.76 0.013 0 0
C_574762980_574762971_0 J_574762980 J_574762971 272.76 0.013 0 0
C_574762980_12279397378_0 J_574762980 J_12279397378 16.40 0.013 0 0
C_574762980_12319493407_0 J_574762980 J_12319493407 14.62 0.013 0 0
C_574762976_10175047393_0 J_574762976 J_10175047393 57.75 0.013 0 0
C_574762976_574762978_0 J_574762976 J_574762978 118.50 0.013 0 0
C_574762976_10213547236_0 J_574762976 J_10213547236 150.18 0.013 0 0
C_10175047393_574763005_0 J_10175047393 J_574763005 198.21 0.013 0 0
C_10175047393_574762976_0 J_10175047393 J_574762976 57.75 0.013 0 0
C_10175047393_10175047394_0 J_10175047393 J_10175047394 112.30 0.013 0 0
C_574762978_574762976_0 J_574762978 J_574762976 118.50 0.013 0 0
C_10213547236_4734151709_0 J_10213547236 J_4734151709 10.90 0.013 0 0
C_10213547236_10213547238_0 J_10213547236 J_10213547238 47.46 0.013 0 0
C_10213547236_574762976_0 J_10213547236 J_574762976 150.18 0.013 0 0
C_12279397378_260908311_0 J_12279397378 J_260908311 11.49 0.013 0 0
C_12279397378_12278137174_0 J_12279397378 J_12278137174 12.69 0.013 0 0
C_12319493407_2099691630_0 J_12319493407 J_2099691630 151.27 0.013 0 0
C_12319493407_574762980_0 J_12319493407 J_574762980 14.62 0.013 0 0
C_574762987_2099691681_0 J_574762987 J_2099691681 92.28 0.013 0 0
C_574762987_11399565982_0 J_574762987 J_11399565982 196.69 0.013 0 0
C_574762987_11011994983_0 J_574762987 J_11011994983 58.89 0.013 0 0
C_2099691681_574762987_0 J_2099691681 J_574762987 92.28 0.013 0 0
C_2099691681_10172914465_0 J_2099691681 J_10172914465 32.33 0.013 0 0
C_11399565982_574762987_0 J_11399565982 J_574762987 196.69 0.013 0 0
C_11011994983_574762987_0 J_11011994983 J_574762987 58.89 0.013 0 0
C_574763005_10175047393_0 J_574763005 J_10175047393 198.21 0.013 0 0
C_574763005_11075395480_0 J_574763005 J_11075395480 173.61 0.013 0 0
C_574763005_13816840517_0 J_574763005 J_13816840517 112.14 0.013 0 0
C_11075395480_11075395481_0 J_11075395480 J_11075395481 74.29 0.013 0 0
C_11075395480_574763005_0 J_11075395480 J_574763005 173.61 0.013 0 0
C_11075395480_11034031538_0 J_11075395480 J_11034031538 146.06 0.013 0 0
C_13816840517_574763005_0 J_13816840517 J_574763005 112.14 0.013 0 0
C_574763010_6180297958_0 J_574763010 J_6180297958 31.31 0.013 0 0
C_574763010_3504349796_0 J_574763010 J_3504349796 35.86 0.013 0 0
C_574763010_10996723268_0 J_574763010 J_10996723268 31.20 0.013 0 0
C_6180297958_10996868634_0 J_6180297958 J_10996868634 31.68 0.013 0 0
C_6180297958_574763010_0 J_6180297958 J_574763010 31.31 0.013 0 0
C_6180297958_10996777702_0 J_6180297958 J_10996777702 92.32 0.013 0 0
C_3504349796_574763010_0 J_3504349796 J_574763010 35.86 0.013 0 0
C_3504349796_6758558444_0 J_3504349796 J_6758558444 191.63 0.013 0 0
C_3504349796_3504349795_0 J_3504349796 J_3504349795 67.12 0.013 0 0
C_10996723268_574763010_0 J_10996723268 J_574763010 31.20 0.013 0 0
C_11527430411_590698291_0 J_11527430411 J_590698291 119.48 0.013 0 0
C_11527430411_11233009357_0 J_11527430411 J_11233009357 198.20 0.013 0 0
C_13137760931_13137760928_0 J_13137760931 J_13137760928 10.68 0.013 0 0
C_13137760931_590698291_0 J_13137760931 J_590698291 32.40 0.013 0 0
C_590698294_3558431203_0 J_590698294 J_3558431203 118.60 0.013 0 0
C_3558431203_590698298_0 J_3558431203 J_590698298 8.50 0.013 0 0
C_3558431203_590698300_0 J_3558431203 J_590698300 12.55 0.013 0 0
C_3558431203_590698294_0 J_3558431203 J_590698294 118.60 0.013 0 0
C_590698296_590698312_0 J_590698296 J_590698312 117.83 0.013 0 0
C_590698300_3558431203_0 J_590698300 J_3558431203 12.55 0.013 0 0
C_590698300_590698312_0 J_590698300 J_590698312 66.17 0.013 0 0
C_590698300_2483733242_0 J_590698300 J_2483733242 119.88 0.013 0 0
C_590698318_590698328_0 J_590698318 J_590698328 348.96 0.013 0 0
C_590698318_3170496474_0 J_590698318 J_3170496474 16.31 0.013 0 0
C_590698318_590698302_0 J_590698318 J_590698302 179.47 0.013 0 0
C_1305577019_11234065193_0 J_1305577019 J_11234065193 327.87 0.013 0 0
C_1305577019_590698302_0 J_1305577019 J_590698302 11.44 0.013 0 0
C_1305577019_6168052376_0 J_1305577019 J_6168052376 58.29 0.013 0 0
C_590698313_590698314_0 J_590698313 J_590698314 62.47 0.013 0 0
C_590698313_590698328_0 J_590698313 J_590698328 46.41 0.013 0 0
C_590698313_7265834831_0 J_590698313 J_7265834831 158.14 0.013 0 0
C_590698328_590698313_0 J_590698328 J_590698313 46.41 0.013 0 0
C_590698328_590698330_0 J_590698328 J_590698330 137.26 0.013 0 0
C_590698328_590698318_0 J_590698328 J_590698318 348.96 0.013 0 0
C_7265834831_590698313_0 J_7265834831 J_590698313 158.14 0.013 0 0
C_3170496474_590698318_0 J_3170496474 J_590698318 16.31 0.013 0 0
C_3170496474_4447382437_0 J_3170496474 J_4447382437 152.83 0.013 0 0
C_3170496474_3170496477_0 J_3170496474 J_3170496477 155.91 0.013 0 0
C_590698330_590698328_0 J_590698330 J_590698328 137.26 0.013 0 0
C_1558259250_650076942_0 J_1558259250 J_650076942 62.37 0.013 0 0
C_1693112084_650076942_0 J_1693112084 J_650076942 58.42 0.013 0 0
C_1693112084_7147103496_0 J_1693112084 J_7147103496 82.02 0.013 0 0
C_1693112084_11078308794_0 J_1693112084 J_11078308794 177.82 0.013 0 0
C_695070306_10969136192_0 J_695070306 J_10969136192 50.93 0.013 0 0
C_695070306_2113348452_0 J_695070306 J_2113348452 158.41 0.013 0 0
C_10969136192_9846394228_0 J_10969136192 J_9846394228 5.85 0.013 0 0
C_10969136192_9846394226_0 J_10969136192 J_9846394226 49.14 0.013 0 0
C_2113348452_695070306_0 J_2113348452 J_695070306 158.41 0.013 0 0
C_2113348452_6749666079_0 J_2113348452 J_6749666079 216.83 0.013 0 0
C_695070314_3148655277_0 J_695070314 J_3148655277 30.11 0.013 0 0
C_695070314_4915966850_0 J_695070314 J_4915966850 101.76 0.013 0 0
C_695070314_3148655275_0 J_695070314 J_3148655275 40.94 0.013 0 0
C_3148655277_695070314_0 J_3148655277 J_695070314 30.11 0.013 0 0
C_3148655277_3148655275_0 J_3148655277 J_3148655275 26.11 0.013 0 0
C_3148655277_1383248254_0 J_3148655277 J_1383248254 93.12 0.013 0 0
C_3148655277_9720271254_0 J_3148655277 J_9720271254 192.46 0.013 0 0
C_4915966850_695070314_0 J_4915966850 J_695070314 101.76 0.013 0 0
C_4915966850_12185693394_0 J_4915966850 J_12185693394 87.33 0.013 0 0
C_4915966850_9921271169_0 J_4915966850 J_9921271169 19.07 0.013 0 0
C_3148655275_7479631210_0 J_3148655275 J_7479631210 12.64 0.013 0 0
C_3148655275_3148655277_0 J_3148655275 J_3148655277 26.11 0.013 0 0
C_3148655275_695070314_0 J_3148655275 J_695070314 40.94 0.013 0 0
C_695070403_3148656438_0 J_695070403 J_3148656438 6.05 0.013 0 0
C_695070403_7479631129_0 J_695070403 J_7479631129 58.78 0.013 0 0
C_695070403_12468537412_0 J_695070403 J_12468537412 30.90 0.013 0 0
C_3148656438_695070403_0 J_3148656438 J_695070403 6.05 0.013 0 0
C_3148656438_3148656434_0 J_3148656438 J_3148656434 42.64 0.013 0 0
C_3148656438_3148656440_0 J_3148656438 J_3148656440 86.77 0.013 0 0
C_7479631129_695070406_0 J_7479631129 J_695070406 81.73 0.013 0 0
C_7479631129_695070403_0 J_7479631129 J_695070403 58.78 0.013 0 0
C_7479631129_7479631125_0 J_7479631129 J_7479631125 69.38 0.013 0 0
C_12468537412_7479631135_0 J_12468537412 J_7479631135 33.40 0.013 0 0
C_12468537412_695070403_0 J_12468537412 J_695070403 30.90 0.013 0 0
C_12468537412_12468537408_0 J_12468537412 J_12468537408 39.89 0.013 0 0
C_695070406_13077693351_0 J_695070406 J_13077693351 107.78 0.013 0 0
C_695070406_7479631129_0 J_695070406 J_7479631129 81.73 0.013 0 0
C_695070406_6802224021_0 J_695070406 J_6802224021 44.62 0.013 0 0
C_13077693351_13077693352_0 J_13077693351 J_13077693352 69.73 0.013 0 0
C_13077693351_12435660636_0 J_13077693351 J_12435660636 44.37 0.013 0 0
C_13077693351_695070406_0 J_13077693351 J_695070406 107.78 0.013 0 0
C_6802224021_6802224014_0 J_6802224021 J_6802224014 66.34 0.013 0 0
C_6802224021_6802224015_0 J_6802224021 J_6802224015 100.81 0.013 0 0
C_6802224021_695070406_0 J_6802224021 J_695070406 44.62 0.013 0 0
C_695070408_3148656447_0 J_695070408 J_3148656447 14.32 0.013 0 0
C_695070408_7147949887_0 J_695070408 J_7147949887 59.19 0.013 0 0
C_695070408_13875979600_0 J_695070408 J_13875979600 99.17 0.013 0 0
C_3148656447_695070408_0 J_3148656447 J_695070408 14.32 0.013 0 0
C_3148656447_3148656451_0 J_3148656447 J_3148656451 60.44 0.013 0 0
C_3148656447_10994386529_0 J_3148656447 J_10994386529 210.24 0.013 0 0
C_7147949887_7147986885_0 J_7147949887 J_7147986885 14.39 0.013 0 0
C_7147949887_7147986187_0 J_7147949887 J_7147986187 25.00 0.013 0 0
C_7147949887_695070408_0 J_7147949887 J_695070408 59.19 0.013 0 0
C_13875979600_818634499_0 J_13875979600 J_818634499 119.56 0.013 0 0
C_13875979600_695070408_0 J_13875979600 J_695070408 99.17 0.013 0 0
C_13875979600_13875979598_0 J_13875979600 J_13875979598 43.24 0.013 0 0
C_695079385_7328099146_0 J_695079385 J_7328099146 88.64 0.013 0 0
C_695079385_10182468120_0 J_695079385 J_10182468120 43.42 0.013 0 0
C_7328099146_695079385_0 J_7328099146 J_695079385 88.64 0.013 0 0
C_7328099146_1817170898_0 J_7328099146 J_1817170898 133.45 0.013 0 0
C_7328099146_7328099142_0 J_7328099146 J_7328099142 60.83 0.013 0 0
C_10182468120_6197671075_0 J_10182468120 J_6197671075 190.23 0.013 0 0
C_10182468120_6141748418_0 J_10182468120 J_6141748418 193.30 0.013 0 0
C_818630839_1387622149_0 J_818630839 J_1387622149 10.36 0.013 0 0
C_818630839_3148609358_0 J_818630839 J_3148609358 1003.24 0.013 0 0
C_818630839_11182448718_0 J_818630839 J_11182448718 200.15 0.013 0 0
C_1387622149_818630839_0 J_1387622149 J_818630839 10.36 0.013 0 0
C_1387622149_13064841548_0 J_1387622149 J_13064841548 48.07 0.013 0 0
C_3148609358_844403663_0 J_3148609358 J_844403663 100.69 0.013 0 0
C_3148609358_818630839_0 J_3148609358 J_818630839 1003.24 0.013 0 0
C_3148609358_6536473134_0 J_3148609358 J_6536473134 644.79 0.013 0 0
C_11182448718_3141475567_0 J_11182448718 J_3141475567 1370.37 0.013 0 0
C_11182448718_1387622149_0 J_11182448718 J_1387622149 203.16 0.013 0 0
C_818634499_13875979600_0 J_818634499 J_13875979600 119.56 0.013 0 0
C_818634499_818634502_0 J_818634499 J_818634502 35.25 0.013 0 0
C_818634502_827145938_0 J_818634502 J_827145938 480.49 0.013 0 0
C_818634502_3148633513_0 J_818634502 J_3148633513 34.98 0.013 0 0
C_827145938_13875979449_0 J_827145938 J_13875979449 147.22 0.013 0 0
C_827145938_13875979449_1 J_827145938 J_13875979449 144.45 0.013 0 0
C_3148633513_5370756307_0 J_3148633513 J_5370756307 27.37 0.013 0 0
C_3148633513_13928938241_0 J_3148633513 J_13928938241 34.13 0.013 0 0
C_818634513_3170006921_0 J_818634513 J_3170006921 20.94 0.013 0 0
C_818634513_929965958_0 J_818634513 J_929965958 222.79 0.013 0 0
C_818634513_10996944954_0 J_818634513 J_10996944954 86.00 0.013 0 0
C_3170006921_818634513_0 J_3170006921 J_818634513 20.94 0.013 0 0
C_3170006921_12506414299_0 J_3170006921 J_12506414299 60.59 0.013 0 0
C_3170006921_9830778271_0 J_3170006921 J_9830778271 26.31 0.013 0 0
C_3170006921_10147078393_0 J_3170006921 J_10147078393 266.80 0.013 0 0
C_929965958_956058174_0 J_929965958 J_956058174 84.52 0.013 0 0
C_929965958_3157684368_0 J_929965958 J_3157684368 58.97 0.013 0 0
C_10996944954_10996944953_0 J_10996944954 J_10996944953 25.09 0.013 0 0
C_10996944954_9826793285_0 J_10996944954 J_9826793285 45.93 0.013 0 0
C_10996944954_818634513_0 J_10996944954 J_818634513 86.00 0.013 0 0
C_825408102_7479630561_0 J_825408102 J_7479630561 31.42 0.013 0 0
C_825408102_956077413_0 J_825408102 J_956077413 87.03 0.013 0 0
C_7479630561_825408102_0 J_7479630561 J_825408102 31.42 0.013 0 0
C_7479630561_6914358616_0 J_7479630561 J_6914358616 144.63 0.013 0 0
C_956077413_7479631029_0 J_956077413 J_7479631029 48.55 0.013 0 0
C_956077413_7479631046_0 J_956077413 J_7479631046 9.50 0.013 0 0
C_956077413_825408102_0 J_956077413 J_825408102 87.03 0.013 0 0
C_13875979449_10948126479_0 J_13875979449 J_10948126479 670.21 0.013 0 0
C_844403663_6536884399_0 J_844403663 J_6536884399 59.31 0.013 0 0
C_844403663_3148609358_0 J_844403663 J_3148609358 100.69 0.013 0 0
C_844403663_6141753929_0 J_844403663 J_6141753929 156.90 0.013 0 0
C_6536884399_10994377346_0 J_6536884399 J_10994377346 27.57 0.013 0 0
C_6536884399_6536884398_0 J_6536884399 J_6536884398 53.95 0.013 0 0
C_6536884399_844403663_0 J_6536884399 J_844403663 59.31 0.013 0 0
C_6141753929_10994377647_0 J_6141753929 J_10994377647 53.57 0.013 0 0
C_6141753929_844403663_0 J_6141753929 J_844403663 156.90 0.013 0 0
C_6141753929_6141753927_0 J_6141753929 J_6141753927 47.63 0.013 0 0
C_956058174_929965968_0 J_956058174 J_929965968 58.48 0.013 0 0
C_956058174_956058186_0 J_956058174 J_956058186 11.02 0.013 0 0
C_956058174_929965958_0 J_956058174 J_929965958 84.52 0.013 0 0
C_3157684368_13903770310_0 J_3157684368 J_13903770310 32.06 0.013 0 0
C_3157684368_3157684367_0 J_3157684368 J_3157684367 75.47 0.013 0 0
C_929965968_956058174_0 J_929965968 J_956058174 58.48 0.013 0 0
C_929965968_2349412314_0 J_929965968 J_2349412314 61.32 0.013 0 0
C_929965968_10996638660_0 J_929965968 J_10996638660 26.74 0.013 0 0
C_2349412314_929965968_0 J_2349412314 J_929965968 61.32 0.013 0 0
C_10996638660_929965968_0 J_10996638660 J_929965968 26.74 0.013 0 0
C_929965972_956058186_0 J_929965972 J_956058186 50.00 0.013 0 0
C_929965972_929965977_0 J_929965972 J_929965977 48.71 0.013 0 0
C_929965972_929965973_0 J_929965972 J_929965973 68.79 0.013 0 0
C_956058186_956058174_0 J_956058186 J_956058174 11.02 0.013 0 0
C_956058186_3157684367_0 J_956058186 J_3157684367 34.78 0.013 0 0
C_956058186_929965972_0 J_956058186 J_929965972 50.00 0.013 0 0
C_929965977_929965972_0 J_929965977 J_929965972 48.71 0.013 0 0
C_929965973_1390345459_0 J_929965973 J_1390345459 56.53 0.013 0 0
C_929965973_929965972_0 J_929965973 J_929965972 68.79 0.013 0 0
C_929965973_7301790590_0 J_929965973 J_7301790590 34.72 0.013 0 0
C_1390345459_929965973_0 J_1390345459 J_929965973 56.53 0.013 0 0
C_1390345459_3504349795_0 J_1390345459 J_3504349795 120.98 0.013 0 0
C_1390345459_5777299715_0 J_1390345459 J_5777299715 175.18 0.013 0 0
C_7301790590_7301790589_0 J_7301790590 J_7301790589 51.99 0.013 0 0
C_7301790590_929965973_0 J_7301790590 J_929965973 34.72 0.013 0 0
C_7301790590_5919853090_0 J_7301790590 J_5919853090 202.75 0.013 0 0
C_3157684367_956058186_0 J_3157684367 J_956058186 34.78 0.013 0 0
C_3157684367_2414360817_0 J_3157684367 J_2414360817 66.79 0.013 0 0
C_3157684367_3157684368_0 J_3157684367 J_3157684368 75.47 0.013 0 0
C_7479631029_7479631030_0 J_7479631029 J_7479631030 35.82 0.013 0 0
C_7479631029_956077413_0 J_7479631029 J_956077413 48.55 0.013 0 0
C_7479631029_7479631031_0 J_7479631029 J_7479631031 29.48 0.013 0 0
C_7479631046_7479631047_0 J_7479631046 J_7479631047 33.10 0.013 0 0
C_7479631046_956077413_0 J_7479631046 J_956077413 9.50 0.013 0 0
C_7479631046_6914358626_0 J_7479631046 J_6914358626 18.88 0.013 0 0
C_1694231590_961816867_0 J_1694231590 J_961816867 34.21 0.013 0 0
C_1694231590_11428038816_0 J_1694231590 J_11428038816 411.40 0.013 0 0
C_10994329194_9510028744_0 J_10994329194 J_9510028744 70.86 0.013 0 0
C_10994329194_961816867_0 J_10994329194 J_961816867 548.83 0.013 0 0
C_10994329194_10994329200_0 J_10994329194 J_10994329200 118.18 0.013 0 0
C_1067315124_3161309802_0 J_1067315124 J_3161309802 34.17 0.013 0 0
C_1067315124_12272816024_0 J_1067315124 J_12272816024 19.25 0.013 0 0
C_1067315124_11185418653_0 J_1067315124 J_11185418653 60.33 0.013 0 0
C_3161309802_3161309801_0 J_3161309802 J_3161309801 128.81 0.013 0 0
C_3161309802_1067315124_0 J_3161309802 J_1067315124 34.17 0.013 0 0
C_3161309802_1083495045_0 J_3161309802 J_1083495045 205.39 0.013 0 0
C_12272816024_1067315124_0 J_12272816024 J_1067315124 19.25 0.013 0 0
C_11185418653_1067315124_0 J_11185418653 J_1067315124 60.33 0.013 0 0
C_1083495045_3141425534_0 J_1083495045 J_3141425534 73.03 0.013 0 0
C_1083495045_2387290813_0 J_1083495045 J_2387290813 120.78 0.013 0 0
C_1083495045_3161309802_0 J_1083495045 J_3161309802 205.39 0.013 0 0
C_2387290813_3141425530_0 J_2387290813 J_3141425530 158.39 0.013 0 0
C_2387290813_1083495045_0 J_2387290813 J_1083495045 120.78 0.013 0 0
C_2387290813_5776756946_0 J_2387290813 J_5776756946 305.85 0.013 0 0
C_1083500526_3149622352_0 J_1083500526 J_3149622352 136.06 0.013 0 0
C_1083500526_2387123504_0 J_1083500526 J_2387123504 140.81 0.013 0 0
C_3149622352_3149622362_0 J_3149622352 J_3149622362 24.16 0.013 0 0
C_3149622352_1083500526_0 J_3149622352 J_1083500526 136.06 0.013 0 0
C_3149622352_3149622354_0 J_3149622352 J_3149622354 56.08 0.013 0 0
C_2387123504_3803663193_0 J_2387123504 J_3803663193 17.04 0.013 0 0
C_2387123504_262268684_0 J_2387123504 J_262268684 78.49 0.013 0 0
C_1083500529_3149619851_0 J_1083500529 J_3149619851 59.16 0.013 0 0
C_1083500529_1083500526_0 J_1083500529 J_1083500526 76.21 0.013 0 0
C_1132734424_6197379428_0 J_1132734424 J_6197379428 215.30 0.013 0 0
C_1186777885_7263153533_0 J_1186777885 J_7263153533 27.45 0.013 0 0
C_1186777885_12649685464_0 J_1186777885 J_12649685464 62.33 0.013 0 0
C_1186777885_11002591551_0 J_1186777885 J_11002591551 71.40 0.013 0 0
C_7263153533_7328379151_0 J_7263153533 J_7328379151 28.59 0.013 0 0
C_7263153533_1186777885_0 J_7263153533 J_1186777885 27.45 0.013 0 0
C_7263153533_7263153527_0 J_7263153533 J_7263153527 106.30 0.013 0 0
C_12649685464_1186777885_0 J_12649685464 J_1186777885 62.33 0.013 0 0
C_11002591551_1186777885_0 J_11002591551 J_1186777885 71.40 0.013 0 0
C_11002591551_3170496477_0 J_11002591551 J_3170496477 272.80 0.013 0 0
C_11002591551_11002591560_0 J_11002591551 J_11002591560 85.56 0.013 0 0
C_1186777924_4447404413_0 J_1186777924 J_4447404413 103.28 0.013 0 0
C_1186777924_1186777952_0 J_1186777924 J_1186777952 56.91 0.013 0 0
C_1186777924_7328379151_0 J_1186777924 J_7328379151 171.69 0.013 0 0
C_4447404413_1186777924_0 J_4447404413 J_1186777924 103.28 0.013 0 0
C_1186777952_1186777966_0 J_1186777952 J_1186777966 57.92 0.013 0 0
C_1186777952_1186777924_0 J_1186777952 J_1186777924 56.91 0.013 0 0
C_1186777952_6195813805_0 J_1186777952 J_6195813805 34.85 0.013 0 0
C_7328379151_7263153533_0 J_7328379151 J_7263153533 28.59 0.013 0 0
C_7328379151_1186777924_0 J_7328379151 J_1186777924 171.69 0.013 0 0
C_7328379151_7328379154_0 J_7328379151 J_7328379154 74.54 0.013 0 0
C_1186777966_1186777956_0 J_1186777966 J_1186777956 33.32 0.013 0 0
C_1186777966_13743331044_0 J_1186777966 J_13743331044 43.66 0.013 0 0
C_1186777966_1186777952_0 J_1186777966 J_1186777952 57.92 0.013 0 0
C_6195813805_3141473155_0 J_6195813805 J_3141473155 59.31 0.013 0 0
C_6195813805_6180293490_0 J_6195813805 J_6180293490 101.59 0.013 0 0
C_6195813805_1186777952_0 J_6195813805 J_1186777952 34.85 0.013 0 0
C_1186777956_1186777966_0 J_1186777956 J_1186777966 33.32 0.013 0 0
C_1186777956_7328379157_0 J_1186777956 J_7328379157 80.28 0.013 0 0
C_1186777956_3141473152_0 J_1186777956 J_3141473152 58.95 0.013 0 0
C_7328379157_11707855552_0 J_7328379157 J_11707855552 82.45 0.013 0 0
C_7328379157_12176161387_0 J_7328379157 J_12176161387 76.40 0.013 0 0
C_7328379157_1186777956_0 J_7328379157 J_1186777956 80.28 0.013 0 0
C_13743331044_13743331043_0 J_13743331044 J_13743331043 28.77 0.013 0 0
C_13743331044_13743331026_0 J_13743331044 J_13743331026 24.78 0.013 0 0
C_13743331044_1186777966_0 J_13743331044 J_1186777966 43.66 0.013 0 0
C_1224322808_7263316354_0 J_1224322808 J_7263316354 12.74 0.013 0 0
C_1224322808_2034648220_0 J_1224322808 J_2034648220 49.37 0.013 0 0
C_1224322808_2268546130_0 J_1224322808 J_2268546130 131.85 0.013 0 0
C_7263316354_2034648222_0 J_7263316354 J_2034648222 25.03 0.013 0 0
C_7263316354_1224322808_0 J_7263316354 J_1224322808 12.74 0.013 0 0
C_7263316354_7263316361_0 J_7263316354 J_7263316361 72.15 0.013 0 0
C_2034648220_2034648230_0 J_2034648220 J_2034648230 73.63 0.013 0 0
C_2034648220_1224322808_0 J_2034648220 J_1224322808 49.37 0.013 0 0
C_2034648220_2034648234_0 J_2034648220 J_2034648234 105.90 0.013 0 0
C_2268546130_6144032627_0 J_2268546130 J_6144032627 24.37 0.013 0 0
C_2268546130_2268546100_0 J_2268546130 J_2268546100 126.82 0.013 0 0
C_2268546130_1224322808_0 J_2268546130 J_1224322808 131.85 0.013 0 0
C_1244527875_2828324523_0 J_1244527875 J_2828324523 54.74 0.013 0 0
C_1244527875_2387579010_0 J_1244527875 J_2387579010 97.98 0.013 0 0
C_1244527875_1244527888_0 J_1244527875 J_1244527888 45.80 0.013 0 0
C_2828324523_9708811990_0 J_2828324523 J_9708811990 12.13 0.013 0 0
C_2828324523_1244527875_0 J_2828324523 J_1244527875 54.74 0.013 0 0
C_2828324523_2828324522_0 J_2828324523 J_2828324522 90.70 0.013 0 0
C_2387579010_1244527875_0 J_2387579010 J_1244527875 97.98 0.013 0 0
C_1244527888_6342458097_0 J_1244527888 J_6342458097 62.23 0.013 0 0
C_1244527888_1244527875_0 J_1244527888 J_1244527875 45.80 0.013 0 0
C_1244527888_1315049037_0 J_1244527888 J_1315049037 143.50 0.013 0 0
C_6342458097_1244527888_0 J_6342458097 J_1244527888 62.23 0.013 0 0
C_1315049037_11009632656_0 J_1315049037 J_11009632656 34.60 0.013 0 0
C_1315049037_10173119093_0 J_1315049037 J_10173119093 63.38 0.013 0 0
C_1315049037_1244527888_0 J_1315049037 J_1244527888 143.50 0.013 0 0
C_1300454732_11922878281_0 J_1300454732 J_11922878281 4.80 0.013 0 0
C_1300454732_1321535551_0 J_1300454732 J_1321535551 33.07 0.013 0 0
C_11922878281_1300454732_0 J_11922878281 J_1300454732 4.80 0.013 0 0
C_11922878281_12169759722_0 J_11922878281 J_12169759722 645.92 0.013 0 0
C_11922878281_11428038811_0 J_11922878281 J_11428038811 58.20 0.013 0 0
C_1321535551_12060861661_0 J_1321535551 J_12060861661 288.59 0.013 0 0
C_1305577009_7298619223_0 J_1305577009 J_7298619223 70.56 0.013 0 0
C_1305577009_1748486107_0 J_1305577009 J_1748486107 255.38 0.013 0 0
C_11234065193_1305577019_0 J_11234065193 J_1305577019 327.87 0.013 0 0
C_6168052376_11395651197_0 J_6168052376 J_11395651197 5.77 0.013 0 0
C_6168052376_1305577019_0 J_6168052376 J_1305577019 58.29 0.013 0 0
C_6168052376_11685087325_0 J_6168052376 J_11685087325 165.11 0.013 0 0
C_1314077241_7479631472_0 J_1314077241 J_7479631472 23.68 0.013 0 0
C_1314077241_7478154540_0 J_1314077241 J_7478154540 37.95 0.013 0 0
C_1314077241_11370378569_0 J_1314077241 J_11370378569 50.65 0.013 0 0
C_7479631472_1314077241_0 J_7479631472 J_1314077241 23.68 0.013 0 0
C_7479631472_7478154531_0 J_7479631472 J_7478154531 17.13 0.013 0 0
C_7479631472_7479631476_0 J_7479631472 J_7479631476 78.51 0.013 0 0
C_7478154540_1314077241_0 J_7478154540 J_1314077241 37.95 0.013 0 0
C_7478154540_7478154544_0 J_7478154540 J_7478154544 48.23 0.013 0 0
C_7478154540_7478154539_0 J_7478154540 J_7478154539 116.67 0.013 0 0
C_11370378569_7478154530_0 J_11370378569 J_7478154530 4.49 0.013 0 0
C_11370378569_1314077241_0 J_11370378569 J_1314077241 50.65 0.013 0 0
C_11370378569_7095265249_0 J_11370378569 J_7095265249 100.53 0.013 0 0
C_1314077247_6168067117_0 J_1314077247 J_6168067117 110.07 0.013 0 0
C_1314077247_7478154497_0 J_1314077247 J_7478154497 44.65 0.013 0 0
C_1314077247_7736381401_0 J_1314077247 J_7736381401 276.31 0.013 0 0
C_6168067117_7478154579_0 J_6168067117 J_7478154579 57.17 0.013 0 0
C_6168067117_7478154579_1 J_6168067117 J_7478154579 222.43 0.013 0 0
C_6168067117_1314077247_0 J_6168067117 J_1314077247 110.07 0.013 0 0
C_7478154497_1314077247_0 J_7478154497 J_1314077247 44.65 0.013 0 0
C_7478154497_1314077248_0 J_7478154497 J_1314077248 77.78 0.013 0 0
C_7478154497_7478154505_0 J_7478154497 J_7478154505 117.32 0.013 0 0
C_7736381401_7736381406_0 J_7736381401 J_7736381406 186.64 0.013 0 0
C_7736381401_1314077247_0 J_7736381401 J_1314077247 276.31 0.013 0 0
C_7736381401_1906888933_0 J_7736381401 J_1906888933 11.29 0.013 0 0
C_1314077248_5777147300_0 J_1314077248 J_5777147300 115.66 0.013 0 0
C_1314077248_5777147337_0 J_1314077248 J_5777147337 61.12 0.013 0 0
C_1314077248_7478154497_0 J_1314077248 J_7478154497 77.78 0.013 0 0
C_5777147300_1314077248_0 J_5777147300 J_1314077248 115.66 0.013 0 0
C_5777147337_13136176386_0 J_5777147337 J_13136176386 9.35 0.013 0 0
C_5777147337_5777147338_0 J_5777147337 J_5777147338 9.82 0.013 0 0
C_5777147337_1314077248_0 J_5777147337 J_1314077248 61.12 0.013 0 0
C_1315048058_3148668048_0 J_1315048058 J_3148668048 55.69 0.013 0 0
C_1315048058_6141957199_0 J_1315048058 J_6141957199 16.68 0.013 0 0
C_1315048058_1315048061_0 J_1315048058 J_1315048061 79.93 0.013 0 0
C_3148668048_1315048058_0 J_3148668048 J_1315048058 55.69 0.013 0 0
C_3148668048_10172982419_0 J_3148668048 J_10172982419 64.14 0.013 0 0
C_3148668048_6204951079_0 J_3148668048 J_6204951079 40.72 0.013 0 0
C_6141957199_6141957196_0 J_6141957199 J_6141957196 63.01 0.013 0 0
C_6141957199_1315048060_0 J_6141957199 J_1315048060 37.03 0.013 0 0
C_6141957199_1315048058_0 J_6141957199 J_1315048058 16.68 0.013 0 0
C_1315048061_1315048058_0 J_1315048061 J_1315048058 79.93 0.013 0 0
C_1315048061_2206930291_0 J_1315048061 J_2206930291 114.99 0.013 0 0
C_1315048061_10172982423_0 J_1315048061 J_10172982423 85.44 0.013 0 0
C_1315048060_11009627049_0 J_1315048060 J_11009627049 46.00 0.013 0 0
C_1315048060_6141957199_0 J_1315048060 J_6141957199 37.03 0.013 0 0
C_1315048060_10172982421_0 J_1315048060 J_10172982421 114.58 0.013 0 0
C_11009627049_1315048060_0 J_11009627049 J_1315048060 46.00 0.013 0 0
C_11009627049_1315048078_0 J_11009627049 J_1315048078 159.63 0.013 0 0
C_11009627049_11009627053_0 J_11009627049 J_11009627053 51.10 0.013 0 0
C_10172982421_1315048060_0 J_10172982421 J_1315048060 114.58 0.013 0 0
C_2206930291_1315048080_0 J_2206930291 J_1315048080 41.23 0.013 0 0
C_2206930291_10172982423_0 J_2206930291 J_10172982423 32.07 0.013 0 0
C_2206930291_1315048061_0 J_2206930291 J_1315048061 114.99 0.013 0 0
C_10172982423_2206930291_0 J_10172982423 J_2206930291 32.07 0.013 0 0
C_10172982423_10172982422_0 J_10172982423 J_10172982422 30.44 0.013 0 0
C_10172982423_1315048061_0 J_10172982423 J_1315048061 85.44 0.013 0 0
C_1315048075_3148668044_0 J_1315048075 J_3148668044 41.30 0.013 0 0
C_1315048075_3148668042_0 J_1315048075 J_3148668042 65.77 0.013 0 0
C_1315048075_10232292384_0 J_1315048075 J_10232292384 19.95 0.013 0 0
C_1315048075_1315048083_0 J_1315048075 J_1315048083 205.78 0.013 0 0
C_3148668044_1315048075_0 J_3148668044 J_1315048075 41.30 0.013 0 0
C_3148668044_1315048080_0 J_3148668044 J_1315048080 38.25 0.013 0 0
C_3148668044_3148668045_0 J_3148668044 J_3148668045 65.28 0.013 0 0
C_3148668044_3148668043_0 J_3148668044 J_3148668043 47.04 0.013 0 0
C_3148668042_1315048075_0 J_3148668042 J_1315048075 65.77 0.013 0 0
C_10232292384_1315048075_0 J_10232292384 J_1315048075 19.95 0.013 0 0
C_1315048078_8433749411_0 J_1315048078 J_8433749411 95.45 0.013 0 0
C_1315048078_6183009077_0 J_1315048078 J_6183009077 59.10 0.013 0 0
C_1315048078_11009627049_0 J_1315048078 J_11009627049 159.63 0.013 0 0
C_8433749411_11009632656_0 J_8433749411 J_11009632656 49.20 0.013 0 0
C_8433749411_11009632658_0 J_8433749411 J_11009632658 34.23 0.013 0 0
C_8433749411_1315048078_0 J_8433749411 J_1315048078 95.45 0.013 0 0
C_6183009077_1315048078_0 J_6183009077 J_1315048078 59.10 0.013 0 0
C_6183009077_5776596292_0 J_6183009077 J_5776596292 126.41 0.013 0 0
C_1315048080_2206930291_0 J_1315048080 J_2206930291 41.23 0.013 0 0
C_1315048080_3148668044_0 J_1315048080 J_3148668044 38.25 0.013 0 0
C_1315048080_1315052254_0 J_1315048080 J_1315052254 184.69 0.013 0 0
C_1315052254_3148668037_0 J_1315052254 J_3148668037 13.49 0.013 0 0
C_1315052254_3148668038_0 J_1315052254 J_3148668038 110.81 0.013 0 0
C_1315052254_1315048080_0 J_1315052254 J_1315048080 184.69 0.013 0 0
C_2387579012_1315048083_0 J_2387579012 J_1315048083 14.30 0.013 0 0
C_2387579012_3148668038_0 J_2387579012 J_3148668038 16.79 0.013 0 0
C_2387579012_3872533486_0 J_2387579012 J_3872533486 58.87 0.013 0 0
C_1315049031_10173119093_0 J_1315049031 J_10173119093 46.57 0.013 0 0
C_1315049031_1315049034_0 J_1315049031 J_1315049034 102.53 0.013 0 0
C_1315049031_13140374079_0 J_1315049031 J_13140374079 21.87 0.013 0 0
C_10173119093_1315049031_0 J_10173119093 J_1315049031 46.57 0.013 0 0
C_10173119093_10173119094_0 J_10173119093 J_10173119094 39.16 0.013 0 0
C_10173119093_13140374056_0 J_10173119093 J_13140374056 31.12 0.013 0 0
C_10173119093_1315049037_0 J_10173119093 J_1315049037 63.38 0.013 0 0
C_1315049034_1315049031_0 J_1315049034 J_1315049031 102.53 0.013 0 0
C_13140374079_1315049031_0 J_13140374079 J_1315049031 21.87 0.013 0 0
C_11009632656_1315049037_0 J_11009632656 J_1315049037 34.60 0.013 0 0
C_11009632656_8433749411_0 J_11009632656 J_8433749411 49.20 0.013 0 0
C_11009632656_11009632657_0 J_11009632656 J_11009632657 47.14 0.013 0 0
C_3148668037_1315052254_0 J_3148668037 J_1315052254 13.49 0.013 0 0
C_3148668037_3148667904_0 J_3148668037 J_3148667904 147.83 0.013 0 0
C_3148668037_10172979411_0 J_3148668037 J_10172979411 134.10 0.013 0 0
C_3148668038_3148668041_0 J_3148668038 J_3148668041 74.68 0.013 0 0
C_3148668038_2387579012_0 J_3148668038 J_2387579012 16.79 0.013 0 0
C_3148668038_1315052254_0 J_3148668038 J_1315052254 110.81 0.013 0 0
C_1319974913_5372340496_0 J_1319974913 J_5372340496 240.30 0.013 0 0
C_1319974913_1319974914_0 J_1319974913 J_1319974914 8.99 0.013 0 0
C_5372340496_1827247449_0 J_5372340496 J_1827247449 80.55 0.013 0 0
C_5372340496_266371138_0 J_5372340496 J_266371138 43.16 0.013 0 0
C_1319974914_11865827584_0 J_1319974914 J_11865827584 651.88 0.013 0 0
C_1319974914_1319974913_0 J_1319974914 J_1319974913 8.99 0.013 0 0
C_11865827584_1645178566_0 J_11865827584 J_1645178566 10.53 0.013 0 0
C_12060861661_12060861662_0 J_12060861661 J_12060861662 12.91 0.013 0 0
C_12060861661_818634499_0 J_12060861661 J_818634499 480.75 0.013 0 0
C_1367979481_4446729192_0 J_1367979481 J_4446729192 167.84 0.013 0 0
C_4446729192_1367979481_0 J_4446729192 J_1367979481 167.84 0.013 0 0
C_4446729192_10056058173_0 J_4446729192 J_10056058173 162.82 0.013 0 0
C_1383248215_3148645671_0 J_1383248215 J_3148645671 30.25 0.013 0 0
C_1383248215_3148655238_0 J_1383248215 J_3148655238 53.95 0.013 0 0
C_1383248215_3148655236_0 J_1383248215 J_3148655236 28.57 0.013 0 0
C_3148645671_3148655234_0 J_3148645671 J_3148655234 6.32 0.013 0 0
C_3148645671_1383248215_0 J_3148645671 J_1383248215 30.25 0.013 0 0
C_3148645671_3148645670_0 J_3148645671 J_3148645670 29.07 0.013 0 0
C_3148655238_1383248215_0 J_3148655238 J_1383248215 53.95 0.013 0 0
C_3148655236_3148655239_0 J_3148655236 J_3148655239 33.79 0.013 0 0
C_3148655236_7479631141_0 J_3148655236 J_7479631141 69.85 0.013 0 0
C_3148655236_1383248215_0 J_3148655236 J_1383248215 28.57 0.013 0 0
C_1383248254_3148655266_0 J_1383248254 J_3148655266 46.74 0.013 0 0
C_1383248254_7478155165_0 J_1383248254 J_7478155165 197.88 0.013 0 0
C_1383248254_3148655277_0 J_1383248254 J_3148655277 93.12 0.013 0 0
C_3148655266_3148655263_0 J_3148655266 J_3148655263 32.61 0.013 0 0
C_3148655266_1383248254_0 J_3148655266 J_1383248254 46.74 0.013 0 0
C_3148655266_3148655265_0 J_3148655266 J_3148655265 81.05 0.013 0 0
C_3148655266_3148655268_0 J_3148655266 J_3148655268 82.47 0.013 0 0
C_7478155165_12446863535_0 J_7478155165 J_12446863535 68.31 0.013 0 0
C_7478155165_1383248254_0 J_7478155165 J_1383248254 197.88 0.013 0 0
C_7478155165_12443097983_0 J_7478155165 J_12443097983 63.68 0.013 0 0
C_1383248309_10168257533_0 J_1383248309 J_10168257533 188.52 0.013 0 0
C_1383248309_12462993523_0 J_1383248309 J_12462993523 71.78 0.013 0 0
C_10168257533_5843951128_0 J_10168257533 J_5843951128 61.38 0.013 0 0
C_10168257533_1383248309_0 J_10168257533 J_1383248309 188.52 0.013 0 0
C_12462993523_11921590006_0 J_12462993523 J_11921590006 5.86 0.013 0 0
C_12462993523_12198988557_0 J_12462993523 J_12198988557 77.76 0.013 0 0
C_1387622086_4475150582_0 J_1387622086 J_4475150582 8.67 0.013 0 0
C_1387622086_2195883502_0 J_1387622086 J_2195883502 49.18 0.013 0 0
C_1387622086_12334925123_0 J_1387622086 J_12334925123 11.86 0.013 0 0
C_2195883502_1387622086_0 J_2195883502 J_1387622086 49.18 0.013 0 0
C_2195883502_1387622131_0 J_2195883502 J_1387622131 21.35 0.013 0 0
C_2195883502_2195883497_0 J_2195883502 J_2195883497 61.58 0.013 0 0
C_12334925123_2041854936_0 J_12334925123 J_2041854936 14.67 0.013 0 0
C_12334925123_1387622086_0 J_12334925123 J_1387622086 11.86 0.013 0 0
C_12334925123_2268546156_0 J_12334925123 J_2268546156 28.28 0.013 0 0
C_1387622091_2268546103_0 J_1387622091 J_2268546103 25.20 0.013 0 0
C_1387622091_10994097991_0 J_1387622091 J_10994097991 19.73 0.013 0 0
C_1387622091_10182451860_0 J_1387622091 J_10182451860 29.78 0.013 0 0
C_2268546103_10182451857_0 J_2268546103 J_10182451857 13.58 0.013 0 0
C_2268546103_1387622091_0 J_2268546103 J_1387622091 25.20 0.013 0 0
C_2268546103_4475055875_0 J_2268546103 J_4475055875 38.11 0.013 0 0
C_10994097991_1387622091_0 J_10994097991 J_1387622091 19.73 0.013 0 0
C_10994097991_2268546087_0 J_10994097991 J_2268546087 16.79 0.013 0 0
C_10994097991_12144258015_0 J_10994097991 J_12144258015 93.87 0.013 0 0
C_10182451860_1387622091_0 J_10182451860 J_1387622091 29.78 0.013 0 0
C_3141475567_11182448718_0 J_3141475567 J_11182448718 1370.37 0.013 0 0
C_3141475567_1387622103_0 J_3141475567 J_1387622103 75.77 0.013 0 0
C_3141475567_6560163455_0 J_3141475567 J_6560163455 249.16 0.013 0 0
C_1387622131_2268546143_0 J_1387622131 J_2268546143 27.91 0.013 0 0
C_1387622131_2195883502_0 J_1387622131 J_2195883502 21.35 0.013 0 0
C_1387622131_2268546123_0 J_1387622131 J_2268546123 119.94 0.013 0 0
C_2268546143_5388808643_0 J_2268546143 J_5388808643 40.16 0.013 0 0
C_2268546143_1387622131_0 J_2268546143 J_1387622131 27.91 0.013 0 0
C_2268546143_4445588631_0 J_2268546143 J_4445588631 89.35 0.013 0 0
C_2268546123_2268546114_0 J_2268546123 J_2268546114 46.67 0.013 0 0
C_2268546123_1387622131_0 J_2268546123 J_1387622131 119.94 0.013 0 0
C_2268546123_2268546140_0 J_2268546123 J_2268546140 136.93 0.013 0 0
C_1387622145_2268546106_0 J_1387622145 J_2268546106 4.97 0.013 0 0
C_1387622145_10182451857_0 J_1387622145 J_10182451857 13.66 0.013 0 0
C_1387622145_2268546110_0 J_1387622145 J_2268546110 12.27 0.013 0 0
C_2268546106_2268546114_0 J_2268546106 J_2268546114 34.85 0.013 0 0
C_2268546106_1387622145_0 J_2268546106 J_1387622145 4.97 0.013 0 0
C_2268546106_2268546105_0 J_2268546106 J_2268546105 52.65 0.013 0 0
C_10182451857_1387622145_0 J_10182451857 J_1387622145 13.66 0.013 0 0
C_10182451857_2268546103_0 J_10182451857 J_2268546103 13.58 0.013 0 0
C_10182451857_10182451858_0 J_10182451857 J_10182451858 55.76 0.013 0 0
C_2268546110_1387622145_0 J_2268546110 J_1387622145 12.27 0.013 0 0
C_2268546110_4974503765_0 J_2268546110 J_4974503765 23.19 0.013 0 0
C_2268546110_7328345274_0 J_2268546110 J_7328345274 84.16 0.013 0 0
C_13064841548_2180904962_0 J_13064841548 J_2180904962 4.01 0.013 0 0
C_13064841548_818630839_0 J_13064841548 J_818630839 53.06 0.013 0 0
C_3504349795_3504349796_0 J_3504349795 J_3504349796 67.12 0.013 0 0
C_3504349795_1390345459_0 J_3504349795 J_1390345459 120.98 0.013 0 0
C_3504349795_7301789574_0 J_3504349795 J_7301789574 50.85 0.013 0 0
C_5777299715_1390345459_0 J_5777299715 J_1390345459 175.18 0.013 0 0
C_1614318567_2130361899_0 J_1614318567 J_2130361899 19.24 0.013 0 0
C_1614318567_12060861673_0 J_1614318567 J_12060861673 23.74 0.013 0 0
C_1614318567_1614318730_0 J_1614318567 J_1614318730 298.15 0.013 0 0
C_1614318567_1614318635_0 J_1614318567 J_1614318635 252.85 0.013 0 0
C_2130361899_1614318567_0 J_2130361899 J_1614318567 19.24 0.013 0 0
C_2130361899_11891163805_0 J_2130361899 J_11891163805 254.75 0.013 0 0
C_2130361899_6536473139_0 J_2130361899 J_6536473139 28.20 0.013 0 0
C_12060861673_1614318567_0 J_12060861673 J_1614318567 23.74 0.013 0 0
C_12060861673_1615766921_0 J_12060861673 J_1615766921 107.71 0.013 0 0
C_12060861673_11428038812_0 J_12060861673 J_11428038812 403.96 0.013 0 0
C_1614318730_11428038813_0 J_1614318730 J_11428038813 93.01 0.013 0 0
C_1614318635_6562185321_0 J_1614318635 J_6562185321 400.61 0.013 0 0
C_6562185321_6562185320_0 J_6562185321 J_6562185320 14.23 0.013 0 0
C_11428038813_11428038812_0 J_11428038813 J_11428038812 12.67 0.013 0 0
C_11428038813_11428038815_0 J_11428038813 J_11428038815 125.02 0.013 0 0
C_1615766875_11017227499_0 J_1615766875 J_11017227499 16.60 0.013 0 0
C_1615766875_1615766938_0 J_1615766875 J_1615766938 28.39 0.013 0 0
C_1615766875_6536473101_0 J_1615766875 J_6536473101 22.05 0.013 0 0
C_1615766875_1615766958_0 J_1615766875 J_1615766958 118.70 0.013 0 0
C_11017227499_1615766875_0 J_11017227499 J_1615766875 16.60 0.013 0 0
C_1615766938_1615766875_0 J_1615766938 J_1615766875 28.39 0.013 0 0
C_1615766938_1615767002_0 J_1615766938 J_1615767002 109.08 0.013 0 0
C_1615766938_3684986226_0 J_1615766938 J_3684986226 16.18 0.013 0 0
C_1615766938_3237573297_0 J_1615766938 J_3237573297 58.65 0.013 0 0
C_6536473101_1615766875_0 J_6536473101 J_1615766875 22.05 0.013 0 0
C_6536473101_6536473100_0 J_6536473101 J_6536473100 57.10 0.013 0 0
C_6536473101_1615766921_0 J_6536473101 J_1615766921 57.17 0.013 0 0
C_1615766958_1615767002_0 J_1615766958 J_1615767002 17.84 0.013 0 0
C_1615766958_6536473104_0 J_1615766958 J_6536473104 51.02 0.013 0 0
C_1615766958_1615766875_0 J_1615766958 J_1615766875 118.70 0.013 0 0
C_1615766885_1615767016_0 J_1615766885 J_1615767016 19.21 0.013 0 0
C_1615766885_1615766914_0 J_1615766885 J_1615766914 18.82 0.013 0 0
C_1615766885_1615766985_0 J_1615766885 J_1615766985 97.59 0.013 0 0
C_1615767016_1615766885_0 J_1615767016 J_1615766885 19.21 0.013 0 0
C_1615767016_11397517840_0 J_1615767016 J_11397517840 36.52 0.013 0 0
C_1615766914_1615766885_0 J_1615766914 J_1615766885 18.82 0.013 0 0
C_1615766914_1615767002_0 J_1615766914 J_1615767002 19.24 0.013 0 0
C_1615766914_3684986226_0 J_1615766914 J_3684986226 102.54 0.013 0 0
C_1615766985_6968263671_0 J_1615766985 J_6968263671 23.98 0.013 0 0
C_1615766985_1615766885_0 J_1615766985 J_1615766885 97.59 0.013 0 0
C_1615766985_3684986226_0 J_1615766985 J_3684986226 23.31 0.013 0 0
C_1615767002_1615766914_0 J_1615767002 J_1615766914 19.24 0.013 0 0
C_1615767002_1615766958_0 J_1615767002 J_1615766958 17.84 0.013 0 0
C_1615767002_1615766938_0 J_1615767002 J_1615766938 109.08 0.013 0 0
C_3684986226_1615766914_0 J_3684986226 J_1615766914 102.54 0.013 0 0
C_3684986226_1615766985_0 J_3684986226 J_1615766985 23.31 0.013 0 0
C_3684986226_1615766938_0 J_3684986226 J_1615766938 16.18 0.013 0 0
C_1615766921_6536473101_0 J_1615766921 J_6536473101 57.17 0.013 0 0
C_1615766921_12060861673_0 J_1615766921 J_12060861673 107.71 0.013 0 0
C_1615766921_6536473099_0 J_1615766921 J_6536473099 88.31 0.013 0 0
C_6536473099_6536473097_0 J_6536473099 J_6536473097 20.17 0.013 0 0
C_6536473099_6536473098_0 J_6536473099 J_6536473098 74.88 0.013 0 0
C_6536473099_1615766921_0 J_6536473099 J_1615766921 88.31 0.013 0 0
C_3237573297_1615766938_0 J_3237573297 J_1615766938 58.65 0.013 0 0
C_6536473104_1615766958_0 J_6536473104 J_1615766958 51.02 0.013 0 0
C_6536473104_11397532787_0 J_6536473104 J_11397532787 28.22 0.013 0 0
C_6536473104_1615767007_0 J_6536473104 J_1615767007 65.98 0.013 0 0
C_6968263671_6968263670_0 J_6968263671 J_6968263670 27.41 0.013 0 0
C_6968263671_1615766985_0 J_6968263671 J_1615766985 23.98 0.013 0 0
C_6968263671_10172868164_0 J_6968263671 J_10172868164 39.74 0.013 0 0
C_1615767007_6536473104_0 J_1615767007 J_6536473104 65.98 0.013 0 0
C_1615767007_9846394228_0 J_1615767007 J_9846394228 41.16 0.013 0 0
C_9846394228_10969136194_0 J_9846394228 J_10969136194 4.79 0.013 0 0
C_1615767013_11397517840_0 J_1615767013 J_11397517840 31.97 0.013 0 0
C_11397517840_1615767016_0 J_11397517840 J_1615767016 36.52 0.013 0 0
C_11397517840_1615767013_0 J_11397517840 J_1615767013 31.97 0.013 0 0
C_11397517840_11397517841_0 J_11397517840 J_11397517841 16.99 0.013 0 0
C_11070754935_11070754936_0 J_11070754935 J_11070754936 9.25 0.013 0 0
C_11070754935_2387407562_0 J_11070754935 J_2387407562 684.56 0.013 0 0
C_1645178566_11865827584_0 J_1645178566 J_11865827584 10.53 0.013 0 0
C_1645178612_1083500529_0 J_1645178612 J_1083500529 965.58 0.013 0 0
C_1683173710_1683173716_0 J_1683173710 J_1683173716 206.53 0.013 0 0
C_1683173716_1683173710_0 J_1683173716 J_1683173710 206.53 0.013 0 0
C_1683173716_7478154651_0 J_1683173716 J_7478154651 16.97 0.013 0 0
C_7478154651_7147100023_0 J_7478154651 J_7147100023 85.36 0.013 0 0
C_7478154651_11433644719_0 J_7478154651 J_11433644719 163.39 0.013 0 0
C_7147103496_1693112084_0 J_7147103496 J_1693112084 82.02 0.013 0 0
C_11078308794_1693112084_0 J_11078308794 J_1693112084 177.82 0.013 0 0
C_11428038816_2156205416_0 J_11428038816 J_2156205416 157.09 0.013 0 0
C_2446054167_11509998750_0 J_2446054167 J_11509998750 323.99 0.013 0 0
C_2446054167_818634499_0 J_2446054167 J_818634499 23.28 0.013 0 0
C_1714977975_1714984580_0 J_1714977975 J_1714984580 9.83 0.013 0 0
C_1714977975_12009305216_0 J_1714977975 J_12009305216 98.90 0.013 0 0
C_12009305216_12137575005_0 J_12009305216 J_12137575005 16.96 0.013 0 0
C_12009305216_5776756937_0 J_12009305216 J_5776756937 9.68 0.013 0 0
C_1714984568_8403844099_0 J_1714984568 J_8403844099 8.50 0.013 0 0
C_1714984568_5776756937_0 J_1714984568 J_5776756937 200.52 0.013 0 0
C_8403844099_1714984568_0 J_8403844099 J_1714984568 8.50 0.013 0 0
C_8403844099_1714984609_0 J_8403844099 J_1714984609 11.33 0.013 0 0
C_8403844099_6019669025_0 J_8403844099 J_6019669025 89.75 0.013 0 0
C_5776756937_12009305215_0 J_5776756937 J_12009305215 10.75 0.013 0 0
C_1714984609_8403844099_0 J_1714984609 J_8403844099 11.33 0.013 0 0
C_13144414990_1748486107_0 J_13144414990 J_1748486107 81.17 0.013 0 0
C_1815485809_3148587503_0 J_1815485809 J_3148587503 26.75 0.013 0 0
C_3148587503_1815485809_0 J_3148587503 J_1815485809 26.75 0.013 0 0
C_3148587503_7478154731_0 J_3148587503 J_7478154731 24.93 0.013 0 0
C_1817170894_5689989229_0 J_1817170894 J_5689989229 32.56 0.013 0 0
C_1817170894_7328007720_0 J_1817170894 J_7328007720 36.31 0.013 0 0
C_1817170894_5772629055_0 J_1817170894 J_5772629055 93.08 0.013 0 0
C_5689989229_5689989230_0 J_5689989229 J_5689989230 94.54 0.013 0 0
C_5689989229_5689989227_0 J_5689989229 J_5689989227 30.74 0.013 0 0
C_5689989229_1817170894_0 J_5689989229 J_1817170894 32.56 0.013 0 0
C_7328007720_1817170894_0 J_7328007720 J_1817170894 36.31 0.013 0 0
C_7328007720_7478154670_0 J_7328007720 J_7478154670 23.41 0.013 0 0
C_7328007720_7328007723_0 J_7328007720 J_7328007723 96.05 0.013 0 0
C_5772629055_1817170894_0 J_5772629055 J_1817170894 93.08 0.013 0 0
C_1817170897_5689989225_0 J_1817170897 J_5689989225 16.94 0.013 0 0
C_1817170897_5689989227_0 J_1817170897 J_5689989227 23.39 0.013 0 0
C_1817170897_7478154681_0 J_1817170897 J_7478154681 79.83 0.013 0 0
C_5689989225_5689989226_0 J_5689989225 J_5689989226 108.49 0.013 0 0
C_5689989225_1817170898_0 J_5689989225 J_1817170898 72.48 0.013 0 0
C_5689989225_1817170897_0 J_5689989225 J_1817170897 16.94 0.013 0 0
C_5689989227_5689989228_0 J_5689989227 J_5689989228 104.44 0.013 0 0
C_5689989227_1817170897_0 J_5689989227 J_1817170897 23.39 0.013 0 0
C_5689989227_5689989229_0 J_5689989227 J_5689989229 30.74 0.013 0 0
C_7478154681_1817170897_0 J_7478154681 J_1817170897 79.83 0.013 0 0
C_1817170898_5689989225_0 J_1817170898 J_5689989225 72.48 0.013 0 0
C_1817170898_6499300015_0 J_1817170898 J_6499300015 12.20 0.013 0 0
C_1817170898_7328099146_0 J_1817170898 J_7328099146 133.45 0.013 0 0
C_6499300015_1817170898_0 J_6499300015 J_1817170898 12.20 0.013 0 0
C_6499300015_6499300016_0 J_6499300015 J_6499300016 90.14 0.013 0 0
C_6499300015_7328007824_0 J_6499300015 J_7328007824 59.95 0.013 0 0
C_1827247449_5778521345_0 J_1827247449 J_5778521345 173.08 0.013 0 0
C_5778521345_2099691601_0 J_5778521345 J_2099691601 296.53 0.013 0 0
C_5778521345_12690206052_0 J_5778521345 J_12690206052 194.33 0.013 0 0
C_1827634843_1645178566_0 J_1827634843 J_1645178566 279.02 0.013 0 0
C_1906888933_11220661003_0 J_1906888933 J_11220661003 89.94 0.013 0 0
C_1906888933_7736381401_0 J_1906888933 J_7736381401 11.29 0.013 0 0
C_11220661003_12151494704_0 J_11220661003 J_12151494704 9.76 0.013 0 0
C_1914928013_10182390928_0 J_1914928013 J_10182390928 36.82 0.013 0 0
C_1914928013_4682937550_0 J_1914928013 J_4682937550 125.17 0.013 0 0
C_1914928013_7478154729_0 J_1914928013 J_7478154729 209.67 0.013 0 0
C_10182390928_1914928013_0 J_10182390928 J_1914928013 36.82 0.013 0 0
C_4682937550_7479630892_0 J_4682937550 J_7479630892 52.76 0.013 0 0
C_4682937550_13238937706_0 J_4682937550 J_13238937706 279.13 0.013 0 0
C_4682937550_1914928013_0 J_4682937550 J_1914928013 125.17 0.013 0 0
C_2034648230_2034648225_0 J_2034648230 J_2034648225 22.46 0.013 0 0
C_2034648230_2268546125_0 J_2034648230 J_2268546125 11.71 0.013 0 0
C_2034648230_2034648220_0 J_2034648230 J_2034648220 73.63 0.013 0 0
C_2034648234_2268546125_0 J_2034648234 J_2268546125 31.87 0.013 0 0
C_2034648234_2268546111_0 J_2034648234 J_2268546111 89.03 0.013 0 0
C_2034648234_2034648220_0 J_2034648234 J_2034648220 105.90 0.013 0 0
C_2034648222_7266164820_0 J_2034648222 J_7266164820 71.58 0.013 0 0
C_2034648222_7263316354_0 J_2034648222 J_7263316354 25.03 0.013 0 0
C_2034648222_2034648226_0 J_2034648222 J_2034648226 53.31 0.013 0 0
C_7266164820_2034648235_0 J_7266164820 J_2034648235 36.28 0.013 0 0
C_7266164820_2034648222_0 J_7266164820 J_2034648222 71.58 0.013 0 0
C_7266164820_7266164815_0 J_7266164820 J_7266164815 26.37 0.013 0 0
C_2034648226_2034648222_0 J_2034648226 J_2034648222 53.31 0.013 0 0
C_2034648226_2268546160_0 J_2034648226 J_2268546160 89.95 0.013 0 0
C_2034648226_7328379076_0 J_2034648226 J_7328379076 134.28 0.013 0 0
C_7328379076_7328379077_0 J_7328379076 J_7328379077 38.30 0.013 0 0
C_7328379076_2034648226_0 J_7328379076 J_2034648226 134.28 0.013 0 0
C_7328379076_2034648224_0 J_7328379076 J_2034648224 295.66 0.013 0 0
C_2034648233_2268546136_0 J_2034648233 J_2268546136 38.92 0.013 0 0
C_2034648233_2034648225_0 J_2034648233 J_2034648225 36.07 0.013 0 0
C_2034648233_2034648224_0 J_2034648233 J_2034648224 161.31 0.013 0 0
C_2034648225_2034648230_0 J_2034648225 J_2034648230 22.46 0.013 0 0
C_2034648225_2034648233_0 J_2034648225 J_2034648233 36.07 0.013 0 0
C_2034648225_4447100001_0 J_2034648225 J_4447100001 47.42 0.013 0 0
C_4447100001_2034648225_0 J_4447100001 J_2034648225 47.42 0.013 0 0
C_2268546160_2034648226_0 J_2268546160 J_2034648226 89.95 0.013 0 0
C_2268546125_2034648230_0 J_2268546125 J_2034648230 11.71 0.013 0 0
C_2268546125_2034648234_0 J_2268546125 J_2034648234 31.87 0.013 0 0
C_2268546125_2268546121_0 J_2268546125 J_2268546121 88.04 0.013 0 0
C_2268546136_2034648233_0 J_2268546136 J_2034648233 38.92 0.013 0 0
C_2034648235_7266164820_0 J_2034648235 J_7266164820 36.28 0.013 0 0
C_2041854927_2268546140_0 J_2041854927 J_2268546140 9.70 0.013 0 0
C_2041854927_4448123006_0 J_2041854927 J_4448123006 43.34 0.013 0 0
C_2041854927_2268546144_0 J_2041854927 J_2268546144 94.93 0.013 0 0
C_2268546140_2041854927_0 J_2268546140 J_2041854927 9.70 0.013 0 0
C_2268546140_2041854936_0 J_2268546140 J_2041854936 33.21 0.013 0 0
C_2268546140_2268546123_0 J_2268546140 J_2268546123 136.93 0.013 0 0
C_4448123006_4448123019_0 J_4448123006 J_4448123019 20.04 0.013 0 0
C_4448123006_2041854927_0 J_4448123006 J_2041854927 43.34 0.013 0 0
C_4448123006_13142028598_0 J_4448123006 J_13142028598 24.88 0.013 0 0
C_2268546144_2041854927_0 J_2268546144 J_2041854927 94.93 0.013 0 0
C_2041854936_2268546140_0 J_2041854936 J_2268546140 33.21 0.013 0 0
C_2041854936_12334925123_0 J_2041854936 J_12334925123 14.67 0.013 0 0
C_2041854936_2268546152_0 J_2041854936 J_2268546152 71.08 0.013 0 0
C_2268546152_2041854936_0 J_2268546152 J_2041854936 71.08 0.013 0 0
C_2099691584_5354906276_0 J_2099691584 J_5354906276 80.12 0.013 0 0
C_2099691584_6194830177_0 J_2099691584 J_6194830177 47.45 0.013 0 0
C_5354906276_3148587490_0 J_5354906276 J_3148587490 47.88 0.013 0 0
C_5354906276_7479630483_0 J_5354906276 J_7479630483 206.75 0.013 0 0
C_6194830177_7479631105_0 J_6194830177 J_7479631105 40.99 0.013 0 0
C_6194830177_6194830173_0 J_6194830177 J_6194830173 104.22 0.013 0 0
C_6194830177_2099691584_0 J_6194830177 J_2099691584 47.45 0.013 0 0
C_2099691601_7147115841_0 J_2099691601 J_7147115841 212.53 0.013 0 0
C_2099691601_2099691667_0 J_2099691601 J_2099691667 112.36 0.013 0 0
C_2099691630_12517783371_0 J_2099691630 J_12517783371 12.74 0.013 0 0
C_2099691630_12517783377_0 J_2099691630 J_12517783377 114.35 0.013 0 0
C_12517783371_2099691630_0 J_12517783371 J_2099691630 12.74 0.013 0 0
C_12517783371_4474487238_0 J_12517783371 J_4474487238 68.26 0.013 0 0
C_12517783371_12517783377_0 J_12517783371 J_12517783377 114.58 0.013 0 0
C_12517783377_2099691681_0 J_12517783377 J_2099691681 315.25 0.013 0 0
C_2099691637_2387361293_0 J_2099691637 J_2387361293 11.48 0.013 0 0
C_2099691637_5807148396_0 J_2099691637 J_5807148396 156.12 0.013 0 0
C_2099691637_6130070511_0 J_2099691637 J_6130070511 175.15 0.013 0 0
C_2387361293_4540978393_0 J_2387361293 J_4540978393 69.11 0.013 0 0
C_2387361293_2099691637_0 J_2387361293 J_2099691637 11.48 0.013 0 0
C_5807148396_2099691637_0 J_5807148396 J_2099691637 156.12 0.013 0 0
C_6130070511_5776596292_0 J_6130070511 J_5776596292 12.29 0.013 0 0
C_6130070511_7479631470_0 J_6130070511 J_7479631470 214.34 0.013 0 0
C_2099691661_8530739259_0 J_2099691661 J_8530739259 11.68 0.013 0 0
C_2099691661_13823559215_0 J_2099691661 J_13823559215 500.54 0.013 0 0
C_8530739259_2099691661_0 J_8530739259 J_2099691661 11.68 0.013 0 0
C_8530739259_1906888933_0 J_8530739259 J_1906888933 306.96 0.013 0 0
C_8530739259_10196255890_0 J_8530739259 J_10196255890 63.97 0.013 0 0
C_13823559215_13823559216_0 J_13823559215 J_13823559216 9.46 0.013 0 0
C_13823559215_7479630836_0 J_13823559215 J_7479630836 179.68 0.013 0 0
C_11011674941_6749735684_0 J_11011674941 J_6749735684 18.00 0.013 0 0
C_11011674941_11011674942_0 J_11011674941 J_11011674942 21.19 0.013 0 0
C_10172914465_10172914467_0 J_10172914465 J_10172914467 65.10 0.013 0 0
C_10172914465_4285700669_0 J_10172914465 J_4285700669 28.52 0.013 0 0
C_2099691686_2387367081_0 J_2099691686 J_2387367081 240.81 0.013 0 0
C_2099691686_12151458578_0 J_2099691686 J_12151458578 127.94 0.013 0 0
C_2387367081_2099691686_0 J_2387367081 J_2099691686 240.81 0.013 0 0
C_12151458578_11220661004_0 J_12151458578 J_11220661004 9.86 0.013 0 0
C_6749666079_9824245046_0 J_6749666079 J_9824245046 154.93 0.013 0 0
C_6749666079_2113348452_0 J_6749666079 J_2113348452 216.83 0.013 0 0
C_6749666079_9749202516_0 J_6749666079 J_9749202516 280.53 0.013 0 0
C_11891163805_6562185320_0 J_11891163805 J_6562185320 401.62 0.013 0 0
C_11891163805_11891163804_0 J_11891163805 J_11891163804 11.92 0.013 0 0
C_6536473139_6536473138_0 J_6536473139 J_6536473138 144.08 0.013 0 0
C_6536473139_2130361899_0 J_6536473139 J_2130361899 28.20 0.013 0 0
C_6536473139_6536473137_0 J_6536473139 J_6536473137 85.79 0.013 0 0
C_2156205416_2130361899_0 J_2156205416 J_2130361899 703.54 0.013 0 0
C_2156205416_6904648005_0 J_2156205416 J_6904648005 215.85 0.013 0 0
C_2156205416_2412953615_0 J_2156205416 J_2412953615 15.43 0.013 0 0
C_6904648005_6911622972_0 J_6904648005 J_6911622972 47.37 0.013 0 0
C_6904648005_10994377647_0 J_6904648005 J_10994377647 169.54 0.013 0 0
C_6904648005_2156205416_0 J_6904648005 J_2156205416 215.85 0.013 0 0
C_2412953615_11891163804_0 J_2412953615 J_11891163804 962.96 0.013 0 0
C_2412953615_2156205416_0 J_2412953615 J_2156205416 15.43 0.013 0 0
C_2180904962_13064841548_0 J_2180904962 J_13064841548 4.01 0.013 0 0
C_2180904962_3771990505_0 J_2180904962 J_3771990505 130.41 0.013 0 0
C_2180904962_2268546087_0 J_2180904962 J_2268546087 27.01 0.013 0 0
C_2268546087_10994097991_0 J_2268546087 J_10994097991 16.79 0.013 0 0
C_2268546087_2268546093_0 J_2268546087 J_2268546093 81.85 0.013 0 0
C_2268546087_2180904962_0 J_2268546087 J_2180904962 27.01 0.013 0 0
C_2195883497_4445588631_0 J_2195883497 J_4445588631 27.31 0.013 0 0
C_2195883497_2195883502_0 J_2195883497 J_2195883502 61.58 0.013 0 0
C_4445588631_2268546161_0 J_4445588631 J_2268546161 37.13 0.013 0 0
C_4445588631_2195883497_0 J_4445588631 J_2195883497 27.31 0.013 0 0
C_4445588631_2268546143_0 J_4445588631 J_2268546143 89.35 0.013 0 0
C_2206930257_3148668088_0 J_2206930257 J_3148668088 38.23 0.013 0 0
C_2206930257_2206930285_0 J_2206930257 J_2206930285 36.36 0.013 0 0
C_2206930257_2206930279_0 J_2206930257 J_2206930279 128.51 0.013 0 0
C_3148668088_2206930277_0 J_3148668088 J_2206930277 129.29 0.013 0 0
C_3148668088_3148668073_0 J_3148668088 J_3148668073 53.46 0.013 0 0
C_3148668088_2206930257_0 J_3148668088 J_2206930257 38.23 0.013 0 0
C_2206930285_2206930286_0 J_2206930285 J_2206930286 28.29 0.013 0 0
C_2206930285_2206930257_0 J_2206930285 J_2206930257 36.36 0.013 0 0
C_2206930279_2206930270_0 J_2206930279 J_2206930270 104.99 0.013 0 0
C_2206930279_2206930257_0 J_2206930279 J_2206930257 128.51 0.013 0 0
C_2206930279_2206930277_0 J_2206930279 J_2206930277 38.30 0.013 0 0
C_2206930259_2206930263_0 J_2206930259 J_2206930263 41.22 0.013 0 0
C_2206930259_2206930274_0 J_2206930259 J_2206930274 132.31 0.013 0 0
C_2206930263_2206930259_0 J_2206930263 J_2206930259 41.22 0.013 0 0
C_2206930263_3148668073_0 J_2206930263 J_3148668073 48.19 0.013 0 0
C_2206930263_3148668067_0 J_2206930263 J_3148668067 131.65 0.013 0 0
C_2206930274_2206930259_0 J_2206930274 J_2206930259 132.31 0.013 0 0
C_2206930274_2387579019_0 J_2206930274 J_2387579019 162.20 0.013 0 0
C_2206930274_3148668067_0 J_2206930274 J_3148668067 37.47 0.013 0 0
C_2206930274_3148668099_0 J_2206930274 J_3148668099 34.07 0.013 0 0
C_3148668073_2206930263_0 J_3148668073 J_2206930263 48.19 0.013 0 0
C_3148668073_3148668088_0 J_3148668073 J_3148668088 53.46 0.013 0 0
C_3148668073_3148668072_0 J_3148668073 J_3148668072 130.37 0.013 0 0
C_3148668067_2206930263_0 J_3148668067 J_2206930263 131.65 0.013 0 0
C_3148668067_3148668068_0 J_3148668067 J_3148668068 164.90 0.013 0 0
C_3148668067_3148668072_0 J_3148668067 J_3148668072 49.56 0.013 0 0
C_3148668067_2206930274_0 J_3148668067 J_2206930274 37.47 0.013 0 0
C_2206930265_2206930266_0 J_2206930265 J_2206930266 163.05 0.013 0 0
C_2206930266_2206930270_0 J_2206930266 J_2206930270 22.21 0.013 0 0
C_2206930266_3148668114_0 J_2206930266 J_3148668114 191.00 0.013 0 0
C_2206930266_2206930265_0 J_2206930266 J_2206930265 163.05 0.013 0 0
C_2206930270_2206930279_0 J_2206930270 J_2206930279 104.99 0.013 0 0
C_2206930270_2206930266_0 J_2206930270 J_2206930266 22.21 0.013 0 0
C_2206930270_2206930278_0 J_2206930270 J_2206930278 80.56 0.013 0 0
C_3148668114_2206930266_0 J_3148668114 J_2206930266 191.00 0.013 0 0
C_2206930278_2206930277_0 J_2206930278 J_2206930277 146.95 0.013 0 0
C_2206930278_3148668071_0 J_2206930278 J_3148668071 70.62 0.013 0 0
C_2206930278_2206930270_0 J_2206930278 J_2206930270 80.56 0.013 0 0
C_2387579019_2206930274_0 J_2387579019 J_2206930274 162.20 0.013 0 0
C_2387579019_10094041459_0 J_2387579019 J_10094041459 58.66 0.013 0 0
C_2387579019_3148668068_0 J_2387579019 J_3148668068 37.46 0.013 0 0
C_2387579019_3148668100_0 J_2387579019 J_3148668100 35.26 0.013 0 0
C_3148668099_2206930274_0 J_3148668099 J_2206930274 34.07 0.013 0 0
C_3148668099_3148668100_0 J_3148668099 J_3148668100 161.91 0.013 0 0
C_2206930277_3148668088_0 J_2206930277 J_3148668088 129.29 0.013 0 0
C_2206930277_2206930278_0 J_2206930277 J_2206930278 146.95 0.013 0 0
C_2206930277_2206930279_0 J_2206930277 J_2206930279 38.30 0.013 0 0
C_2206930277_3148668072_0 J_2206930277 J_3148668072 58.02 0.013 0 0
C_3148668072_3148668073_0 J_3148668072 J_3148668073 130.37 0.013 0 0
C_3148668072_3148668071_0 J_3148668072 J_3148668071 164.48 0.013 0 0
C_3148668072_2206930277_0 J_3148668072 J_2206930277 58.02 0.013 0 0
C_3148668072_3148668067_0 J_3148668072 J_3148668067 49.56 0.013 0 0
C_3148668071_3148668068_0 J_3148668071 J_3148668068 48.38 0.013 0 0
C_3148668071_3148668072_0 J_3148668071 J_3148668072 164.48 0.013 0 0
C_3148668071_2206930278_0 J_3148668071 J_2206930278 70.62 0.013 0 0
C_10172979379_2206930293_0 J_10172979379 J_2206930293 12.35 0.013 0 0
C_10172979379_10172979378_0 J_10172979379 J_10172979378 101.60 0.013 0 0
C_10172979379_2206930282_0 J_10172979379 J_2206930282 180.71 0.013 0 0
C_2206930284_2206930282_0 J_2206930284 J_2206930282 110.88 0.013 0 0
C_2206930286_2206930285_0 J_2206930286 J_2206930285 28.29 0.013 0 0
C_2206930286_3148668107_0 J_2206930286 J_3148668107 50.59 0.013 0 0
C_2206930286_3148668112_0 J_2206930286 J_3148668112 37.52 0.013 0 0
C_3148668107_3148668111_0 J_3148668107 J_3148668111 37.46 0.013 0 0
C_3148668107_3148668105_0 J_3148668107 J_3148668105 42.47 0.013 0 0
C_3148668107_2206930286_0 J_3148668107 J_2206930286 50.59 0.013 0 0
C_3148668112_2206930286_0 J_3148668112 J_2206930286 37.52 0.013 0 0
C_3148668112_3148668111_0 J_3148668112 J_3148668111 51.20 0.013 0 0
C_3148668112_10172979382_0 J_3148668112 J_10172979382 75.77 0.013 0 0
C_2206930293_3148580198_0 J_2206930293 J_3148580198 31.34 0.013 0 0
C_2206930293_10172979379_0 J_2206930293 J_10172979379 12.35 0.013 0 0
C_2206930293_10172979380_0 J_2206930293 J_10172979380 46.70 0.013 0 0
C_10172979380_2206930293_0 J_10172979380 J_2206930293 46.70 0.013 0 0
C_10172979380_3148668105_0 J_10172979380 J_3148668105 40.50 0.013 0 0
C_10172979380_11359603296_0 J_10172979380 J_11359603296 142.81 0.013 0 0
C_2268546082_2268546086_0 J_2268546082 J_2268546086 36.76 0.013 0 0
C_2268546086_2268546082_0 J_2268546086 J_2268546082 36.76 0.013 0 0
C_2268546086_2268546089_0 J_2268546086 J_2268546089 63.24 0.013 0 0
C_2268546086_2268546089_1 J_2268546086 J_2268546089 166.51 0.013 0 0
C_2268546086_2268546096_0 J_2268546086 J_2268546096 39.53 0.013 0 0
C_2268546089_2268546086_0 J_2268546089 J_2268546086 63.24 0.013 0 0
C_2268546089_2268546086_1 J_2268546089 J_2268546086 166.51 0.013 0 0
C_2268546089_2268546100_0 J_2268546089 J_2268546100 39.00 0.013 0 0
C_2268546096_2268546100_0 J_2268546096 J_2268546100 64.12 0.013 0 0
C_2268546096_2268546095_0 J_2268546096 J_2268546095 24.22 0.013 0 0
C_2268546096_2268546086_0 J_2268546096 J_2268546086 39.53 0.013 0 0
C_2268546093_2268546087_0 J_2268546093 J_2268546087 81.85 0.013 0 0
C_2268546100_2268546096_0 J_2268546100 J_2268546096 64.12 0.013 0 0
C_2268546100_2268546089_0 J_2268546100 J_2268546089 39.00 0.013 0 0
C_2268546100_2268546130_0 J_2268546100 J_2268546130 126.82 0.013 0 0
C_2268546095_2268546096_0 J_2268546095 J_2268546096 24.22 0.013 0 0
C_4475055875_2268546103_0 J_4475055875 J_2268546103 38.11 0.013 0 0
C_2268546105_2268546106_0 J_2268546105 J_2268546106 52.65 0.013 0 0
C_2268546114_2268546123_0 J_2268546114 J_2268546123 46.67 0.013 0 0
C_2268546114_2268546106_0 J_2268546114 J_2268546106 34.85 0.013 0 0
C_2268546114_3148657060_0 J_2268546114 J_3148657060 133.50 0.013 0 0
C_2268546114_4974503765_0 J_2268546114 J_4974503765 31.19 0.013 0 0
C_4974503765_2268546110_0 J_4974503765 J_2268546110 23.19 0.013 0 0
C_4974503765_2268546117_0 J_4974503765 J_2268546117 9.20 0.013 0 0
C_4974503765_2268546114_0 J_4974503765 J_2268546114 31.19 0.013 0 0
C_7328345274_7328345275_0 J_7328345274 J_7328345275 18.81 0.013 0 0
C_7328345274_2268546117_0 J_7328345274 J_2268546117 60.29 0.013 0 0
C_7328345274_2268546110_0 J_7328345274 J_2268546110 84.16 0.013 0 0
C_2268546121_2268546132_0 J_2268546121 J_2268546132 31.75 0.013 0 0
C_2268546121_2268546111_0 J_2268546121 J_2268546111 34.89 0.013 0 0
C_2268546121_2268546125_0 J_2268546121 J_2268546125 88.04 0.013 0 0
C_3148657060_7484216048_0 J_3148657060 J_7484216048 47.25 0.013 0 0
C_3148657060_2268546114_0 J_3148657060 J_2268546114 133.50 0.013 0 0
C_3148657060_12144258014_0 J_3148657060 J_12144258014 124.03 0.013 0 0
C_2268546117_4974503765_0 J_2268546117 J_4974503765 9.20 0.013 0 0
C_2268546117_4448123019_0 J_2268546117 J_4448123019 48.83 0.013 0 0
C_2268546117_7328345274_0 J_2268546117 J_7328345274 60.29 0.013 0 0
C_4448123019_2268546117_0 J_4448123019 J_2268546117 48.83 0.013 0 0
C_4448123019_4448123006_0 J_4448123019 J_4448123006 20.04 0.013 0 0
C_4448123019_4448123015_0 J_4448123019 J_4448123015 36.66 0.013 0 0
C_2268546132_2268546121_0 J_2268546132 J_2268546121 31.75 0.013 0 0
C_6144032627_2268546130_0 J_6144032627 J_2268546130 24.37 0.013 0 0
C_6144032627_6144032626_0 J_6144032627 J_6144032626 167.58 0.013 0 0
C_6144032627_7328379067_0 J_6144032627 J_7328379067 372.55 0.013 0 0
C_5388808643_3148614512_0 J_5388808643 J_3148614512 17.95 0.013 0 0
C_5388808643_2268546143_0 J_5388808643 J_2268546143 40.16 0.013 0 0
C_5388808643_5388808641_0 J_5388808643 J_5388808641 79.08 0.013 0 0
C_2268546146_2268546161_0 J_2268546146 J_2268546161 70.03 0.013 0 0
C_2268546161_4445588631_0 J_2268546161 J_4445588631 37.13 0.013 0 0
C_2268546161_3148614512_0 J_2268546161 J_3148614512 180.11 0.013 0 0
C_2268546161_2268546146_0 J_2268546161 J_2268546146 70.03 0.013 0 0
C_2268546149_2268546151_0 J_2268546149 J_2268546151 78.46 0.013 0 0
C_2268546149_4475150583_0 J_2268546149 J_4475150583 47.17 0.013 0 0
C_2268546149_13142029192_0 J_2268546149 J_13142029192 53.58 0.013 0 0
C_2268546151_2268546149_0 J_2268546151 J_2268546149 78.46 0.013 0 0
C_4475150583_2268546149_0 J_4475150583 J_2268546149 47.17 0.013 0 0
C_4475150583_2268546165_0 J_4475150583 J_2268546165 99.28 0.013 0 0
C_4475150583_2268546159_0 J_4475150583 J_2268546159 33.10 0.013 0 0
C_13142029192_2268546149_0 J_13142029192 J_2268546149 53.58 0.013 0 0
C_2268546156_4475150582_0 J_2268546156 J_4475150582 23.79 0.013 0 0
C_2268546156_2268546158_0 J_2268546156 J_2268546158 35.48 0.013 0 0
C_2268546156_12334925123_0 J_2268546156 J_12334925123 28.28 0.013 0 0
C_2268546158_2268546156_0 J_2268546158 J_2268546156 35.48 0.013 0 0
C_2268546158_2268546159_0 J_2268546158 J_2268546159 26.17 0.013 0 0
C_2268546158_2268546163_0 J_2268546158 J_2268546163 35.44 0.013 0 0
C_2268546159_2268546158_0 J_2268546159 J_2268546158 26.17 0.013 0 0
C_2268546159_4475150583_0 J_2268546159 J_4475150583 33.10 0.013 0 0
C_2268546159_3590694360_0 J_2268546159 J_3590694360 38.37 0.013 0 0
C_2268546163_2268546158_0 J_2268546163 J_2268546158 35.44 0.013 0 0
C_3590694360_2268546159_0 J_3590694360 J_2268546159 38.37 0.013 0 0
C_3148614512_5388808643_0 J_3148614512 J_5388808643 17.95 0.013 0 0
C_3148614512_10994159748_0 J_3148614512 J_10994159748 33.23 0.013 0 0
C_3148614512_2268546161_0 J_3148614512 J_2268546161 180.11 0.013 0 0
C_2268546165_4475150583_0 J_2268546165 J_4475150583 99.28 0.013 0 0
C_2268546165_2268546166_0 J_2268546165 J_2268546166 22.24 0.013 0 0
C_2268546166_3590694361_0 J_2268546166 J_3590694361 40.22 0.013 0 0
C_2268546166_2268546165_0 J_2268546166 J_2268546165 22.24 0.013 0 0
C_2268546166_2268546167_0 J_2268546166 J_2268546167 25.14 0.013 0 0
C_3590694361_2268546166_0 J_3590694361 J_2268546166 40.22 0.013 0 0
C_10725368291_2268546167_0 J_10725368291 J_2268546167 63.10 0.013 0 0
C_3803663193_1827634843_0 J_3803663193 J_1827634843 21.83 0.013 0 0
C_3803663193_9828511707_0 J_3803663193 J_9828511707 39.88 0.013 0 0
C_3141425530_2387290813_0 J_3141425530 J_2387290813 158.39 0.013 0 0
C_5776756946_2387290813_0 J_5776756946 J_2387290813 305.85 0.013 0 0
C_5776756946_264129270_0 J_5776756946 J_264129270 72.54 0.013 0 0
C_4540978393_4540978394_0 J_4540978393 J_4540978394 44.58 0.013 0 0
C_4540978393_264845660_0 J_4540978393 J_264845660 62.32 0.013 0 0
C_2387407562_10056058174_0 J_2387407562 J_10056058174 124.05 0.013 0 0
C_10056058174_10056058173_0 J_10056058174 J_10056058173 9.28 0.013 0 0
C_10056058174_11509998741_0 J_10056058174 J_11509998741 111.60 0.013 0 0
C_3872533486_3872540688_0 J_3872533486 J_3872540688 33.17 0.013 0 0
C_3872533486_3148668030_0 J_3872533486 J_3148668030 43.38 0.013 0 0
C_3872533486_2387579012_0 J_3872533486 J_2387579012 58.87 0.013 0 0
C_10094041459_2387579019_0 J_10094041459 J_2387579019 58.66 0.013 0 0
C_3148668068_3148668067_0 J_3148668068 J_3148668067 164.90 0.013 0 0
C_3148668068_3148668071_0 J_3148668068 J_3148668071 48.38 0.013 0 0
C_3148668068_2387579019_0 J_3148668068 J_2387579019 37.46 0.013 0 0
C_3148668100_2387579019_0 J_3148668100 J_2387579019 35.26 0.013 0 0
C_3148668100_3148668099_0 J_3148668100 J_3148668099 161.91 0.013 0 0
C_3148668100_5726284291_0 J_3148668100 J_5726284291 115.33 0.013 0 0
C_3157670226_2389701677_0 J_3157670226 J_2389701677 59.22 0.013 0 0
C_2391229483_3148645652_0 J_2391229483 J_3148645652 29.56 0.013 0 0
C_2391229483_3148645665_0 J_2391229483 J_3148645665 27.42 0.013 0 0
C_2391229483_3148656434_0 J_2391229483 J_3148656434 87.88 0.013 0 0
C_2391229483_3148645692_0 J_2391229483 J_3148645692 101.83 0.013 0 0
C_3148645652_2391229483_0 J_3148645652 J_2391229483 29.56 0.013 0 0
C_3148645652_3148645678_0 J_3148645652 J_3148645678 34.72 0.013 0 0
C_3148645652_3148645653_0 J_3148645652 J_3148645653 107.79 0.013 0 0
C_3148645665_2391229483_0 J_3148645665 J_2391229483 27.42 0.013 0 0
C_3148645665_3148645667_0 J_3148645665 J_3148645667 104.42 0.013 0 0
C_3148645665_7479631170_0 J_3148645665 J_7479631170 32.41 0.013 0 0
C_3148656434_3148656438_0 J_3148656434 J_3148656438 42.64 0.013 0 0
C_3148656434_3148656436_0 J_3148656434 J_3148656436 54.32 0.013 0 0
C_3148656434_2391229483_0 J_3148656434 J_2391229483 87.88 0.013 0 0
C_3148645692_3148645653_0 J_3148645692 J_3148645653 30.30 0.013 0 0
C_3148645692_3148645667_0 J_3148645692 J_3148645667 34.85 0.013 0 0
C_3148645692_3148645664_0 J_3148645692 J_3148645664 102.35 0.013 0 0
C_3148645692_2391229483_0 J_3148645692 J_2391229483 101.83 0.013 0 0
C_2406966810_2406966812_0 J_2406966810 J_2406966812 10.29 0.013 0 0
C_2406966810_6505394016_0 J_2406966810 J_6505394016 293.82 0.013 0 0
C_2406966812_2406966810_0 J_2406966812 J_2406966810 10.29 0.013 0 0
C_2406966812_10147078393_0 J_2406966812 J_10147078393 747.92 0.013 0 0
C_6505394016_3170478574_0 J_6505394016 J_3170478574 47.47 0.013 0 0
C_6505394016_11395791821_0 J_6505394016 J_11395791821 33.80 0.013 0 0
C_10147078393_13903770309_0 J_10147078393 J_13903770309 60.81 0.013 0 0
C_2407838682_10213547238_0 J_2407838682 J_10213547238 10.48 0.013 0 0
C_2407838682_11011650785_0 J_2407838682 J_11011650785 13.94 0.013 0 0
C_10213547238_8609029843_0 J_10213547238 J_8609029843 14.08 0.013 0 0
C_10213547238_10213547236_0 J_10213547238 J_10213547236 47.46 0.013 0 0
C_11011650785_12279397377_0 J_11011650785 J_12279397377 76.84 0.013 0 0
C_11891163804_1614318635_0 J_11891163804 J_1614318635 4.39 0.013 0 0
C_11891163804_11891163805_0 J_11891163804 J_11891163805 11.92 0.013 0 0
C_2413006760_3150118040_0 J_2413006760 J_3150118040 51.82 0.013 0 0
C_3150118040_9846394225_0 J_3150118040 J_9846394225 37.60 0.013 0 0
C_3150118040_2413006760_0 J_3150118040 J_2413006760 51.82 0.013 0 0
C_3150118040_6536473107_0 J_3150118040 J_6536473107 49.95 0.013 0 0
C_2414360817_3157684367_0 J_2414360817 J_3157684367 66.79 0.013 0 0
C_11509998750_11428038817_0 J_11509998750 J_11428038817 306.33 0.013 0 0
C_2828324522_2828324523_0 J_2828324522 J_2828324523 90.70 0.013 0 0
C_9708811990_9708811991_0 J_9708811990 J_9708811991 104.52 0.013 0 0
C_9708811990_3148668115_0 J_9708811990 J_3148668115 33.20 0.013 0 0
C_9708811990_2828324523_0 J_9708811990 J_2828324523 12.13 0.013 0 0
C_3141425537_3141425534_0 J_3141425537 J_3141425534 154.75 0.013 0 0
C_3141425538_3161309799_0 J_3141425538 J_3161309799 58.97 0.013 0 0
C_3141425539_3141425540_0 J_3141425539 J_3141425540 37.76 0.013 0 0
C_3141425540_3141425539_0 J_3141425540 J_3141425539 37.76 0.013 0 0
C_3141425540_3141425541_0 J_3141425540 J_3141425541 91.25 0.013 0 0
C_3141425540_3141425542_0 J_3141425540 J_3141425542 55.14 0.013 0 0
C_3141425541_3141425540_0 J_3141425541 J_3141425540 91.25 0.013 0 0
C_3141425543_3141425542_0 J_3141425543 J_3141425542 42.03 0.013 0 0
C_3141452102_7328379166_0 J_3141452102 J_7328379166 35.82 0.013 0 0
C_3141452102_13736567789_0 J_3141452102 J_13736567789 10.05 0.013 0 0
C_3141452102_3141472722_0 J_3141452102 J_3141472722 26.73 0.013 0 0
C_7328379166_3141452104_0 J_7328379166 J_3141452104 28.28 0.013 0 0
C_7328379166_3141452102_0 J_7328379166 J_3141452102 35.82 0.013 0 0
C_7328379166_7328379167_0 J_7328379166 J_7328379167 45.80 0.013 0 0
C_7328379166_13736562866_0 J_7328379166 J_13736562866 25.75 0.013 0 0
C_13736567789_13736567811_0 J_13736567789 J_13736567811 30.66 0.013 0 0
C_13736567789_3141452102_0 J_13736567789 J_3141452102 10.05 0.013 0 0
C_13736567789_13736562871_0 J_13736567789 J_13736562871 72.91 0.013 0 0
C_3141452104_3141452108_0 J_3141452104 J_3141452108 11.56 0.013 0 0
C_3141452104_7328379166_0 J_3141452104 J_7328379166 28.28 0.013 0 0
C_3141452104_7262830544_0 J_3141452104 J_7262830544 114.87 0.013 0 0
C_3141452108_3141452104_0 J_3141452108 J_3141452104 11.56 0.013 0 0
C_3141452108_7262830543_0 J_3141452108 J_7262830543 103.64 0.013 0 0
C_3141452108_3141452106_0 J_3141452108 J_3141452106 30.85 0.013 0 0
C_7262830544_7262830543_0 J_7262830544 J_7262830543 25.71 0.013 0 0
C_7262830544_3150107773_0 J_7262830544 J_3150107773 51.78 0.013 0 0
C_7262830544_3141452104_0 J_7262830544 J_3141452104 114.87 0.013 0 0
C_3141452106_3141452111_0 J_3141452106 J_3141452111 57.04 0.013 0 0
C_3141452106_3141452107_0 J_3141452106 J_3141452107 16.66 0.013 0 0
C_3141452106_3141452108_0 J_3141452106 J_3141452108 30.85 0.013 0 0
C_3141452106_3141452113_0 J_3141452106 J_3141452113 30.93 0.013 0 0
C_3141452111_3141452106_0 J_3141452111 J_3141452106 57.04 0.013 0 0
C_3141452107_3141452106_0 J_3141452107 J_3141452106 16.66 0.013 0 0
C_3141452113_3504895466_0 J_3141452113 J_3504895466 106.15 0.013 0 0
C_3141452113_3141452114_0 J_3141452113 J_3141452114 54.83 0.013 0 0
C_3141452113_3141452106_0 J_3141452113 J_3141452106 30.93 0.013 0 0
C_7262830543_3141452108_0 J_7262830543 J_3141452108 103.64 0.013 0 0
C_7262830543_7262830544_0 J_7262830543 J_7262830544 25.71 0.013 0 0
C_7262830543_12651830520_0 J_7262830543 J_12651830520 42.41 0.013 0 0
C_3504895466_3141452118_0 J_3504895466 J_3141452118 36.11 0.013 0 0
C_3504895466_3141452113_0 J_3504895466 J_3141452113 106.15 0.013 0 0
C_3504895466_3141452115_0 J_3504895466 J_3141452115 57.52 0.013 0 0
C_3141452114_3141452113_0 J_3141452114 J_3141452113 54.83 0.013 0 0
C_3141452115_3504895466_0 J_3141452115 J_3504895466 57.52 0.013 0 0
C_3141452118_6136413730_0 J_3141452118 J_6136413730 34.06 0.013 0 0
C_3141452118_4474704607_0 J_3141452118 J_4474704607 68.93 0.013 0 0
C_3141452118_3504895466_0 J_3141452118 J_3504895466 36.11 0.013 0 0
C_6136413730_3141452119_0 J_6136413730 J_3141452119 23.07 0.013 0 0
C_6136413730_3141452118_0 J_6136413730 J_3141452118 34.06 0.013 0 0
C_6136413730_6136413729_0 J_6136413730 J_6136413729 32.04 0.013 0 0
C_4474704607_3141452118_0 J_4474704607 J_3141452118 68.93 0.013 0 0
C_4474704607_7263153539_0 J_4474704607 J_7263153539 107.02 0.013 0 0
C_4474704607_6152308058_0 J_4474704607 J_6152308058 175.79 0.013 0 0
C_3141452119_6136413730_0 J_3141452119 J_6136413730 23.07 0.013 0 0
C_3141452120_6136413729_0 J_3141452120 J_6136413729 54.86 0.013 0 0
C_3141452120_10997029517_0 J_3141452120 J_10997029517 51.99 0.013 0 0
C_3141452120_10997029523_0 J_3141452120 J_10997029523 100.03 0.013 0 0
C_6136413729_3141452121_0 J_6136413729 J_3141452121 50.15 0.013 0 0
C_6136413729_3141452120_0 J_6136413729 J_3141452120 54.86 0.013 0 0
C_6136413729_6136413730_0 J_6136413729 J_6136413730 32.04 0.013 0 0
C_10997029517_3141452120_0 J_10997029517 J_3141452120 51.99 0.013 0 0
C_10997029523_3141452120_0 J_10997029523 J_3141452120 100.03 0.013 0 0
C_3141452121_6136413729_0 J_3141452121 J_6136413729 50.15 0.013 0 0
C_3141452121_3141473146_0 J_3141452121 J_3141473146 19.88 0.013 0 0
C_3141452121_3141452122_0 J_3141452121 J_3141452122 22.44 0.013 0 0
C_3141473146_3141473147_0 J_3141473146 J_3141473147 84.51 0.013 0 0
C_3141473146_3141452121_0 J_3141473146 J_3141452121 19.88 0.013 0 0
C_3141473146_3141473150_0 J_3141473146 J_3141473150 36.00 0.013 0 0
C_3141452122_3141452126_0 J_3141452122 J_3141452126 94.24 0.013 0 0
C_3141452122_3141452121_0 J_3141452122 J_3141452121 22.44 0.013 0 0
C_3141452122_3868740751_0 J_3141452122 J_3868740751 30.46 0.013 0 0
C_3141452122_3141452125_0 J_3141452122 J_3141452125 83.67 0.013 0 0
C_3141452126_3141452122_0 J_3141452126 J_3141452122 94.24 0.013 0 0
C_3868740751_3868740750_0 J_3868740751 J_3868740750 87.10 0.013 0 0
C_3868740751_3141452122_0 J_3868740751 J_3141452122 30.46 0.013 0 0
C_3868740751_12145839287_0 J_3868740751 J_12145839287 6.78 0.013 0 0
C_3141452125_3141452122_0 J_3141452125 J_3141452122 83.67 0.013 0 0
C_13742285040_3141472722_0 J_13742285040 J_3141472722 3.31 0.013 0 0
C_13742285040_6180291884_0 J_13742285040 J_6180291884 34.45 0.013 0 0
C_13742285040_13742285043_0 J_13742285040 J_13742285043 76.12 0.013 0 0
C_3141473131_4462376684_0 J_3141473131 J_4462376684 44.78 0.013 0 0
C_4462376684_3141473131_0 J_4462376684 J_3141473131 44.78 0.013 0 0
C_4462376684_4462416977_0 J_4462376684 J_4462416977 38.33 0.013 0 0
C_4462376684_4447421339_0 J_4462376684 J_4447421339 40.11 0.013 0 0
C_4462376684_3170006931_0 J_4462376684 J_3170006931 60.52 0.013 0 0
C_3141473133_4462416977_0 J_3141473133 J_4462416977 61.07 0.013 0 0
C_3141473133_3141473132_0 J_3141473133 J_3141473132 66.21 0.013 0 0
C_3141473133_3141473136_0 J_3141473133 J_3141473136 36.69 0.013 0 0
C_3141473133_3170006931_0 J_3141473133 J_3170006931 36.38 0.013 0 0
C_3141473135_3141473136_0 J_3141473135 J_3141473136 63.18 0.013 0 0
C_3141473135_3141473132_0 J_3141473135 J_3141473132 37.68 0.013 0 0
C_3141473135_3141473138_0 J_3141473135 J_3141473138 50.63 0.013 0 0
C_4462416977_3141473134_0 J_4462416977 J_3141473134 65.43 0.013 0 0
C_4462416977_3141473133_0 J_4462416977 J_3141473133 61.07 0.013 0 0
C_4462416977_13738230989_0 J_4462416977 J_13738230989 35.22 0.013 0 0
C_4462416977_4462376684_0 J_4462416977 J_4462376684 38.33 0.013 0 0
C_3141473136_3141473135_0 J_3141473136 J_3141473135 63.18 0.013 0 0
C_3141473136_3141473133_0 J_3141473136 J_3141473133 36.69 0.013 0 0
C_3141473136_13738230989_0 J_3141473136 J_13738230989 60.65 0.013 0 0
C_3170006931_3141473133_0 J_3170006931 J_3141473133 36.38 0.013 0 0
C_3170006931_3170006930_0 J_3170006931 J_3170006930 38.60 0.013 0 0
C_3170006931_4462376684_0 J_3170006931 J_4462376684 60.52 0.013 0 0
C_3170006931_7328379173_0 J_3170006931 J_7328379173 68.57 0.013 0 0
C_3141473134_4462416977_0 J_3141473134 J_4462416977 65.43 0.013 0 0
C_3141473138_3141473139_0 J_3141473138 J_3141473139 70.57 0.013 0 0
C_3141473138_3141473140_0 J_3141473138 J_3141473140 25.47 0.013 0 0
C_3141473138_3141473135_0 J_3141473138 J_3141473135 50.63 0.013 0 0
C_13738230989_4462384503_0 J_13738230989 J_4462384503 2.71 0.013 0 0
C_13738230989_3141473136_0 J_13738230989 J_3141473136 60.65 0.013 0 0
C_13738230989_4462416977_0 J_13738230989 J_4462416977 35.22 0.013 0 0
C_3141473139_3141473138_0 J_3141473139 J_3141473138 70.57 0.013 0 0
C_6505328002_3141473145_0 J_6505328002 J_3141473145 27.41 0.013 0 0
C_6505328002_7328379175_0 J_6505328002 J_7328379175 50.64 0.013 0 0
C_6505328002_3141473140_0 J_6505328002 J_3141473140 127.32 0.013 0 0
C_3141473149_13738231243_0 J_3141473149 J_13738231243 19.28 0.013 0 0
C_3141473149_10683903422_0 J_3141473149 J_10683903422 45.72 0.013 0 0
C_3141473149_3141473145_0 J_3141473149 J_3141473145 48.12 0.013 0 0
C_3141473147_3141473146_0 J_3141473147 J_3141473146 84.51 0.013 0 0
C_13738231243_3141473149_0 J_13738231243 J_3141473149 19.28 0.013 0 0
C_13738231243_13738231244_0 J_13738231243 J_13738231244 56.83 0.013 0 0
C_13738231243_6142233154_0 J_13738231243 J_6142233154 29.64 0.013 0 0
C_10683903422_3141473149_0 J_10683903422 J_3141473149 45.72 0.013 0 0
C_3141473151_3141473150_0 J_3141473151 J_3141473150 81.73 0.013 0 0
C_3504895273_3141473155_0 J_3504895273 J_3141473155 46.72 0.013 0 0
C_3504895273_3141473152_0 J_3504895273 J_3141473152 23.88 0.013 0 0
C_3504895273_3504895274_0 J_3504895273 J_3504895274 54.50 0.013 0 0
C_3141473155_6195813805_0 J_3141473155 J_6195813805 59.31 0.013 0 0
C_3141473155_3504895273_0 J_3141473155 J_3504895273 46.72 0.013 0 0
C_3141473155_6180293490_0 J_3141473155 J_6180293490 57.73 0.013 0 0
C_6180293490_13742285043_0 J_6180293490 J_13742285043 3.80 0.013 0 0
C_6180293490_6195813805_0 J_6180293490 J_6195813805 101.59 0.013 0 0
C_6180293490_3141473155_0 J_6180293490 J_3141473155 57.73 0.013 0 0
C_3141475564_13743331026_0 J_3141475564 J_13743331026 1.01 0.013 0 0
C_13743331026_3141475564_0 J_13743331026 J_3141475564 1.01 0.013 0 0
C_13743331026_13743331025_0 J_13743331026 J_13743331025 48.64 0.013 0 0
C_13743331026_13743331044_0 J_13743331026 J_13743331044 24.78 0.013 0 0
C_6560163455_3141475567_0 J_6560163455 J_3141475567 249.16 0.013 0 0
C_3148580144_10175047395_0 J_3148580144 J_10175047395 60.52 0.013 0 0
C_3148580144_3148580145_0 J_3148580144 J_3148580145 62.30 0.013 0 0
C_3148580144_12250445349_0 J_3148580144 J_12250445349 314.49 0.013 0 0
C_10175047395_3148580144_0 J_10175047395 J_3148580144 60.52 0.013 0 0
C_10175047395_10175047396_0 J_10175047395 J_10175047396 72.42 0.013 0 0
C_10175047395_5724583886_0 J_10175047395 J_5724583886 41.95 0.013 0 0
C_3148580145_3148580144_0 J_3148580145 J_3148580144 62.30 0.013 0 0
C_12250445349_12250445350_0 J_12250445349 J_12250445350 64.92 0.013 0 0
C_12250445349_3148580144_0 J_12250445349 J_3148580144 314.49 0.013 0 0
C_7465559430_7465559431_0 J_7465559430 J_7465559431 149.34 0.013 0 0
C_7465559430_11432092734_0 J_7465559430 J_11432092734 3.21 0.013 0 0
C_7465559430_3148580198_0 J_7465559430 J_3148580198 196.91 0.013 0 0
C_3148587479_7479630861_0 J_3148587479 J_7479630861 31.09 0.013 0 0
C_3148587479_3148587482_0 J_3148587479 J_3148587482 73.38 0.013 0 0
C_3148587479_6137643400_0 J_3148587479 J_6137643400 55.86 0.013 0 0
C_7479630861_6137643401_0 J_7479630861 J_6137643401 30.09 0.013 0 0
C_7479630861_3148587479_0 J_7479630861 J_3148587479 31.09 0.013 0 0
C_7479630861_7479630860_0 J_7479630861 J_7479630860 31.01 0.013 0 0
C_3148587482_3148587485_0 J_3148587482 J_3148587485 56.49 0.013 0 0
C_3148587482_3148587479_0 J_3148587482 J_3148587479 73.38 0.013 0 0
C_3148587482_13250405522_0 J_3148587482 J_13250405522 47.80 0.013 0 0
C_3148587482_7479630867_0 J_3148587482 J_7479630867 27.41 0.013 0 0
C_6137643400_3148587479_0 J_6137643400 J_3148587479 55.86 0.013 0 0
C_6137643400_2099691584_0 J_6137643400 J_2099691584 163.17 0.013 0 0
C_3148587485_7479630847_0 J_3148587485 J_7479630847 28.21 0.013 0 0
C_3148587485_7479630882_0 J_3148587485 J_7479630882 26.26 0.013 0 0
C_3148587485_3148587482_0 J_3148587485 J_3148587482 56.49 0.013 0 0
C_13250405522_3148587482_0 J_13250405522 J_3148587482 47.80 0.013 0 0
C_7479630867_7479630868_0 J_7479630867 J_7479630868 40.45 0.013 0 0
C_7479630867_7479630871_0 J_7479630867 J_7479630871 24.59 0.013 0 0
C_7479630867_3148587482_0 J_7479630867 J_3148587482 27.41 0.013 0 0
C_7479630847_3148587485_0 J_7479630847 J_3148587485 28.21 0.013 0 0
C_7479630847_7479630846_0 J_7479630847 J_7479630846 27.72 0.013 0 0
C_7479630847_3148587489_0 J_7479630847 J_3148587489 115.87 0.013 0 0
C_7479630882_7479630883_0 J_7479630882 J_7479630883 31.57 0.013 0 0
C_7479630882_3148587485_0 J_7479630882 J_3148587485 26.26 0.013 0 0
C_7479630882_7479630878_0 J_7479630882 J_7479630878 50.44 0.013 0 0
C_3148587489_3148587495_0 J_3148587489 J_3148587495 39.63 0.013 0 0
C_3148587489_7479630469_0 J_3148587489 J_7479630469 25.54 0.013 0 0
C_3148587489_6914358632_0 J_3148587489 J_6914358632 21.49 0.013 0 0
C_3148587489_7479630847_0 J_3148587489 J_7479630847 115.87 0.013 0 0
C_3148587495_3148587489_0 J_3148587495 J_3148587489 39.63 0.013 0 0
C_3148587495_7479630500_0 J_3148587495 J_7479630500 138.38 0.013 0 0
C_3148587495_7479630520_0 J_3148587495 J_7479630520 39.17 0.013 0 0
C_7479630469_3148587489_0 J_7479630469 J_3148587489 25.54 0.013 0 0
C_7479630469_7479630456_0 J_7479630469 J_7479630456 20.21 0.013 0 0
C_7479630469_7479630444_0 J_7479630469 J_7479630444 69.20 0.013 0 0
C_6914358632_6914358631_0 J_6914358632 J_6914358631 36.09 0.013 0 0
C_6914358632_6914358633_0 J_6914358632 J_6914358633 24.14 0.013 0 0
C_6914358632_3148587489_0 J_6914358632 J_3148587489 21.49 0.013 0 0
C_3148587490_6194830173_0 J_3148587490 J_6194830173 11.16 0.013 0 0
C_3148587490_5354906276_0 J_3148587490 J_5354906276 47.88 0.013 0 0
C_3148587490_7479630459_0 J_3148587490 J_7479630459 139.30 0.013 0 0
C_6194830173_7147081175_0 J_6194830173 J_7147081175 21.64 0.013 0 0
C_6194830173_3148587490_0 J_6194830173 J_3148587490 11.16 0.013 0 0
C_6194830173_6194830177_0 J_6194830173 J_6194830177 104.22 0.013 0 0
C_7479630459_3148587490_0 J_7479630459 J_3148587490 139.30 0.013 0 0
C_7479630500_3148587495_0 J_7479630500 J_3148587495 138.38 0.013 0 0
C_7479630520_7479630545_0 J_7479630520 J_7479630545 36.37 0.013 0 0
C_7479630520_7479630537_0 J_7479630520 J_7479630537 134.22 0.013 0 0
C_7479630520_3148587495_0 J_7479630520 J_3148587495 39.17 0.013 0 0
C_3148587502_6143252361_0 J_3148587502 J_6143252361 20.72 0.013 0 0
C_3148587502_7436685266_0 J_3148587502 J_7436685266 17.80 0.013 0 0
C_6143252361_6143252362_0 J_6143252361 J_6143252362 35.92 0.013 0 0
C_6143252361_6143252363_0 J_6143252361 J_6143252363 17.48 0.013 0 0
C_6143252361_3148587502_0 J_6143252361 J_3148587502 20.72 0.013 0 0
C_7436685266_7479631027_0 J_7436685266 J_7479631027 5.27 0.013 0 0
C_7436685266_7479630316_0 J_7436685266 J_7479630316 33.91 0.013 0 0
C_7436685266_3148587502_0 J_7436685266 J_3148587502 17.80 0.013 0 0
C_7478154731_3148587503_0 J_7478154731 J_3148587503 24.93 0.013 0 0
C_7478154731_7478154719_0 J_7478154731 J_7478154719 32.40 0.013 0 0
C_6536473134_6536473137_0 J_6536473134 J_6536473137 41.45 0.013 0 0
C_6536473134_6536473137_1 J_6536473134 J_6536473137 129.04 0.013 0 0
C_6536473134_3148609358_0 J_6536473134 J_3148609358 644.79 0.013 0 0
C_3148614498_3148620681_0 J_3148614498 J_3148620681 158.83 0.013 0 0
C_3148614498_4446468155_0 J_3148614498 J_4446468155 57.34 0.013 0 0
C_3148620681_10182373813_0 J_3148620681 J_10182373813 37.34 0.013 0 0
C_3148620681_3148614498_0 J_3148620681 J_3148614498 158.83 0.013 0 0
C_3148620681_3148620680_0 J_3148620681 J_3148620680 67.61 0.013 0 0
C_4446468155_4446468152_0 J_4446468155 J_4446468152 71.13 0.013 0 0
C_4446468155_3148620677_0 J_4446468155 J_3148620677 14.21 0.013 0 0
C_4446468155_3148614498_0 J_4446468155 J_3148614498 57.34 0.013 0 0
C_3148614507_6885777459_0 J_3148614507 J_6885777459 176.54 0.013 0 0
C_3148614507_10994159748_0 J_3148614507 J_10994159748 18.58 0.013 0 0
C_3148614507_3148614513_0 J_3148614507 J_3148614513 118.49 0.013 0 0
C_6885777459_6902137283_0 J_6885777459 J_6902137283 14.02 0.013 0 0
C_6885777459_6194014544_0 J_6885777459 J_6194014544 37.15 0.013 0 0
C_6885777459_3148614507_0 J_6885777459 J_3148614507 176.54 0.013 0 0
C_10994159748_10994159749_0 J_10994159748 J_10994159749 32.57 0.013 0 0
C_10994159748_3148614507_0 J_10994159748 J_3148614507 18.58 0.013 0 0
C_10994159748_3148614512_0 J_10994159748 J_3148614512 33.23 0.013 0 0
C_3148614513_4475027232_0 J_3148614513 J_4475027232 43.81 0.013 0 0
C_3148614513_3148614507_0 J_3148614513 J_3148614507 118.49 0.013 0 0
C_3148614513_3148614516_0 J_3148614513 J_3148614516 37.78 0.013 0 0
C_4475027232_3148614513_0 J_4475027232 J_3148614513 43.81 0.013 0 0
C_4475027232_4475027221_0 J_4475027232 J_4475027221 37.83 0.013 0 0
C_4475027232_3148614515_0 J_4475027232 J_3148614515 38.47 0.013 0 0
C_3148614516_3148614515_0 J_3148614516 J_3148614515 52.22 0.013 0 0
C_3148614516_3148614513_0 J_3148614516 J_3148614513 37.78 0.013 0 0
C_3148614516_3148620677_0 J_3148614516 J_3148620677 25.98 0.013 0 0
C_3148614515_3148614516_0 J_3148614515 J_3148614516 52.22 0.013 0 0
C_3148614515_6562178338_0 J_3148614515 J_6562178338 30.61 0.013 0 0
C_3148614515_4475027232_0 J_3148614515 J_4475027232 38.47 0.013 0 0
C_6562178338_3148620677_0 J_6562178338 J_3148620677 50.03 0.013 0 0
C_6562178338_3148614515_0 J_6562178338 J_3148614515 30.61 0.013 0 0
C_6562178338_6194089776_0 J_6562178338 J_6194089776 38.99 0.013 0 0
C_3148620677_6562178338_0 J_3148620677 J_6562178338 50.03 0.013 0 0
C_3148620677_3148614516_0 J_3148620677 J_3148614516 25.98 0.013 0 0
C_3148620677_4446468155_0 J_3148620677 J_4446468155 14.21 0.013 0 0
C_3148619693_3148657085_0 J_3148619693 J_3148657085 25.40 0.013 0 0
C_3148657085_3148619693_0 J_3148657085 J_3148619693 25.40 0.013 0 0
C_3148657085_11106970230_0 J_3148657085 J_11106970230 69.05 0.013 0 0
C_3148657085_4475027228_0 J_3148657085 J_4475027228 34.29 0.013 0 0
C_3148619697_3148619698_0 J_3148619697 J_3148619698 28.54 0.013 0 0
C_3148619697_6194291027_0 J_3148619697 J_6194291027 98.93 0.013 0 0
C_3148619697_3148620680_0 J_3148619697 J_3148620680 37.30 0.013 0 0
C_3148619698_3148619697_0 J_3148619698 J_3148619697 28.54 0.013 0 0
C_3148619698_3148619699_0 J_3148619698 J_3148619699 80.21 0.013 0 0
C_3148619698_4475027228_0 J_3148619698 J_4475027228 24.70 0.013 0 0
C_6194291027_3148619697_0 J_6194291027 J_3148619697 98.93 0.013 0 0
C_6194291027_11408964582_0 J_6194291027 J_11408964582 28.78 0.013 0 0
C_6194291027_7484216053_0 J_6194291027 J_7484216053 25.55 0.013 0 0
C_3148620680_3148620676_0 J_3148620680 J_3148620676 32.89 0.013 0 0
C_3148620680_4446471884_0 J_3148620680 J_4446471884 21.46 0.013 0 0
C_3148620680_3148620681_0 J_3148620680 J_3148620681 67.61 0.013 0 0
C_3148620680_3148619697_0 J_3148620680 J_3148619697 37.30 0.013 0 0
C_3148619699_3148619698_0 J_3148619699 J_3148619698 80.21 0.013 0 0
C_4475027228_4475027229_0 J_4475027228 J_4475027229 46.58 0.013 0 0
C_4475027228_3148619698_0 J_4475027228 J_3148619698 24.70 0.013 0 0
C_4475027228_3148657085_0 J_4475027228 J_3148657085 34.29 0.013 0 0
C_3148620676_3148620680_0 J_3148620676 J_3148620680 32.89 0.013 0 0
C_4446471884_3148620680_0 J_4446471884 J_3148620680 21.46 0.013 0 0
C_4446471884_6194089776_0 J_4446471884 J_6194089776 54.23 0.013 0 0
C_4446471884_4446471885_0 J_4446471884 J_4446471885 47.84 0.013 0 0
C_10182373813_3148620681_0 J_10182373813 J_3148620681 37.34 0.013 0 0
C_10182373813_10182373816_0 J_10182373813 J_10182373816 46.97 0.013 0 0
C_3148620696_4475027221_0 J_3148620696 J_4475027221 35.01 0.013 0 0
C_3148620696_4475027226_0 J_3148620696 J_4475027226 13.33 0.013 0 0
C_3148620696_3148620698_0 J_3148620696 J_3148620698 57.09 0.013 0 0
C_4475027221_3148620696_0 J_4475027221 J_3148620696 35.01 0.013 0 0
C_4475027221_4475027224_0 J_4475027221 J_4475027224 32.34 0.013 0 0
C_4475027221_4475027232_0 J_4475027221 J_4475027232 37.83 0.013 0 0
C_4475027226_4475027222_0 J_4475027226 J_4475027222 48.23 0.013 0 0
C_4475027226_4475027231_0 J_4475027226 J_4475027231 28.59 0.013 0 0
C_4475027226_3148620696_0 J_4475027226 J_3148620696 13.33 0.013 0 0
C_3148620698_3148620696_0 J_3148620698 J_3148620696 57.09 0.013 0 0
C_5370756307_5370756309_0 J_5370756307 J_5370756309 16.92 0.013 0 0
C_5370756307_2446054167_0 J_5370756307 J_2446054167 64.38 0.013 0 0
C_13928938241_11260020610_0 J_13928938241 J_11260020610 336.52 0.013 0 0
C_3148645678_3148645652_0 J_3148645678 J_3148645652 34.72 0.013 0 0
C_3148645678_7479631168_0 J_3148645678 J_7479631168 10.97 0.013 0 0
C_3148645678_3148645681_0 J_3148645678 J_3148645681 114.22 0.013 0 0
C_3148645653_3148645652_0 J_3148645653 J_3148645652 107.79 0.013 0 0
C_3148645653_3148645681_0 J_3148645653 J_3148645681 34.29 0.013 0 0
C_3148645653_3148645692_0 J_3148645653 J_3148645692 30.30 0.013 0 0
C_3148645653_3148645655_0 J_3148645653 J_3148645655 109.84 0.013 0 0
C_3148645681_3148645684_0 J_3148645681 J_3148645684 30.54 0.013 0 0
C_3148645681_3148645653_0 J_3148645681 J_3148645653 34.29 0.013 0 0
C_3148645681_3148645673_0 J_3148645681 J_3148645673 114.96 0.013 0 0
C_3148645681_3148645678_0 J_3148645681 J_3148645678 114.22 0.013 0 0
C_3148645655_3148655285_0 J_3148645655 J_3148655285 22.54 0.013 0 0
C_3148645655_3148655284_0 J_3148645655 J_3148655284 5.73 0.013 0 0
C_3148645655_3148645653_0 J_3148645655 J_3148645653 109.84 0.013 0 0
C_3148655285_3148645673_0 J_3148655285 J_3148645673 10.33 0.013 0 0
C_3148655285_3148645655_0 J_3148655285 J_3148645655 22.54 0.013 0 0
C_3148655285_3148655283_0 J_3148655285 J_3148655283 87.32 0.013 0 0
C_3148655284_3148645655_0 J_3148655284 J_3148645655 5.73 0.013 0 0
C_3148655284_3148645664_0 J_3148655284 J_3148645664 22.46 0.013 0 0
C_3148655284_3148655283_0 J_3148655284 J_3148655283 66.79 0.013 0 0
C_3148645664_3148655284_0 J_3148645664 J_3148655284 22.46 0.013 0 0
C_3148645664_3148645670_0 J_3148645664 J_3148645670 35.54 0.013 0 0
C_3148645664_3148645692_0 J_3148645664 J_3148645692 102.35 0.013 0 0
C_3148645670_3148645667_0 J_3148645670 J_3148645667 94.49 0.013 0 0
C_3148645670_3148645664_0 J_3148645670 J_3148645664 35.54 0.013 0 0
C_3148645670_3148645671_0 J_3148645670 J_3148645671 29.07 0.013 0 0
C_3148645667_3148645670_0 J_3148645667 J_3148645670 94.49 0.013 0 0
C_3148645667_3148645665_0 J_3148645667 J_3148645665 104.42 0.013 0 0
C_3148645667_3148645692_0 J_3148645667 J_3148645692 34.85 0.013 0 0
C_3148645667_3148645691_0 J_3148645667 J_3148645691 34.50 0.013 0 0
C_7479631170_3148645665_0 J_7479631170 J_3148645665 32.41 0.013 0 0
C_3148645691_7479631133_0 J_3148645691 J_7479631133 75.27 0.013 0 0
C_3148645691_6888084544_0 J_3148645691 J_6888084544 69.42 0.013 0 0
C_3148645691_6888084544_1 J_3148645691 J_6888084544 138.75 0.013 0 0
C_3148645691_3148645667_0 J_3148645691 J_3148645667 34.50 0.013 0 0
C_3148655234_3148645671_0 J_3148655234 J_3148645671 6.32 0.013 0 0
C_3148655234_3148655235_0 J_3148655234 J_3148655235 52.21 0.013 0 0
C_3148655234_6888084544_0 J_3148655234 J_6888084544 21.92 0.013 0 0
C_3148645673_3148645685_0 J_3148645673 J_3148645685 32.73 0.013 0 0
C_3148645673_3148655285_0 J_3148645673 J_3148655285 10.33 0.013 0 0
C_3148645673_3148645681_0 J_3148645673 J_3148645681 114.96 0.013 0 0
C_3148645685_3148645674_0 J_3148645685 J_3148645674 17.35 0.013 0 0
C_3148645685_3148645673_0 J_3148645685 J_3148645673 32.73 0.013 0 0
C_3148645685_3148645684_0 J_3148645685 J_3148645684 119.67 0.013 0 0
C_3148645674_3148645675_0 J_3148645674 J_3148645675 31.13 0.013 0 0
C_3148645674_3148645685_0 J_3148645674 J_3148645685 17.35 0.013 0 0
C_3148645674_7479631201_0 J_3148645674 J_7479631201 72.14 0.013 0 0
C_3148645675_3148645674_0 J_3148645675 J_3148645674 31.13 0.013 0 0
C_3148645675_3148645700_0 J_3148645675 J_3148645700 28.69 0.013 0 0
C_3148645675_7479631193_0 J_3148645675 J_7479631193 91.59 0.013 0 0
C_7479631201_3148645674_0 J_7479631201 J_3148645674 72.14 0.013 0 0
C_3148645700_3148645677_0 J_3148645700 J_3148645677 24.65 0.013 0 0
C_3148645700_3148645699_0 J_3148645700 J_3148645699 54.58 0.013 0 0
C_3148645700_3148645675_0 J_3148645700 J_3148645675 28.69 0.013 0 0
C_7479631193_3148645693_0 J_7479631193 J_3148645693 35.60 0.013 0 0
C_7479631193_7479631192_0 J_7479631193 J_7479631192 34.36 0.013 0 0
C_7479631193_3148645675_0 J_7479631193 J_3148645675 91.59 0.013 0 0
C_3148645677_3148645700_0 J_3148645677 J_3148645700 24.65 0.013 0 0
C_7479631168_3148645678_0 J_7479631168 J_3148645678 10.97 0.013 0 0
C_7479631168_3148645683_0 J_7479631168 J_3148645683 18.52 0.013 0 0
C_7479631168_7479631169_0 J_7479631168 J_7479631169 30.88 0.013 0 0
C_3148645684_3148645685_0 J_3148645684 J_3148645685 119.67 0.013 0 0
C_3148645684_3148645683_0 J_3148645684 J_3148645683 120.49 0.013 0 0
C_3148645684_3148645693_0 J_3148645684 J_3148645693 32.12 0.013 0 0
C_3148645684_3148645681_0 J_3148645684 J_3148645681 30.54 0.013 0 0
C_3148645683_7479631168_0 J_3148645683 J_7479631168 18.52 0.013 0 0
C_3148645683_3148645684_0 J_3148645683 J_3148645684 120.49 0.013 0 0
C_3148645683_3148645693_0 J_3148645683 J_3148645693 188.65 0.013 0 0
C_3148645693_7479631193_0 J_3148645693 J_7479631193 35.60 0.013 0 0
C_3148645693_3148645698_0 J_3148645693 J_3148645698 36.50 0.013 0 0
C_3148645693_3148645684_0 J_3148645693 J_3148645684 32.12 0.013 0 0
C_3148645693_3148645683_0 J_3148645693 J_3148645683 188.65 0.013 0 0
C_7479631133_7479631135_0 J_7479631133 J_7479631135 24.61 0.013 0 0
C_7479631133_3148645691_0 J_7479631133 J_3148645691 75.27 0.013 0 0
C_7479631133_7479631134_0 J_7479631133 J_7479631134 24.78 0.013 0 0
C_6888084544_3148645691_0 J_6888084544 J_3148645691 69.42 0.013 0 0
C_6888084544_3148645691_1 J_6888084544 J_3148645691 138.75 0.013 0 0
C_6888084544_3148655234_0 J_6888084544 J_3148655234 21.92 0.013 0 0
C_3148645698_3148645693_0 J_3148645698 J_3148645693 36.50 0.013 0 0
C_3148645698_7479631181_0 J_3148645698 J_7479631181 15.80 0.013 0 0
C_3148645698_3148645696_0 J_3148645698 J_3148645696 46.73 0.013 0 0
C_3148645696_3148645698_0 J_3148645696 J_3148645698 46.73 0.013 0 0
C_3148645697_7479631182_0 J_3148645697 J_7479631182 70.33 0.013 0 0
C_7479631182_7479631181_0 J_7479631182 J_7479631181 26.76 0.013 0 0
C_7479631182_3148645697_0 J_7479631182 J_3148645697 70.33 0.013 0 0
C_7479631182_7479631187_0 J_7479631182 J_7479631187 88.42 0.013 0 0
C_7479631181_3148645698_0 J_7479631181 J_3148645698 15.80 0.013 0 0
C_7479631181_7479631182_0 J_7479631181 J_7479631182 26.76 0.013 0 0
C_7479631181_7479631180_0 J_7479631181 J_7479631180 32.33 0.013 0 0
C_3148645699_3148645700_0 J_3148645699 J_3148645700 54.58 0.013 0 0
C_3148655235_3148655234_0 J_3148655235 J_3148655234 52.21 0.013 0 0
C_3148655239_3148655236_0 J_3148655239 J_3148655236 33.79 0.013 0 0
C_3148655239_3148655287_0 J_3148655239 J_3148655287 18.05 0.013 0 0
C_3148655239_3148655283_0 J_3148655239 J_3148655283 60.32 0.013 0 0
C_3148655239_3148655242_0 J_3148655239 J_3148655242 85.66 0.013 0 0
C_7479631141_3148655236_0 J_7479631141 J_3148655236 69.85 0.013 0 0
C_3148655287_3148655239_0 J_3148655287 J_3148655239 18.05 0.013 0 0
C_3148655287_3148655243_0 J_3148655287 J_3148655243 19.75 0.013 0 0
C_3148655287_3148655290_0 J_3148655287 J_3148655290 85.06 0.013 0 0
C_3148655283_3148655239_0 J_3148655283 J_3148655239 60.32 0.013 0 0
C_3148655283_3148655284_0 J_3148655283 J_3148655284 66.79 0.013 0 0
C_3148655283_3148655285_0 J_3148655283 J_3148655285 87.32 0.013 0 0
C_3148655242_3148655239_0 J_3148655242 J_3148655239 85.66 0.013 0 0
C_3148655243_3148655287_0 J_3148655243 J_3148655287 19.75 0.013 0 0
C_3148655243_3148655291_0 J_3148655243 J_3148655291 9.91 0.013 0 0
C_3148655243_3148655248_0 J_3148655243 J_3148655248 97.33 0.013 0 0
C_3148655291_3148655243_0 J_3148655291 J_3148655243 9.91 0.013 0 0
C_3148655291_3148655249_0 J_3148655291 J_3148655249 17.86 0.013 0 0
C_3148655291_3148655295_0 J_3148655291 J_3148655295 89.55 0.013 0 0
C_3148655248_3148655243_0 J_3148655248 J_3148655243 97.33 0.013 0 0
C_3148655249_3148655291_0 J_3148655249 J_3148655291 17.86 0.013 0 0
C_3148655249_7479631204_0 J_3148655249 J_7479631204 18.85 0.013 0 0
C_3148655249_3148655253_0 J_3148655249 J_3148655253 106.09 0.013 0 0
C_7479631204_3148655249_0 J_7479631204 J_3148655249 18.85 0.013 0 0
C_7479631204_12695959789_0 J_7479631204 J_12695959789 17.65 0.013 0 0
C_7479631204_3148655308_0 J_7479631204 J_3148655308 78.03 0.013 0 0
C_3148655253_3148655249_0 J_3148655253 J_3148655249 106.09 0.013 0 0
C_3148655260_7479631146_0 J_3148655260 J_7479631146 99.70 0.013 0 0
C_7479631146_3148655261_0 J_7479631146 J_3148655261 16.48 0.013 0 0
C_7479631146_3148655260_0 J_7479631146 J_3148655260 99.70 0.013 0 0
C_7479631146_12695959789_0 J_7479631146 J_12695959789 58.24 0.013 0 0
C_3148655261_7479631146_0 J_3148655261 J_7479631146 16.48 0.013 0 0
C_3148655261_7479631148_0 J_3148655261 J_7479631148 9.35 0.013 0 0
C_3148655261_3148655262_0 J_3148655261 J_3148655262 78.19 0.013 0 0
C_7479631148_3148655261_0 J_7479631148 J_3148655261 9.35 0.013 0 0
C_7479631148_3148655263_0 J_7479631148 J_3148655263 20.12 0.013 0 0
C_7479631148_7479631147_0 J_7479631148 J_7479631147 45.07 0.013 0 0
C_3148655262_3148655261_0 J_3148655262 J_3148655261 78.19 0.013 0 0
C_3148655263_7479631148_0 J_3148655263 J_7479631148 20.12 0.013 0 0
C_3148655263_3148655266_0 J_3148655263 J_3148655266 32.61 0.013 0 0
C_3148655263_3148655264_0 J_3148655263 J_3148655264 77.45 0.013 0 0
C_3148655264_3148655263_0 J_3148655264 J_3148655263 77.45 0.013 0 0
C_3148655265_3148655266_0 J_3148655265 J_3148655266 81.05 0.013 0 0
C_3148655268_7479631149_0 J_3148655268 J_7479631149 29.08 0.013 0 0
C_3148655268_7479631210_0 J_3148655268 J_7479631210 34.22 0.013 0 0
C_3148655268_3148655266_0 J_3148655268 J_3148655266 82.47 0.013 0 0
C_3148655268_3148656432_0 J_3148655268 J_3148656432 56.19 0.013 0 0
C_7479631149_3148655325_0 J_7479631149 J_3148655325 5.35 0.013 0 0
C_7479631149_3148655268_0 J_7479631149 J_3148655268 29.08 0.013 0 0
C_7479631149_7479631152_0 J_7479631149 J_7479631152 41.92 0.013 0 0
C_7479631210_3148655268_0 J_7479631210 J_3148655268 34.22 0.013 0 0
C_7479631210_3148655275_0 J_7479631210 J_3148655275 12.64 0.013 0 0
C_7479631210_7479631213_0 J_7479631210 J_7479631213 34.30 0.013 0 0
C_3148656432_3148655268_0 J_3148656432 J_3148655268 56.19 0.013 0 0
C_9720271254_12147412804_0 J_9720271254 J_12147412804 53.96 0.013 0 0
C_9720271254_12147412806_0 J_9720271254 J_12147412806 21.64 0.013 0 0
C_9720271254_3148655277_0 J_9720271254 J_3148655277 192.46 0.013 0 0
C_3148655290_3148655287_0 J_3148655290 J_3148655287 85.06 0.013 0 0
C_3148655295_3148655302_0 J_3148655295 J_3148655302 20.73 0.013 0 0
C_3148655295_3148655291_0 J_3148655295 J_3148655291 89.55 0.013 0 0
C_3148655295_3148655300_0 J_3148655295 J_3148655300 62.74 0.013 0 0
C_3148655302_3148655308_0 J_3148655302 J_3148655308 12.67 0.013 0 0
C_3148655302_3148655295_0 J_3148655302 J_3148655295 20.73 0.013 0 0
C_3148655302_3148655312_0 J_3148655302 J_3148655312 46.46 0.013 0 0
C_3148655300_3148655295_0 J_3148655300 J_3148655295 62.74 0.013 0 0
C_3148655296_12695959789_0 J_3148655296 J_12695959789 7.22 0.013 0 0
C_3148655296_3148655317_0 J_3148655296 J_3148655317 30.19 0.013 0 0
C_3148655296_3148655299_0 J_3148655296 J_3148655299 55.45 0.013 0 0
C_12695959789_7479631204_0 J_12695959789 J_7479631204 17.65 0.013 0 0
C_12695959789_3148655296_0 J_12695959789 J_3148655296 7.22 0.013 0 0
C_12695959789_7479631146_0 J_12695959789 J_7479631146 58.24 0.013 0 0
C_3148655317_3148655296_0 J_3148655317 J_3148655296 30.19 0.013 0 0
C_3148655317_3148655325_0 J_3148655317 J_3148655325 38.58 0.013 0 0
C_3148655317_3148655322_0 J_3148655317 J_3148655322 87.95 0.013 0 0
C_3148655299_3148655296_0 J_3148655299 J_3148655296 55.45 0.013 0 0
C_3148655299_3148655307_0 J_3148655299 J_3148655307 54.23 0.013 0 0
C_3148655299_3148655313_0 J_3148655299 J_3148655313 20.81 0.013 0 0
C_3148655307_3148655299_0 J_3148655307 J_3148655299 54.23 0.013 0 0
C_3148655313_3148655308_0 J_3148655313 J_3148655308 10.95 0.013 0 0
C_3148655313_3148655299_0 J_3148655313 J_3148655299 20.81 0.013 0 0
C_3148655313_3148655316_0 J_3148655313 J_3148655316 47.85 0.013 0 0
C_3148655308_3148655313_0 J_3148655308 J_3148655313 10.95 0.013 0 0
C_3148655308_3148655302_0 J_3148655308 J_3148655302 12.67 0.013 0 0
C_3148655308_7479631204_0 J_3148655308 J_7479631204 78.03 0.013 0 0
C_3148655312_3148655302_0 J_3148655312 J_3148655302 46.46 0.013 0 0
C_3148655316_3148655313_0 J_3148655316 J_3148655313 47.85 0.013 0 0
C_3148655325_3148655317_0 J_3148655325 J_3148655317 38.58 0.013 0 0
C_3148655325_7479631149_0 J_3148655325 J_7479631149 5.35 0.013 0 0
C_3148655325_3148655328_0 J_3148655325 J_3148655328 72.56 0.013 0 0
C_3148655322_3148655317_0 J_3148655322 J_3148655317 87.95 0.013 0 0
C_3148655328_3148655325_0 J_3148655328 J_3148655325 72.56 0.013 0 0
C_3148656436_3148656435_0 J_3148656436 J_3148656435 7.75 0.013 0 0
C_3148656436_3148656434_0 J_3148656436 J_3148656434 54.32 0.013 0 0
C_3148656436_7479631153_0 J_3148656436 J_7479631153 53.20 0.013 0 0
C_3148656435_3148656436_0 J_3148656435 J_3148656436 7.75 0.013 0 0
C_7479631153_3148656436_0 J_7479631153 J_3148656436 53.20 0.013 0 0
C_3148656440_3148656438_0 J_3148656440 J_3148656438 86.77 0.013 0 0
C_3148656442_10994386528_0 J_3148656442 J_10994386528 47.70 0.013 0 0
C_3148656442_10994402342_0 J_3148656442 J_10994402342 12.07 0.013 0 0
C_3148656442_3148656446_0 J_3148656442 J_3148656446 195.25 0.013 0 0
C_10994386528_3148656442_0 J_10994386528 J_3148656442 47.70 0.013 0 0
C_10994386528_3148656451_0 J_10994386528 J_3148656451 26.76 0.013 0 0
C_10994386528_12443901195_0 J_10994386528 J_12443901195 152.89 0.013 0 0
C_10994402342_3148656442_0 J_10994402342 J_3148656442 12.07 0.013 0 0
C_10994402342_10994411032_0 J_10994402342 J_10994411032 10.96 0.013 0 0
C_10994402342_10994402343_0 J_10994402342 J_10994402343 67.17 0.013 0 0
C_3148656446_3148656442_0 J_3148656446 J_3148656442 195.25 0.013 0 0
C_3148656451_3148656447_0 J_3148656451 J_3148656447 60.44 0.013 0 0
C_3148656451_10994386528_0 J_3148656451 J_10994386528 26.76 0.013 0 0
C_3148656451_12443901843_0 J_3148656451 J_12443901843 93.51 0.013 0 0
C_10994386529_3148656447_0 J_10994386529 J_3148656447 210.24 0.013 0 0
C_12443901843_3148656451_0 J_12443901843 J_3148656451 93.51 0.013 0 0
C_7484216048_10182376309_0 J_7484216048 J_10182376309 31.45 0.013 0 0
C_7484216048_3148657060_0 J_7484216048 J_3148657060 47.25 0.013 0 0
C_7484216048_7484216047_0 J_7484216048 J_7484216047 35.35 0.013 0 0
C_12144258014_4445503529_0 J_12144258014 J_4445503529 27.12 0.013 0 0
C_12144258014_12144258013_0 J_12144258014 J_12144258013 29.44 0.013 0 0
C_12144258014_3148657060_0 J_12144258014 J_3148657060 124.03 0.013 0 0
C_3148657069_10182376307_0 J_3148657069 J_10182376307 5.39 0.013 0 0
C_10182376307_3148657069_0 J_10182376307 J_3148657069 5.39 0.013 0 0
C_10182376307_10182376308_0 J_10182376307 J_10182376308 30.90 0.013 0 0
C_10182376307_10182376305_0 J_10182376307 J_10182376305 33.22 0.013 0 0
C_3148657081_4475027129_0 J_3148657081 J_4475027129 173.69 0.013 0 0
C_3148657081_6194014544_0 J_3148657081 J_6194014544 72.82 0.013 0 0
C_3148657081_3148657084_0 J_3148657081 J_3148657084 96.07 0.013 0 0
C_4475027129_3148657081_0 J_4475027129 J_3148657081 173.69 0.013 0 0
C_6194014544_3148657081_0 J_6194014544 J_3148657081 72.82 0.013 0 0
C_6194014544_6885777459_0 J_6194014544 J_6885777459 37.15 0.013 0 0
C_6194014544_6194014538_0 J_6194014544 J_6194014538 75.25 0.013 0 0
C_3148657084_3148657081_0 J_3148657084 J_3148657081 96.07 0.013 0 0
C_11106970230_3148657085_0 J_11106970230 J_3148657085 69.05 0.013 0 0
C_10172979414_3148667896_0 J_10172979414 J_3148667896 14.81 0.013 0 0
C_10172979414_10172979415_0 J_10172979414 J_10172979415 39.61 0.013 0 0
C_10172979414_3157670219_0 J_10172979414 J_3157670219 34.94 0.013 0 0
C_6204951065_3148667896_0 J_6204951065 J_3148667896 140.19 0.013 0 0
C_3148667908_3148667904_0 J_3148667908 J_3148667904 135.30 0.013 0 0
C_3148667924_6194008055_0 J_3148667924 J_6194008055 263.16 0.013 0 0
C_6194008055_3148667924_0 J_6194008055 J_3148667924 263.16 0.013 0 0
C_6194008055_3148667925_0 J_6194008055 J_3148667925 22.30 0.013 0 0
C_6194008055_6194008056_0 J_6194008055 J_6194008056 144.98 0.013 0 0
C_3148667925_6194008055_0 J_3148667925 J_6194008055 22.30 0.013 0 0
C_3148667925_3148668030_0 J_3148667925 J_3148668030 31.52 0.013 0 0
C_3148667925_10172979410_0 J_3148667925 J_10172979410 79.46 0.013 0 0
C_3148668030_3148667925_0 J_3148668030 J_3148667925 31.52 0.013 0 0
C_3148668030_3872533486_0 J_3148668030 J_3872533486 43.38 0.013 0 0
C_3148668030_10172979411_0 J_3148668030 J_10172979411 77.66 0.013 0 0
C_10172979410_10172979411_0 J_10172979410 J_10172979411 32.81 0.013 0 0
C_10172979410_3148668029_0 J_10172979410 J_3148668029 57.75 0.013 0 0
C_10172979410_3148667925_0 J_10172979410 J_3148667925 79.46 0.013 0 0
C_3148668029_10172979410_0 J_3148668029 J_10172979410 57.75 0.013 0 0
C_10172979411_10172979410_0 J_10172979411 J_10172979410 32.81 0.013 0 0
C_10172979411_3148668037_0 J_10172979411 J_3148668037 134.10 0.013 0 0
C_10172979411_3148668030_0 J_10172979411 J_3148668030 77.66 0.013 0 0
C_3148668041_3148668038_0 J_3148668041 J_3148668038 74.68 0.013 0 0
C_3148668043_3148668044_0 J_3148668043 J_3148668044 47.04 0.013 0 0
C_3148668045_3148668044_0 J_3148668045 J_3148668044 65.28 0.013 0 0
C_10172982419_3148668048_0 J_10172982419 J_3148668048 64.14 0.013 0 0
C_6204951079_3148668048_0 J_6204951079 J_3148668048 40.72 0.013 0 0
C_5726284291_3148668100_0 J_5726284291 J_3148668100 115.33 0.013 0 0
C_3148668105_3148668106_0 J_3148668105 J_3148668106 90.95 0.013 0 0
C_3148668105_10172979380_0 J_3148668105 J_10172979380 40.50 0.013 0 0
C_3148668105_3148668107_0 J_3148668105 J_3148668107 42.47 0.013 0 0
C_3148668106_3148668105_0 J_3148668106 J_3148668105 90.95 0.013 0 0
C_3148668111_10172979382_0 J_3148668111 J_10172979382 26.59 0.013 0 0
C_3148668111_3148668107_0 J_3148668111 J_3148668107 37.46 0.013 0 0
C_3148668111_3148668112_0 J_3148668111 J_3148668112 51.20 0.013 0 0
C_10172979382_3148668111_0 J_10172979382 J_3148668111 26.59 0.013 0 0
C_10172979382_11432115299_0 J_10172979382 J_11432115299 45.90 0.013 0 0
C_10172979382_3148668112_0 J_10172979382 J_3148668112 75.77 0.013 0 0
C_3148668115_10173119095_0 J_3148668115 J_10173119095 25.38 0.013 0 0
C_3148668115_9708811990_0 J_3148668115 J_9708811990 33.20 0.013 0 0
C_3148668115_3148668116_0 J_3148668115 J_3148668116 221.73 0.013 0 0
C_10173119095_3148668115_0 J_10173119095 J_3148668115 25.38 0.013 0 0
C_10173119095_10173119096_0 J_10173119095 J_10173119096 74.74 0.013 0 0
C_10173119095_6758646579_0 J_10173119095 J_6758646579 126.56 0.013 0 0
C_3148668116_3148668115_0 J_3148668116 J_3148668115 221.73 0.013 0 0
C_3149619837_3149619853_0 J_3149619837 J_3149619853 20.32 0.013 0 0
C_3149619838_10994470325_0 J_3149619838 J_10994470325 32.98 0.013 0 0
C_10994470325_3149619838_0 J_10994470325 J_3149619838 32.98 0.013 0 0
C_10994470325_11017145233_0 J_10994470325 J_11017145233 32.80 0.013 0 0
C_10994470325_3149619839_0 J_10994470325 J_3149619839 30.41 0.013 0 0
C_3149619839_3149619841_0 J_3149619839 J_3149619841 21.34 0.013 0 0
C_3149619839_3149619847_0 J_3149619839 J_3149619847 31.15 0.013 0 0
C_3149619839_10994470325_0 J_3149619839 J_10994470325 30.41 0.013 0 0
C_3149619839_11378886517_0 J_3149619839 J_11378886517 111.63 0.013 0 0
C_3149619841_3149619842_0 J_3149619841 J_3149619842 8.24 0.013 0 0
C_3149619841_3149619839_0 J_3149619841 J_3149619839 21.34 0.013 0 0
C_3149619841_3149619840_0 J_3149619841 J_3149619840 52.57 0.013 0 0
C_11378886517_13140521149_0 J_11378886517 J_13140521149 3.00 0.013 0 0
C_11378886517_13144006534_0 J_11378886517 J_13144006534 28.70 0.013 0 0
C_11378886517_3149619839_0 J_11378886517 J_3149619839 111.63 0.013 0 0
C_3149619840_3149619841_0 J_3149619840 J_3149619841 52.57 0.013 0 0
C_13140521075_3149619847_0 J_13140521075 J_3149619847 81.24 0.013 0 0
C_3149619850_3149619851_0 J_3149619850 J_3149619851 116.61 0.013 0 0
C_3149619854_3149619852_0 J_3149619854 J_3149619852 15.62 0.013 0 0
C_3149619854_3149619851_0 J_3149619854 J_3149619851 42.46 0.013 0 0
C_3149619854_3149619853_0 J_3149619854 J_3149619853 41.08 0.013 0 0
C_3149619852_3149619854_0 J_3149619852 J_3149619854 15.62 0.013 0 0
C_3149622362_3149622352_0 J_3149622362 J_3149622352 24.16 0.013 0 0
C_3149622362_13140521149_0 J_3149622362 J_13140521149 21.46 0.013 0 0
C_3149622362_7239768143_0 J_3149622362 J_7239768143 34.53 0.013 0 0
C_3149622354_3149622352_0 J_3149622354 J_3149622352 56.08 0.013 0 0
C_13140521149_11378886517_0 J_13140521149 J_11378886517 3.00 0.013 0 0
C_13140521149_3149622362_0 J_13140521149 J_3149622362 21.46 0.013 0 0
C_13140521149_13140521147_0 J_13140521149 J_13140521147 29.60 0.013 0 0
C_7239768143_3149622362_0 J_7239768143 J_3149622362 34.53 0.013 0 0
C_3150107475_3150107474_0 J_3150107475 J_3150107474 30.16 0.013 0 0
C_3150107475_3150107476_0 J_3150107475 J_3150107476 53.12 0.013 0 0
C_3150107475_3150107472_0 J_3150107475 J_3150107472 85.13 0.013 0 0
C_3150107474_3150107475_0 J_3150107474 J_3150107475 30.16 0.013 0 0
C_3150107476_3150107475_0 J_3150107476 J_3150107475 53.12 0.013 0 0
C_3150107476_3150107479_0 J_3150107476 J_3150107479 42.11 0.013 0 0
C_3150107476_12155154060_0 J_3150107476 J_12155154060 102.25 0.013 0 0
C_3150107479_3150107476_0 J_3150107479 J_3150107476 42.11 0.013 0 0
C_3150107479_12155154062_0 J_3150107479 J_12155154062 44.33 0.013 0 0
C_3150107479_12155154056_0 J_3150107479 J_12155154056 198.20 0.013 0 0
C_12155154060_3150107476_0 J_12155154060 J_3150107476 102.25 0.013 0 0
C_12155154062_3150107479_0 J_12155154062 J_3150107479 44.33 0.013 0 0
C_12155154056_3150107479_0 J_12155154056 J_3150107479 198.20 0.013 0 0
C_3150107773_7262830544_0 J_3150107773 J_7262830544 51.78 0.013 0 0
C_9846394225_3150118040_0 J_9846394225 J_3150118040 37.60 0.013 0 0
C_9846394225_10969136196_0 J_9846394225 J_10969136196 45.39 0.013 0 0
C_6536473107_6536473109_0 J_6536473107 J_6536473109 31.89 0.013 0 0
C_6536473107_6536473106_0 J_6536473107 J_6536473106 37.68 0.013 0 0
C_6536473107_3150118040_0 J_6536473107 J_3150118040 49.95 0.013 0 0
C_3157670219_10172979413_0 J_3157670219 J_10172979413 26.03 0.013 0 0
C_3157670219_10172979414_0 J_3157670219 J_10172979414 34.94 0.013 0 0
C_3157670219_3157670223_0 J_3157670219 J_3157670223 109.46 0.013 0 0
C_10172979413_3157670219_0 J_10172979413 J_3157670219 26.03 0.013 0 0
C_10172979413_10172979412_0 J_10172979413 J_10172979412 74.65 0.013 0 0
C_10172979413_13135627938_0 J_10172979413 J_13135627938 86.67 0.013 0 0
C_3157670223_3157670219_0 J_3157670223 J_3157670219 109.46 0.013 0 0
C_13903770310_13903770309_0 J_13903770310 J_13903770309 10.52 0.013 0 0
C_13903770310_12157177352_0 J_13903770310 J_12157177352 207.97 0.013 0 0
C_3161309795_3161309798_0 J_3161309795 J_3161309798 67.58 0.013 0 0
C_3161309798_3161309795_0 J_3161309798 J_3161309795 67.58 0.013 0 0
C_3161309798_3161309801_0 J_3161309798 J_3161309801 32.52 0.013 0 0
C_3161309798_3161309797_0 J_3161309798 J_3161309797 67.85 0.013 0 0
C_3161309797_3161309798_0 J_3161309797 J_3161309798 67.85 0.013 0 0
C_3161309801_3161309799_0 J_3161309801 J_3161309799 28.87 0.013 0 0
C_3161309801_3161309798_0 J_3161309801 J_3161309798 32.52 0.013 0 0
C_3161309801_3161309802_0 J_3161309801 J_3161309802 128.81 0.013 0 0
C_3161309801_3161309800_0 J_3161309801 J_3161309800 50.95 0.013 0 0
C_3161309800_3161309801_0 J_3161309800 J_3161309801 50.95 0.013 0 0
C_12506414299_2387407562_0 J_12506414299 J_2387407562 381.16 0.013 0 0
C_12506414299_12506414300_0 J_12506414299 J_12506414300 24.57 0.013 0 0
C_9830778271_7097308434_0 J_9830778271 J_7097308434 6.04 0.013 0 0
C_9830778271_12506414300_0 J_9830778271 J_12506414300 56.60 0.013 0 0
C_9830778271_3170006921_0 J_9830778271 J_3170006921 26.31 0.013 0 0
C_4447421339_3170006930_0 J_4447421339 J_3170006930 60.50 0.013 0 0
C_4447421339_4462376684_0 J_4447421339 J_4462376684 40.11 0.013 0 0
C_4447421339_4824673767_0 J_4447421339 J_4824673767 104.51 0.013 0 0
C_3170478574_10996992466_0 J_3170478574 J_10996992466 57.83 0.013 0 0
C_3170478574_9788419608_0 J_3170478574 J_9788419608 91.37 0.013 0 0
C_10996992466_6505394017_0 J_10996992466 J_6505394017 11.91 0.013 0 0
C_10996992466_3170478574_0 J_10996992466 J_3170478574 57.83 0.013 0 0
C_10996992466_10996992471_0 J_10996992466 J_10996992471 67.25 0.013 0 0
C_9788419608_818634513_0 J_9788419608 J_818634513 64.92 0.013 0 0
C_9788419608_12506414299_0 J_9788419608 J_12506414299 21.84 0.013 0 0
C_9788419608_13343872440_0 J_9788419608 J_13343872440 43.61 0.013 0 0
C_4447382437_3170496474_0 J_4447382437 J_3170496474 152.83 0.013 0 0
C_3170496477_11002608083_0 J_3170496477 J_11002608083 35.36 0.013 0 0
C_3170496477_11002591551_0 J_3170496477 J_11002591551 272.80 0.013 0 0
C_3170496477_3170496474_0 J_3170496477 J_3170496474 155.91 0.013 0 0
C_11002608083_3170496477_0 J_11002608083 J_3170496477 35.36 0.013 0 0
C_11002608083_11002608085_0 J_11002608083 J_11002608085 29.39 0.013 0 0
C_11002608083_13347226823_0 J_11002608083 J_13347226823 390.44 0.013 0 0
C_3463462869_3463462871_0 J_3463462869 J_3463462871 20.47 0.013 0 0
C_3463462869_3463462870_0 J_3463462869 J_3463462870 14.36 0.013 0 0
C_3463462869_6458940001_0 J_3463462869 J_6458940001 30.20 0.013 0 0
C_3463462869_10182729200_0 J_3463462869 J_10182729200 31.17 0.013 0 0
C_3463462871_3463462869_0 J_3463462871 J_3463462869 20.47 0.013 0 0
C_3463462870_3463462869_0 J_3463462870 J_3463462869 14.36 0.013 0 0
C_6458940001_7263153539_0 J_6458940001 J_7263153539 77.39 0.013 0 0
C_6458940001_3463462869_0 J_6458940001 J_3463462869 30.20 0.013 0 0
C_6458940001_11290340685_0 J_6458940001 J_11290340685 21.36 0.013 0 0
C_10182729200_3463462869_0 J_10182729200 J_3463462869 31.17 0.013 0 0
C_10182729200_11290335534_0 J_10182729200 J_11290335534 12.93 0.013 0 0
C_10182729200_12651793611_0 J_10182729200 J_12651793611 19.56 0.013 0 0
C_3500405710_7479630768_0 J_3500405710 J_7479630768 33.73 0.013 0 0
C_7479630768_7479630770_0 J_7479630768 J_7479630770 61.33 0.013 0 0
C_7479630768_3500405710_0 J_7479630768 J_3500405710 33.73 0.013 0 0
C_7479630768_7479630767_0 J_7479630768 J_7479630767 35.83 0.013 0 0
C_3500405711_3500405714_0 J_3500405711 J_3500405714 79.33 0.013 0 0
C_3500405711_7479630771_0 J_3500405711 J_7479630771 52.33 0.013 0 0
C_3500405711_3500405734_0 J_3500405711 J_3500405734 98.65 0.013 0 0
C_3500405714_3500405711_0 J_3500405714 J_3500405711 79.33 0.013 0 0
C_3500405714_7479630770_0 J_3500405714 J_7479630770 55.68 0.013 0 0
C_3500405714_3500405713_0 J_3500405714 J_3500405713 64.25 0.013 0 0
C_7479630771_3500405711_0 J_7479630771 J_3500405711 52.33 0.013 0 0
C_7479630771_7479630772_0 J_7479630771 J_7479630772 50.95 0.013 0 0
C_7479630771_3500405737_0 J_7479630771 J_3500405737 137.05 0.013 0 0
C_3500405734_3500405738_0 J_3500405734 J_3500405738 126.34 0.013 0 0
C_3500405734_6196989888_0 J_3500405734 J_6196989888 52.10 0.013 0 0
C_3500405734_10172938611_0 J_3500405734 J_10172938611 65.85 0.013 0 0
C_3500405734_3500405711_0 J_3500405734 J_3500405711 98.65 0.013 0 0
C_3500405712_3500405713_0 J_3500405712 J_3500405713 146.36 0.013 0 0
C_3500405713_3500405737_0 J_3500405713 J_3500405737 42.64 0.013 0 0
C_3500405713_3500405714_0 J_3500405713 J_3500405714 64.25 0.013 0 0
C_3500405713_3500405712_0 J_3500405713 J_3500405712 146.36 0.013 0 0
C_3500405737_3500405715_0 J_3500405737 J_3500405715 18.68 0.013 0 0
C_3500405737_3500405713_0 J_3500405737 J_3500405713 42.64 0.013 0 0
C_3500405737_7479630771_0 J_3500405737 J_7479630771 137.05 0.013 0 0
C_7479630770_3500405714_0 J_7479630770 J_3500405714 55.68 0.013 0 0
C_7479630770_7479630768_0 J_7479630770 J_7479630768 61.33 0.013 0 0
C_7479630770_7479630769_0 J_7479630770 J_7479630769 39.99 0.013 0 0
C_3500405715_7479630775_0 J_3500405715 J_7479630775 32.39 0.013 0 0
C_3500405715_3500405737_0 J_3500405715 J_3500405737 18.68 0.013 0 0
C_3500405715_3500405717_0 J_3500405715 J_3500405717 100.15 0.013 0 0
C_7479630775_3500405715_0 J_7479630775 J_3500405715 32.39 0.013 0 0
C_7479630775_12477867928_0 J_7479630775 J_12477867928 50.55 0.013 0 0
C_7479630775_11434263477_0 J_7479630775 J_11434263477 185.18 0.013 0 0
C_3500405717_3500405715_0 J_3500405717 J_3500405715 100.15 0.013 0 0
C_3500405717_3500405720_0 J_3500405717 J_3500405720 98.42 0.013 0 0
C_3500405717_7479630763_0 J_3500405717 J_7479630763 149.47 0.013 0 0
C_3500405720_7479630763_0 J_3500405720 J_7479630763 53.06 0.013 0 0
C_3500405720_3500405717_0 J_3500405720 J_3500405717 98.42 0.013 0 0
C_3500405720_3500405723_0 J_3500405720 J_3500405723 76.34 0.013 0 0
C_7479630763_3500405720_0 J_7479630763 J_3500405720 53.06 0.013 0 0
C_7479630763_10172935935_0 J_7479630763 J_10172935935 28.62 0.013 0 0
C_7479630763_3500405717_0 J_7479630763 J_3500405717 149.47 0.013 0 0
C_3500405723_3500405722_0 J_3500405723 J_3500405722 43.66 0.013 0 0
C_3500405723_10172935936_0 J_3500405723 J_10172935936 53.88 0.013 0 0
C_3500405723_3500405720_0 J_3500405723 J_3500405720 76.34 0.013 0 0
C_3500405722_3500405723_0 J_3500405722 J_3500405723 43.66 0.013 0 0
C_10172935936_10172935938_0 J_10172935936 J_10172935938 30.66 0.013 0 0
C_10172935936_3500405723_0 J_10172935936 J_3500405723 53.88 0.013 0 0
C_10172935936_10172935937_0 J_10172935936 J_10172935937 27.08 0.013 0 0
C_3500405725_10172935938_0 J_3500405725 J_10172935938 112.13 0.013 0 0
C_10172935938_10172935936_0 J_10172935938 J_10172935936 30.66 0.013 0 0
C_10172935938_10172935939_0 J_10172935938 J_10172935939 65.52 0.013 0 0
C_10172935938_3500405725_0 J_10172935938 J_3500405725 112.13 0.013 0 0
C_3500405729_11434263477_0 J_3500405729 J_11434263477 13.95 0.013 0 0
C_11434263477_3500405729_0 J_11434263477 J_3500405729 13.95 0.013 0 0
C_11434263477_11434263476_0 J_11434263477 J_11434263476 53.43 0.013 0 0
C_11434263477_7479630775_0 J_11434263477 J_7479630775 185.18 0.013 0 0
C_3500405730_3500405731_0 J_3500405730 J_3500405731 42.64 0.013 0 0
C_3500405731_3500405730_0 J_3500405731 J_3500405730 42.64 0.013 0 0
C_3500405731_7479630782_0 J_3500405731 J_7479630782 9.62 0.013 0 0
C_3500405731_13816806093_0 J_3500405731 J_13816806093 34.47 0.013 0 0
C_7479630782_3500405731_0 J_7479630782 J_3500405731 9.62 0.013 0 0
C_7479630782_7479630779_0 J_7479630782 J_7479630779 53.05 0.013 0 0
C_7479630782_7479630777_0 J_7479630782 J_7479630777 50.36 0.013 0 0
C_13816806093_3500405731_0 J_13816806093 J_3500405731 34.47 0.013 0 0
C_3500405732_6196989888_0 J_3500405732 J_6196989888 60.98 0.013 0 0
C_3500405732_10172938609_0 J_3500405732 J_10172938609 64.96 0.013 0 0
C_3500405732_10172938606_0 J_3500405732 J_10172938606 65.96 0.013 0 0
C_6196989888_3500405734_0 J_6196989888 J_3500405734 52.10 0.013 0 0
C_6196989888_3500405732_0 J_6196989888 J_3500405732 60.98 0.013 0 0
C_6196989888_10172938610_0 J_6196989888 J_10172938610 68.15 0.013 0 0
C_6196989888_10172938605_0 J_6196989888 J_10172938605 75.68 0.013 0 0
C_10172938609_3500405732_0 J_10172938609 J_3500405732 64.96 0.013 0 0
C_10172938609_6196989893_0 J_10172938609 J_6196989893 59.95 0.013 0 0
C_10172938609_10172938610_0 J_10172938609 J_10172938610 60.00 0.013 0 0
C_10172938609_7479630751_0 J_10172938609 J_7479630751 117.69 0.013 0 0
C_10172938606_3500405732_0 J_10172938606 J_3500405732 65.96 0.013 0 0
C_3500405738_3500405740_0 J_3500405738 J_3500405740 32.74 0.013 0 0
C_3500405738_3500405734_0 J_3500405738 J_3500405734 126.34 0.013 0 0
C_3500405738_7479630758_0 J_3500405738 J_7479630758 56.05 0.013 0 0
C_10172938611_3500405734_0 J_10172938611 J_3500405734 65.85 0.013 0 0
C_10172938611_6196989886_0 J_10172938611 J_6196989886 16.35 0.013 0 0
C_10172938611_10172938610_0 J_10172938611 J_10172938610 56.99 0.013 0 0
C_3500405740_3500405738_0 J_3500405740 J_3500405738 32.74 0.013 0 0
C_3500405740_3500405741_0 J_3500405740 J_3500405741 84.12 0.013 0 0
C_3500405740_7479630780_0 J_3500405740 J_7479630780 46.25 0.013 0 0
C_7479630758_9784518335_0 J_7479630758 J_9784518335 44.70 0.013 0 0
C_7479630758_7479630756_0 J_7479630758 J_7479630756 39.31 0.013 0 0
C_7479630758_3500405738_0 J_7479630758 J_3500405738 56.05 0.013 0 0
C_3500405741_3500405740_0 J_3500405741 J_3500405740 84.12 0.013 0 0
C_7479630780_9784518332_0 J_7479630780 J_9784518332 46.69 0.013 0 0
C_7479630780_7479630774_0 J_7479630780 J_7479630774 18.44 0.013 0 0
C_7479630780_3500405740_0 J_7479630780 J_3500405740 46.25 0.013 0 0
C_3500405745_6196989893_0 J_3500405745 J_6196989893 197.52 0.013 0 0
C_3500405745_2099691661_0 J_3500405745 J_2099691661 231.14 0.013 0 0
C_6196989893_6196989889_0 J_6196989893 J_6196989889 59.02 0.013 0 0
C_6196989893_10172938609_0 J_6196989893 J_10172938609 59.95 0.013 0 0
C_6196989893_7479630751_0 J_6196989893 J_7479630751 62.43 0.013 0 0
C_6196989893_3500405745_0 J_6196989893 J_3500405745 197.52 0.013 0 0
C_7301789574_7301789573_0 J_7301789574 J_7301789573 98.42 0.013 0 0
C_7301789574_10996655571_0 J_7301789574 J_10996655571 79.22 0.013 0 0
C_7301789574_3504349795_0 J_7301789574 J_3504349795 50.85 0.013 0 0
C_6758558444_10996648270_0 J_6758558444 J_10996648270 56.38 0.013 0 0
C_6758558444_6758558441_0 J_6758558444 J_6758558441 196.40 0.013 0 0
C_6758558444_3504349796_0 J_6758558444 J_3504349796 191.63 0.013 0 0
C_3504895274_3504895273_0 J_3504895274 J_3504895273 54.50 0.013 0 0
C_3715148285_3715148292_0 J_3715148285 J_3715148292 54.86 0.013 0 0
C_11234065453_3715148292_0 J_11234065453 J_3715148292 40.06 0.013 0 0
C_3771990469_3771990505_0 J_3771990469 J_3771990505 230.34 0.013 0 0
C_3771990522_3771990524_0 J_3771990522 J_3771990524 29.75 0.013 0 0
C_3771990523_3771990536_0 J_3771990523 J_3771990536 65.34 0.013 0 0
C_3771990536_3771990535_0 J_3771990536 J_3771990535 12.50 0.013 0 0
C_3771990536_3771990553_0 J_3771990536 J_3771990553 49.71 0.013 0 0
C_3771990536_3771990523_0 J_3771990536 J_3771990523 65.34 0.013 0 0
C_3771990535_3771990536_0 J_3771990535 J_3771990536 12.50 0.013 0 0
C_3771990535_3771990524_0 J_3771990535 J_3771990524 29.76 0.013 0 0
C_3771990535_3771990914_0 J_3771990535 J_3771990914 368.94 0.013 0 0
C_3771990914_3771990535_0 J_3771990914 J_3771990535 368.94 0.013 0 0
C_3771990914_3771990894_0 J_3771990914 J_3771990894 127.59 0.013 0 0
C_3771990553_3771990866_0 J_3771990553 J_3771990866 21.21 0.013 0 0
C_3771990553_3771990545_0 J_3771990553 J_3771990545 14.48 0.013 0 0
C_3771990553_3771990536_0 J_3771990553 J_3771990536 49.71 0.013 0 0
C_3771990545_3771990553_0 J_3771990545 J_3771990553 14.48 0.013 0 0
C_3771990866_3771990553_0 J_3771990866 J_3771990553 21.21 0.013 0 0
C_3771990866_3771990873_0 J_3771990866 J_3771990873 18.58 0.013 0 0
C_3771990866_3771990859_0 J_3771990866 J_3771990859 13.21 0.013 0 0
C_3771990555_3771990873_0 J_3771990555 J_3771990873 51.51 0.013 0 0
C_3771990873_3771990866_0 J_3771990873 J_3771990866 18.58 0.013 0 0
C_3771990873_3771990555_0 J_3771990873 J_3771990555 51.51 0.013 0 0
C_3771990873_3771990888_0 J_3771990873 J_3771990888 68.72 0.013 0 0
C_3771990859_3771990866_0 J_3771990859 J_3771990866 13.21 0.013 0 0
C_3771990861_3771990888_0 J_3771990861 J_3771990888 73.66 0.013 0 0
C_3771990888_3771990894_0 J_3771990888 J_3771990894 13.19 0.013 0 0
C_3771990888_3771990873_0 J_3771990888 J_3771990873 68.72 0.013 0 0
C_3771990888_3771990861_0 J_3771990888 J_3771990861 73.66 0.013 0 0
C_3771990869_3771990894_0 J_3771990869 J_3771990894 73.03 0.013 0 0
C_3771990894_3771990888_0 J_3771990894 J_3771990888 13.19 0.013 0 0
C_3771990894_3771990914_0 J_3771990894 J_3771990914 127.59 0.013 0 0
C_3771990894_3771990869_0 J_3771990894 J_3771990869 73.03 0.013 0 0
C_3778310159_3778310161_0 J_3778310159 J_3778310161 114.16 0.013 0 0
C_3778310159_12059211981_0 J_3778310159 J_12059211981 77.19 0.013 0 0
C_3778310159_7328379200_0 J_3778310159 J_7328379200 435.46 0.013 0 0
C_3778310161_3778310159_0 J_3778310161 J_3778310159 114.16 0.013 0 0
C_3868740750_3868740751_0 J_3868740750 J_3868740751 87.10 0.013 0 0
C_12145839287_3868740751_0 J_12145839287 J_3868740751 6.78 0.013 0 0
C_12145839287_7097308434_0 J_12145839287 J_7097308434 77.04 0.013 0 0
C_12145839287_12145839288_0 J_12145839287 J_12145839288 43.05 0.013 0 0
C_3870651478_3870651477_0 J_3870651478 J_3870651477 100.49 0.013 0 0
C_3870651480_3870651479_0 J_3870651480 J_3870651479 97.05 0.013 0 0
C_3872407423_7328007223_0 J_3872407423 J_7328007223 37.64 0.013 0 0
C_3872407423_3872407428_0 J_3872407423 J_3872407428 59.12 0.013 0 0
C_7328007223_3872407423_0 J_7328007223 J_3872407423 37.64 0.013 0 0
C_3872407428_3872407429_0 J_3872407428 J_3872407429 34.35 0.013 0 0
C_3872407428_3872407427_0 J_3872407428 J_3872407427 58.80 0.013 0 0
C_3872407428_3872407423_0 J_3872407428 J_3872407423 59.12 0.013 0 0
C_3872407427_3872407428_0 J_3872407427 J_3872407428 58.80 0.013 0 0
C_3872407427_6132071550_0 J_3872407427 J_6132071550 158.26 0.013 0 0
C_3872407427_7328007225_0 J_3872407427 J_7328007225 142.36 0.013 0 0
C_6132071550_3872407427_0 J_6132071550 J_3872407427 158.26 0.013 0 0
C_6132071550_7328007243_0 J_6132071550 J_7328007243 19.98 0.013 0 0
C_7328007225_3872407427_0 J_7328007225 J_3872407427 142.36 0.013 0 0
C_3872407429_3872407428_0 J_3872407429 J_3872407428 34.35 0.013 0 0
C_3872407429_3872407466_0 J_3872407429 J_3872407466 57.23 0.013 0 0
C_3872407466_3872407468_0 J_3872407466 J_3872407468 59.66 0.013 0 0
C_3872407466_3872407429_0 J_3872407466 J_3872407429 57.23 0.013 0 0
C_3872407468_3872407466_0 J_3872407468 J_3872407466 59.66 0.013 0 0
C_3872533474_3872533478_0 J_3872533474 J_3872533478 69.20 0.013 0 0
C_3872533476_3872533478_0 J_3872533476 J_3872533478 104.62 0.013 0 0
C_3872533479_3872533480_0 J_3872533479 J_3872533480 71.82 0.013 0 0
C_3872533480_3872533479_0 J_3872533480 J_3872533479 71.82 0.013 0 0
C_3872533480_10172979407_0 J_3872533480 J_10172979407 16.23 0.013 0 0
C_3872533480_3872533482_0 J_3872533480 J_3872533482 29.16 0.013 0 0
C_3872533480_11268733245_0 J_3872533480 J_11268733245 21.49 0.013 0 0
C_10172979407_3872533480_0 J_10172979407 J_3872533480 16.23 0.013 0 0
C_3872533482_3872533488_0 J_3872533482 J_3872533488 88.86 0.013 0 0
C_3872533482_3872533483_0 J_3872533482 J_3872533483 33.69 0.013 0 0
C_3872533482_3872533480_0 J_3872533482 J_3872533480 29.16 0.013 0 0
C_3872533482_11432094041_0 J_3872533482 J_11432094041 233.95 0.013 0 0
C_11268733245_3872533480_0 J_11268733245 J_3872533480 21.49 0.013 0 0
C_3872533483_3872533484_0 J_3872533483 J_3872533484 36.60 0.013 0 0
C_3872533483_11404841379_0 J_3872533483 J_11404841379 94.70 0.013 0 0
C_3872533483_3872533489_0 J_3872533483 J_3872533489 74.46 0.013 0 0
C_3872533483_3872533482_0 J_3872533483 J_3872533482 33.69 0.013 0 0
C_11432094041_3872533482_0 J_11432094041 J_3872533482 233.95 0.013 0 0
C_3872533484_3872533485_0 J_3872533484 J_3872533485 31.50 0.013 0 0
C_3872533484_3872533483_0 J_3872533484 J_3872533483 36.60 0.013 0 0
C_3872533484_3872540685_0 J_3872533484 J_3872540685 54.60 0.013 0 0
C_3872533484_3872540684_0 J_3872533484 J_3872540684 96.30 0.013 0 0
C_11404841379_3872533483_0 J_11404841379 J_3872533483 94.70 0.013 0 0
C_11404841379_3872533488_0 J_11404841379 J_3872533488 32.42 0.013 0 0
C_11404841379_3872540684_0 J_11404841379 J_3872540684 40.56 0.013 0 0
C_3872533489_3872533483_0 J_3872533489 J_3872533483 74.46 0.013 0 0
C_3872533485_3872540688_0 J_3872533485 J_3872540688 31.37 0.013 0 0
C_3872533485_3872533484_0 J_3872533485 J_3872533484 31.50 0.013 0 0
C_3872533485_3872540687_0 J_3872533485 J_3872540687 59.57 0.013 0 0
C_3872533485_3872540686_0 J_3872533485 J_3872540686 96.41 0.013 0 0
C_3872540685_3872533484_0 J_3872540685 J_3872533484 54.60 0.013 0 0
C_3872540684_3872540686_0 J_3872540684 J_3872540686 29.58 0.013 0 0
C_3872540684_3872533484_0 J_3872540684 J_3872533484 96.30 0.013 0 0
C_3872540684_11404841379_0 J_3872540684 J_11404841379 40.56 0.013 0 0
C_3872540687_3872533485_0 J_3872540687 J_3872533485 59.57 0.013 0 0
C_3872540689_3872540688_0 J_3872540689 J_3872540688 66.12 0.013 0 0
C_4285700668_4285700669_0 J_4285700668 J_4285700669 83.53 0.013 0 0
C_4285700669_4285700668_0 J_4285700669 J_4285700668 83.53 0.013 0 0
C_4285700669_2099691637_0 J_4285700669 J_2099691637 65.25 0.013 0 0
C_4445503529_12144258014_0 J_4445503529 J_12144258014 27.12 0.013 0 0
C_4446468152_4446468155_0 J_4446468152 J_4446468155 71.13 0.013 0 0
C_6194089776_4446471884_0 J_6194089776 J_4446471884 54.23 0.013 0 0
C_6194089776_4475027231_0 J_6194089776 J_4475027231 59.13 0.013 0 0
C_6194089776_6562178338_0 J_6194089776 J_6562178338 38.99 0.013 0 0
C_4446471885_4446471884_0 J_4446471885 J_4446471884 47.84 0.013 0 0
C_10056058173_10056058174_0 J_10056058173 J_10056058174 9.28 0.013 0 0
C_10056058173_13877530781_0 J_10056058173 J_13877530781 73.71 0.013 0 0
C_13142028598_13142028597_0 J_13142028598 J_13142028597 32.82 0.013 0 0
C_13142028598_13142028564_0 J_13142028598 J_13142028564 61.38 0.013 0 0
C_13142028598_4448123006_0 J_13142028598 J_4448123006 24.88 0.013 0 0
C_4448123015_4448123019_0 J_4448123015 J_4448123019 36.66 0.013 0 0
C_4462384503_13738230989_0 J_4462384503 J_13738230989 2.71 0.013 0 0
C_4462384503_7328379175_0 J_4462384503 J_7328379175 39.87 0.013 0 0
C_4462384503_13738231056_0 J_4462384503 J_13738231056 90.26 0.013 0 0
C_7328379175_7328379176_0 J_7328379175 J_7328379176 48.30 0.013 0 0
C_7328379175_6505328002_0 J_7328379175 J_6505328002 50.64 0.013 0 0
C_7328379175_4462384503_0 J_7328379175 J_4462384503 39.87 0.013 0 0
C_13738231056_4462384503_0 J_13738231056 J_4462384503 90.26 0.013 0 0
C_4472266103_4472266108_0 J_4472266103 J_4472266108 203.77 0.013 0 0
C_8403844097_1714984568_0 J_8403844097 J_1714984568 8.56 0.013 0 0
C_8403844097_8403844099_0 J_8403844097 J_8403844099 13.07 0.013 0 0
C_4474487225_11011971395_0 J_4474487225 J_11011971395 95.53 0.013 0 0
C_4474487225_11399454153_0 J_4474487225 J_11399454153 30.49 0.013 0 0
C_4474487225_4474487238_0 J_4474487225 J_4474487238 65.22 0.013 0 0
C_11011971395_4474487225_0 J_11011971395 J_4474487225 95.53 0.013 0 0
C_11011971395_11011971396_0 J_11011971395 J_11011971396 29.87 0.013 0 0
C_11011971395_6152784946_0 J_11011971395 J_6152784946 275.90 0.013 0 0
C_11399454153_4474487225_0 J_11399454153 J_4474487225 30.49 0.013 0 0
C_4474487238_12517783371_0 J_4474487238 J_12517783371 68.26 0.013 0 0
C_4474487238_4474487225_0 J_4474487238 J_4474487225 65.22 0.013 0 0
C_4474487238_6884558833_0 J_4474487238 J_6884558833 120.98 0.013 0 0
C_6884558833_4474487265_0 J_6884558833 J_4474487265 58.22 0.013 0 0
C_6884558833_4474487238_0 J_6884558833 J_4474487238 120.98 0.013 0 0
C_6884558833_6884558829_0 J_6884558833 J_6884558829 113.30 0.013 0 0
C_4474487265_6884558833_0 J_4474487265 J_6884558833 58.22 0.013 0 0
C_7263153539_6458940001_0 J_7263153539 J_6458940001 77.39 0.013 0 0
C_7263153539_7265834819_0 J_7263153539 J_7265834819 45.42 0.013 0 0
C_7263153539_4474704607_0 J_7263153539 J_4474704607 107.02 0.013 0 0
C_6152308058_4474704607_0 J_6152308058 J_4474704607 175.79 0.013 0 0
C_4475027224_4475027221_0 J_4475027224 J_4475027221 32.34 0.013 0 0
C_4475027222_4475027226_0 J_4475027222 J_4475027226 48.23 0.013 0 0
C_4475027231_4475027230_0 J_4475027231 J_4475027230 45.88 0.013 0 0
C_4475027231_6194089776_0 J_4475027231 J_6194089776 59.13 0.013 0 0
C_4475027231_4475027226_0 J_4475027231 J_4475027226 28.59 0.013 0 0
C_4475027229_4475027228_0 J_4475027229 J_4475027228 46.58 0.013 0 0
C_4475027230_4475027231_0 J_4475027230 J_4475027231 45.88 0.013 0 0
C_4540978394_4540978393_0 J_4540978394 J_4540978393 44.58 0.013 0 0
C_7479630892_4682937550_0 J_7479630892 J_4682937550 52.76 0.013 0 0
C_13238937706_13238937707_0 J_13238937706 J_13238937707 23.40 0.013 0 0
C_13238937706_12106511659_0 J_13238937706 J_12106511659 593.28 0.013 0 0
C_13238937706_4682937550_0 J_13238937706 J_4682937550 279.13 0.013 0 0
C_4734151709_10213547236_0 J_4734151709 J_10213547236 10.90 0.013 0 0
C_4734151709_2407838682_0 J_4734151709 J_2407838682 46.87 0.013 0 0
C_12185693394_6894177760_0 J_12185693394 J_6894177760 23.69 0.013 0 0
C_12185693394_12185693393_0 J_12185693394 J_12185693393 4.53 0.013 0 0
C_12185693394_4915966850_0 J_12185693394 J_4915966850 87.33 0.013 0 0
C_9921271169_4915966850_0 J_9921271169 J_4915966850 19.07 0.013 0 0
C_7479630483_6901616703_0 J_7479630483 J_6901616703 13.99 0.013 0 0
C_7479630483_7479630480_0 J_7479630483 J_7479630480 37.19 0.013 0 0
C_5370756309_1694231991_0 J_5370756309 J_1694231991 65.83 0.013 0 0
C_5388808641_5388808643_0 J_5388808641 J_5388808643 79.08 0.013 0 0
C_5398408451_2406966812_0 J_5398408451 J_2406966812 46.12 0.013 0 0
C_5689989226_5689989225_0 J_5689989226 J_5689989225 108.49 0.013 0 0
C_5689989228_5689989227_0 J_5689989228 J_5689989227 104.44 0.013 0 0
C_5689989230_5689989229_0 J_5689989230 J_5689989229 94.54 0.013 0 0
C_9958736551_5724583886_0 J_9958736551 J_5724583886 73.40 0.013 0 0
C_5773497557_7736381406_0 J_5773497557 J_7736381406 10.02 0.013 0 0
C_5773497557_8374410177_0 J_5773497557 J_8374410177 106.85 0.013 0 0
C_7736381406_5773497557_0 J_7736381406 J_5773497557 10.02 0.013 0 0
C_7736381406_8374410177_0 J_7736381406 J_8374410177 111.78 0.013 0 0
C_7736381406_7736381401_0 J_7736381406 J_7736381401 186.64 0.013 0 0
C_8374410177_7736381406_0 J_8374410177 J_7736381406 111.78 0.013 0 0
C_8374410177_6183009077_0 J_8374410177 J_6183009077 103.95 0.013 0 0
C_5774292417_5774292427_0 J_5774292417 J_5774292427 12.84 0.013 0 0
C_5774292417_5774293614_0 J_5774292417 J_5774293614 25.68 0.013 0 0
C_5774292427_9828511707_0 J_5774292427 J_9828511707 30.74 0.013 0 0
C_5774292427_1827634843_0 J_5774292427 J_1827634843 47.04 0.013 0 0
C_5774293614_1827247449_0 J_5774293614 J_1827247449 13.27 0.013 0 0
C_5776596292_6130070511_0 J_5776596292 J_6130070511 12.29 0.013 0 0
C_5776596292_2387361293_0 J_5776596292 J_2387361293 173.47 0.013 0 0
C_12009305215_264129270_0 J_12009305215 J_264129270 14.47 0.013 0 0
C_12009305215_12137575005_0 J_12009305215 J_12137575005 9.63 0.013 0 0
C_13136176386_5777147337_0 J_13136176386 J_5777147337 9.35 0.013 0 0
C_13136176386_7095228341_0 J_13136176386 J_7095228341 40.29 0.013 0 0
C_13136176386_13136176381_0 J_13136176386 J_13136176381 211.50 0.013 0 0
C_5777147338_5777147341_0 J_5777147338 J_5777147341 32.58 0.013 0 0
C_5777147338_5777147337_0 J_5777147338 J_5777147337 9.82 0.013 0 0
C_5777147338_7478154515_0 J_5777147338 J_7478154515 59.07 0.013 0 0
C_5777147341_5777147345_0 J_5777147341 J_5777147345 54.82 0.013 0 0
C_5777147341_5777147338_0 J_5777147341 J_5777147338 32.58 0.013 0 0
C_5777147341_7478154516_0 J_5777147341 J_7478154516 41.40 0.013 0 0
C_7478154515_5777147338_0 J_7478154515 J_5777147338 59.07 0.013 0 0
C_5777147345_5777147341_0 J_5777147345 J_5777147341 54.82 0.013 0 0
C_7478154516_7478154524_0 J_7478154516 J_7478154524 37.88 0.013 0 0
C_7478154516_7478154518_0 J_7478154516 J_7478154518 53.00 0.013 0 0
C_7478154516_5777147341_0 J_7478154516 J_5777147341 41.40 0.013 0 0
C_5777246392_5777246422_0 J_5777246392 J_5777246422 70.00 0.013 0 0
C_5777246392_5777246394_0 J_5777246392 J_5777246394 32.54 0.013 0 0
C_5777246392_7328007285_0 J_5777246392 J_7328007285 31.32 0.013 0 0
C_5777246422_5777246392_0 J_5777246422 J_5777246392 70.00 0.013 0 0
C_5777246422_7328007289_0 J_5777246422 J_7328007289 33.30 0.013 0 0
C_5777246422_7328007286_0 J_5777246422 J_7328007286 52.38 0.013 0 0
C_5777246394_5777246392_0 J_5777246394 J_5777246392 32.54 0.013 0 0
C_5777246394_5777246395_0 J_5777246394 J_5777246395 66.09 0.013 0 0
C_7328007285_5777246392_0 J_7328007285 J_5777246392 31.32 0.013 0 0
C_7328007285_7328007284_0 J_7328007285 J_7328007284 29.88 0.013 0 0
C_7328007285_5777246412_0 J_7328007285 J_5777246412 38.67 0.013 0 0
C_5777246395_5777246394_0 J_5777246395 J_5777246394 66.09 0.013 0 0
C_5777246407_5777246413_0 J_5777246407 J_5777246413 46.59 0.013 0 0
C_5777246407_5777246412_0 J_5777246407 J_5777246412 143.19 0.013 0 0
C_5777246407_5777246409_0 J_5777246407 J_5777246409 24.49 0.013 0 0
C_5777246413_5777246407_0 J_5777246413 J_5777246407 46.59 0.013 0 0
C_5777246413_5777246426_0 J_5777246413 J_5777246426 545.43 0.013 0 0
C_5777246412_7328007288_0 J_5777246412 J_7328007288 28.96 0.013 0 0
C_5777246412_5777246407_0 J_5777246412 J_5777246407 143.19 0.013 0 0
C_5777246412_7328007285_0 J_5777246412 J_7328007285 38.67 0.013 0 0
C_5777246409_5777246411_0 J_5777246409 J_5777246411 64.57 0.013 0 0
C_5777246409_7328007265_0 J_5777246409 J_7328007265 128.27 0.013 0 0
C_5777246409_5777246407_0 J_5777246409 J_5777246407 24.49 0.013 0 0
C_5777246411_5777246410_0 J_5777246411 J_5777246410 39.33 0.013 0 0
C_5777246411_5777246409_0 J_5777246411 J_5777246409 64.57 0.013 0 0
C_5777246411_7328007288_0 J_5777246411 J_7328007288 34.53 0.013 0 0
C_7328007265_5777246409_0 J_7328007265 J_5777246409 128.27 0.013 0 0
C_5777246410_5777246411_0 J_5777246410 J_5777246411 39.33 0.013 0 0
C_7328007288_5777246412_0 J_7328007288 J_5777246412 28.96 0.013 0 0
C_7328007288_5777246411_0 J_7328007288 J_5777246411 34.53 0.013 0 0
C_7328007288_7328007287_0 J_7328007288 J_7328007287 61.43 0.013 0 0
C_7328007288_7328007289_0 J_7328007288 J_7328007289 159.51 0.013 0 0
C_5777246426_8530739259_0 J_5777246426 J_8530739259 311.54 0.013 0 0
C_5777246426_5777246413_0 J_5777246426 J_5777246413 545.43 0.013 0 0
C_7328007289_5777246422_0 J_7328007289 J_5777246422 33.30 0.013 0 0
C_7328007289_7328007288_0 J_7328007289 J_7328007288 159.51 0.013 0 0
C_7328007289_5777246425_0 J_7328007289 J_5777246425 96.78 0.013 0 0
C_7328007286_5777246422_0 J_7328007286 J_5777246422 52.38 0.013 0 0
C_5777246425_7328007289_0 J_5777246425 J_7328007289 96.78 0.013 0 0
C_5778503766_12183845711_0 J_5778503766 J_12183845711 17.49 0.013 0 0
C_12690206052_5778521345_0 J_12690206052 J_5778521345 194.33 0.013 0 0
C_5843951128_10168257533_0 J_5843951128 J_10168257533 61.38 0.013 0 0
C_5843951128_6894177760_0 J_5843951128 J_6894177760 63.40 0.013 0 0
C_5843951128_11414694995_0 J_5843951128 J_11414694995 13.34 0.013 0 0
C_6894177760_12185693394_0 J_6894177760 J_12185693394 23.69 0.013 0 0
C_6894177760_5843951128_0 J_6894177760 J_5843951128 63.40 0.013 0 0
C_7147053364_5919853090_0 J_7147053364 J_5919853090 72.20 0.013 0 0
C_10175064193_5930997555_0 J_10175064193 J_5930997555 85.17 0.013 0 0
C_7298619209_9179098227_0 J_7298619209 J_9179098227 99.06 0.013 0 0
C_7298619209_9179098228_0 J_7298619209 J_9179098228 70.59 0.013 0 0
C_7298619209_5930997555_0 J_7298619209 J_5930997555 212.12 0.013 0 0
C_6019669025_1714977975_0 J_6019669025 J_1714977975 5.20 0.013 0 0
C_6019669026_6019669025_0 J_6019669026 J_6019669025 9.77 0.013 0 0
C_7479631470_7479631471_0 J_7479631470 J_7479631471 68.44 0.013 0 0
C_7479631470_2099691686_0 J_7479631470 J_2099691686 82.20 0.013 0 0
C_7328007243_6132071550_0 J_7328007243 J_6132071550 19.98 0.013 0 0
C_7328007243_7478154531_0 J_7328007243 J_7478154531 73.41 0.013 0 0
C_7328007243_7328007238_0 J_7328007243 J_7328007238 117.14 0.013 0 0
C_6137643401_7479630861_0 J_6137643401 J_7479630861 30.09 0.013 0 0
C_6137643401_13134720405_0 J_6137643401 J_13134720405 31.51 0.013 0 0
C_6137643401_13134720410_0 J_6137643401 J_13134720410 25.08 0.013 0 0
C_13134720405_6137643401_0 J_13134720405 J_6137643401 31.51 0.013 0 0
C_13134720405_7479630857_0 J_13134720405 J_7479630857 30.27 0.013 0 0
C_13134720405_13134720404_0 J_13134720405 J_13134720404 31.64 0.013 0 0
C_13134720410_6137643401_0 J_13134720410 J_6137643401 25.08 0.013 0 0
C_6141748417_6141748418_0 J_6141748417 J_6141748418 181.14 0.013 0 0
C_6141748418_1683173716_0 J_6141748418 J_1683173716 38.34 0.013 0 0
C_6141748418_6141748417_0 J_6141748418 J_6141748417 181.14 0.013 0 0
C_6141753923_12100338250_0 J_6141753923 J_12100338250 51.22 0.013 0 0
C_6141753923_9510028744_0 J_6141753923 J_9510028744 36.99 0.013 0 0
C_6141753923_6141753927_0 J_6141753923 J_6141753927 178.81 0.013 0 0
C_12100338250_6536884402_0 J_12100338250 J_6536884402 7.21 0.013 0 0
C_12100338250_12100338251_0 J_12100338250 J_12100338251 59.09 0.013 0 0
C_12100338250_6141753923_0 J_12100338250 J_6141753923 51.22 0.013 0 0
C_9510028744_6141753923_0 J_9510028744 J_6141753923 36.99 0.013 0 0
C_9510028744_10994329194_0 J_9510028744 J_10994329194 70.86 0.013 0 0
C_9510028744_9510028747_0 J_9510028744 J_9510028747 123.56 0.013 0 0
C_6141753927_6141753923_0 J_6141753927 J_6141753923 178.81 0.013 0 0
C_6141753927_6141753929_0 J_6141753927 J_6141753929 47.63 0.013 0 0
C_6141753927_10994377647_0 J_6141753927 J_10994377647 112.36 0.013 0 0
C_10994377647_6141753929_0 J_10994377647 J_6141753929 53.57 0.013 0 0
C_10994377647_6904648005_0 J_10994377647 J_6904648005 169.54 0.013 0 0
C_10994377647_6141753927_0 J_10994377647 J_6141753927 112.36 0.013 0 0
C_6141957193_6141957194_0 J_6141957193 J_6141957194 52.66 0.013 0 0
C_6141957194_6141957193_0 J_6141957194 J_6141957193 52.66 0.013 0 0
C_6141957194_6141957197_0 J_6141957194 J_6141957197 46.83 0.013 0 0
C_6141957194_6141957196_0 J_6141957194 J_6141957196 80.41 0.013 0 0
C_6141957197_6141957194_0 J_6141957197 J_6141957194 46.83 0.013 0 0
C_6141957196_6141957195_0 J_6141957196 J_6141957195 69.43 0.013 0 0
C_6141957196_6141957199_0 J_6141957196 J_6141957199 63.01 0.013 0 0
C_6141957196_6141957194_0 J_6141957196 J_6141957194 80.41 0.013 0 0
C_6141957195_6141957196_0 J_6141957195 J_6141957196 69.43 0.013 0 0
C_6142233154_7043760928_0 J_6142233154 J_7043760928 55.44 0.013 0 0
C_6142233154_13738231243_0 J_6142233154 J_13738231243 29.64 0.013 0 0
C_6142233154_6142233157_0 J_6142233154 J_6142233157 41.75 0.013 0 0
C_7043760928_6142233154_0 J_7043760928 J_6142233154 55.44 0.013 0 0
C_6142233157_6142233154_0 J_6142233157 J_6142233154 41.75 0.013 0 0
C_6142233157_4446729192_0 J_6142233157 J_4446729192 190.45 0.013 0 0
C_6143252362_6143252361_0 J_6143252362 J_6143252361 35.92 0.013 0 0
C_6143252362_7437331404_0 J_6143252362 J_7437331404 15.91 0.013 0 0
C_6143252363_6143252361_0 J_6143252363 J_6143252361 17.48 0.013 0 0
C_6143252363_7437331404_0 J_6143252363 J_7437331404 34.01 0.013 0 0
C_6143252363_7437296682_0 J_6143252363 J_7437296682 36.32 0.013 0 0
C_7437331404_6143252362_0 J_7437331404 J_6143252362 15.91 0.013 0 0
C_7437331404_7437296683_0 J_7437331404 J_7437296683 36.79 0.013 0 0
C_7437331404_6143252363_0 J_7437331404 J_6143252363 34.01 0.013 0 0
C_7437296682_7437296683_0 J_7437296682 J_7437296683 31.35 0.013 0 0
C_7437296682_7479630950_0 J_7437296682 J_7479630950 4.49 0.013 0 0
C_7437296682_6143252363_0 J_7437296682 J_6143252363 36.32 0.013 0 0
C_6144032626_6144032627_0 J_6144032626 J_6144032627 167.58 0.013 0 0
C_6144095981_13875979441_0 J_6144095981 J_13875979441 147.85 0.013 0 0
C_6144095981_13875979441_1 J_6144095981 J_13875979441 147.65 0.013 0 0
C_13875979441_3148633513_0 J_13875979441 J_3148633513 457.19 0.013 0 0
C_6152784946_11011971395_0 J_6152784946 J_11011971395 275.90 0.013 0 0
C_11395651197_6168052376_0 J_11395651197 J_6168052376 5.77 0.013 0 0
C_11685087325_6168052376_0 J_11685087325 J_6168052376 165.11 0.013 0 0
C_7478154579_7478154575_0 J_7478154579 J_7478154575 46.64 0.013 0 0
C_7478154579_6168067117_0 J_7478154579 J_6168067117 57.17 0.013 0 0
C_7478154579_6168067117_1 J_7478154579 J_6168067117 222.43 0.013 0 0
C_6180290589_6180290590_0 J_6180290589 J_6180290590 165.23 0.013 0 0
C_6180290590_6180290589_0 J_6180290590 J_6180290589 165.23 0.013 0 0
C_6180290590_5777246426_0 J_6180290590 J_5777246426 61.22 0.013 0 0
C_6180291877_13736567811_0 J_6180291877 J_13736567811 20.69 0.013 0 0
C_13736567811_6180291877_0 J_13736567811 J_6180291877 20.69 0.013 0 0
C_13736567811_13736567789_0 J_13736567811 J_13736567789 30.66 0.013 0 0
C_13736567811_13736567810_0 J_13736567811 J_13736567810 62.68 0.013 0 0
C_6180291884_13742285040_0 J_6180291884 J_13742285040 34.45 0.013 0 0
C_6180291884_6180293488_0 J_6180291884 J_6180293488 84.09 0.013 0 0
C_6180291884_13742285043_0 J_6180291884 J_13742285043 40.30 0.013 0 0
C_6180293488_6180291884_0 J_6180293488 J_6180291884 84.09 0.013 0 0
C_13742285043_6180293490_0 J_13742285043 J_6180293490 3.80 0.013 0 0
C_13742285043_6180291884_0 J_13742285043 J_6180291884 40.30 0.013 0 0
C_13742285043_13742285040_0 J_13742285043 J_13742285040 76.12 0.013 0 0
C_6180297957_10996777702_0 J_6180297957 J_10996777702 15.03 0.013 0 0
C_10996777702_6180297957_0 J_10996777702 J_6180297957 15.03 0.013 0 0
C_10996777702_6180297958_0 J_10996777702 J_6180297958 92.32 0.013 0 0
C_10996777702_10996777703_0 J_10996777702 J_10996777703 43.56 0.013 0 0
C_10996868634_6180297958_0 J_10996868634 J_6180297958 31.68 0.013 0 0
C_10996868634_10996868635_0 J_10996868634 J_10996868635 50.55 0.013 0 0
C_10996868634_11034031540_0 J_10996868634 J_11034031540 21.13 0.013 0 0
C_6194008056_6194008055_0 J_6194008056 J_6194008055 144.98 0.013 0 0
C_6194014538_6194014544_0 J_6194014538 J_6194014544 75.25 0.013 0 0
C_11408964582_11408964584_0 J_11408964582 J_11408964584 7.41 0.013 0 0
C_11408964582_6194291027_0 J_11408964582 J_6194291027 28.78 0.013 0 0
C_11408964582_11408964583_0 J_11408964582 J_11408964583 43.19 0.013 0 0
C_7484216053_6194291027_0 J_7484216053 J_6194291027 25.55 0.013 0 0
C_7147081175_7479630457_0 J_7147081175 J_7479630457 67.85 0.013 0 0
C_7147081175_7479630456_0 J_7147081175 J_7479630456 33.55 0.013 0 0
C_7147081175_6194830173_0 J_7147081175 J_6194830173 21.64 0.013 0 0
C_7479631105_6194830177_0 J_7479631105 J_6194830177 40.99 0.013 0 0
C_6196883741_10168279045_0 J_6196883741 J_10168279045 62.48 0.013 0 0
C_10168279045_6196883741_0 J_10168279045 J_6196883741 62.48 0.013 0 0
C_10168279045_6888399011_0 J_10168279045 J_6888399011 12.35 0.013 0 0
C_10168279045_10168279044_0 J_10168279045 J_10168279044 43.30 0.013 0 0
C_6196883747_6888399011_0 J_6196883747 J_6888399011 94.10 0.013 0 0
C_6196883747_9749202516_0 J_6196883747 J_9749202516 198.82 0.013 0 0
C_6888399011_10168279045_0 J_6888399011 J_10168279045 12.35 0.013 0 0
C_6888399011_9796082511_0 J_6888399011 J_9796082511 95.76 0.013 0 0
C_6888399011_9796082514_0 J_6888399011 J_9796082514 43.22 0.013 0 0
C_6888399011_6196883747_0 J_6888399011 J_6196883747 94.10 0.013 0 0
C_9749202516_6196883747_0 J_9749202516 J_6196883747 198.82 0.013 0 0
C_9749202516_6749666079_0 J_9749202516 J_6749666079 280.53 0.013 0 0
C_9749202516_12169759724_0 J_9749202516 J_12169759724 163.05 0.013 0 0
C_6196989886_10172938611_0 J_6196989886 J_10172938611 16.35 0.013 0 0
C_6196989886_6196989887_0 J_6196989886 J_6196989887 57.70 0.013 0 0
C_6196989886_10172938612_0 J_6196989886 J_10172938612 44.24 0.013 0 0
C_6196989887_6196989886_0 J_6196989887 J_6196989886 57.70 0.013 0 0
C_6196989887_6196989892_0 J_6196989887 J_6196989892 15.24 0.013 0 0
C_6196989887_6196989891_0 J_6196989887 J_6196989891 12.27 0.013 0 0
C_10172938612_6196989886_0 J_10172938612 J_6196989886 44.24 0.013 0 0
C_6196989892_6196989887_0 J_6196989892 J_6196989887 15.24 0.013 0 0
C_6196989891_10172942118_0 J_6196989891 J_10172942118 49.21 0.013 0 0
C_6196989891_6196989887_0 J_6196989891 J_6196989887 12.27 0.013 0 0
C_6196989891_6196989889_0 J_6196989891 J_6196989889 61.58 0.013 0 0
C_10172938610_6196989888_0 J_10172938610 J_6196989888 68.15 0.013 0 0
C_10172938610_6196989889_0 J_10172938610 J_6196989889 57.70 0.013 0 0
C_10172938610_10172938611_0 J_10172938610 J_10172938611 56.99 0.013 0 0
C_10172938610_10172938609_0 J_10172938610 J_10172938609 60.00 0.013 0 0
C_10172938605_6196989888_0 J_10172938605 J_6196989888 75.68 0.013 0 0
C_6196989889_10172938610_0 J_6196989889 J_10172938610 57.70 0.013 0 0
C_6196989889_6196989891_0 J_6196989889 J_6196989891 61.58 0.013 0 0
C_6196989889_6196989893_0 J_6196989889 J_6196989893 59.02 0.013 0 0
C_6196989889_11066374004_0 J_6196989889 J_11066374004 77.17 0.013 0 0
C_11066374004_6196989889_0 J_11066374004 J_6196989889 77.17 0.013 0 0
C_6196989890_10172942118_0 J_6196989890 J_10172942118 29.63 0.013 0 0
C_10172942118_6196989890_0 J_10172942118 J_6196989890 29.63 0.013 0 0
C_10172942118_6196989891_0 J_10172942118 J_6196989891 49.21 0.013 0 0
C_10172942118_10172942119_0 J_10172942118 J_10172942119 55.53 0.013 0 0
C_7479630751_7479630747_0 J_7479630751 J_7479630747 48.25 0.013 0 0
C_7479630751_6196989893_0 J_7479630751 J_6196989893 62.43 0.013 0 0
C_7479630751_10172938609_0 J_7479630751 J_10172938609 117.69 0.013 0 0
C_7263153521_7263153520_0 J_7263153521 J_7263153520 94.35 0.013 0 0
C_7263153521_6197379428_0 J_7263153521 J_6197379428 203.30 0.013 0 0
C_7263153521_7265834830_0 J_7263153521 J_7265834830 286.69 0.013 0 0
C_6197671075_10182468120_0 J_6197671075 J_10182468120 190.23 0.013 0 0
C_11290340685_6458940001_0 J_11290340685 J_6458940001 21.36 0.013 0 0
C_6499300016_6499300015_0 J_6499300016 J_6499300015 90.14 0.013 0 0
C_7328007824_7328007823_0 J_7328007824 J_7328007823 75.38 0.013 0 0
C_7328007824_6499300015_0 J_7328007824 J_6499300015 59.95 0.013 0 0
C_7328007824_7328007827_0 J_7328007824 J_7328007827 38.63 0.013 0 0
C_11395791821_6505394016_0 J_11395791821 J_6505394016 33.80 0.013 0 0
C_6505394017_10996992466_0 J_6505394017 J_10996992466 11.91 0.013 0 0
C_6505394017_10680776590_0 J_6505394017 J_10680776590 21.73 0.013 0 0
C_6505394017_6753563683_0 J_6505394017 J_6753563683 131.26 0.013 0 0
C_10680776590_6505394017_0 J_10680776590 J_6505394017 21.73 0.013 0 0
C_6753563683_6768481191_0 J_6753563683 J_6768481191 32.13 0.013 0 0
C_6753563683_7043731241_0 J_6753563683 J_7043731241 171.34 0.013 0 0
C_6753563683_6505394017_0 J_6753563683 J_6505394017 131.26 0.013 0 0
C_6536473096_6536473097_0 J_6536473096 J_6536473097 63.43 0.013 0 0
C_6536473097_6536473099_0 J_6536473097 J_6536473099 20.17 0.013 0 0
C_6536473097_9846394226_0 J_6536473097 J_9846394226 20.21 0.013 0 0
C_6536473097_6536473096_0 J_6536473097 J_6536473096 63.43 0.013 0 0
C_9846394226_6536473097_0 J_9846394226 J_6536473097 20.21 0.013 0 0
C_9846394226_1615767007_0 J_9846394226 J_1615767007 4.72 0.013 0 0
C_6536473098_6536473099_0 J_6536473098 J_6536473099 74.88 0.013 0 0
C_6536473100_6536473101_0 J_6536473100 J_6536473101 57.10 0.013 0 0
C_11397532787_6536473104_0 J_11397532787 J_6536473104 28.22 0.013 0 0
C_6536473106_6536473107_0 J_6536473106 J_6536473107 37.68 0.013 0 0
C_6536473109_6536473107_0 J_6536473109 J_6536473107 31.89 0.013 0 0
C_6536473109_11397532788_0 J_6536473109 J_11397532788 44.74 0.013 0 0
C_6536473109_11397532789_0 J_6536473109 J_11397532789 28.56 0.013 0 0
C_11397532788_6536473109_0 J_11397532788 J_6536473109 44.74 0.013 0 0
C_11397532789_6536473109_0 J_11397532789 J_6536473109 28.56 0.013 0 0
C_6536473137_6536473134_0 J_6536473137 J_6536473134 41.45 0.013 0 0
C_6536473137_6536473134_1 J_6536473137 J_6536473134 129.04 0.013 0 0
C_6536473137_6536473139_0 J_6536473137 J_6536473139 85.79 0.013 0 0
C_6536473138_6536473139_0 J_6536473138 J_6536473139 144.08 0.013 0 0
C_6536882163_6536882164_0 J_6536882163 J_6536882164 37.18 0.013 0 0
C_6536882164_6536882163_0 J_6536882164 J_6536882163 37.18 0.013 0 0
C_6536882164_6536884402_0 J_6536882164 J_6536884402 59.78 0.013 0 0
C_6536882164_10994329181_0 J_6536882164 J_10994329181 48.66 0.013 0 0
C_6536884402_10994329190_0 J_6536884402 J_10994329190 24.14 0.013 0 0
C_6536884402_12100338250_0 J_6536884402 J_12100338250 7.21 0.013 0 0
C_6536884402_6536882164_0 J_6536884402 J_6536882164 59.78 0.013 0 0
C_6536884402_6536884401_0 J_6536884402 J_6536884401 63.60 0.013 0 0
C_10994329181_6536882164_0 J_10994329181 J_6536882164 48.66 0.013 0 0
C_6536884398_6536884399_0 J_6536884398 J_6536884399 53.95 0.013 0 0
C_10994377346_6536884399_0 J_10994377346 J_6536884399 27.57 0.013 0 0
C_10994377346_6536884405_0 J_10994377346 J_6536884405 2.89 0.013 0 0
C_10994377346_10994377348_0 J_10994377346 J_10994377348 53.49 0.013 0 0
C_6536884400_6536884401_0 J_6536884400 J_6536884401 18.97 0.013 0 0
C_6536884401_6536884400_0 J_6536884401 J_6536884400 18.97 0.013 0 0
C_6536884401_6536884402_0 J_6536884401 J_6536884402 63.60 0.013 0 0
C_6536884401_6536884405_0 J_6536884401 J_6536884405 94.24 0.013 0 0
C_6536884405_10994377346_0 J_6536884405 J_10994377346 2.89 0.013 0 0
C_6536884405_10994329190_0 J_6536884405 J_10994329190 68.24 0.013 0 0
C_6536884405_6536884401_0 J_6536884405 J_6536884401 94.24 0.013 0 0
C_10994329190_6536884402_0 J_10994329190 J_6536884402 24.14 0.013 0 0
C_10994329190_6536884405_0 J_10994329190 J_6536884405 68.24 0.013 0 0
C_10994329190_10994329192_0 J_10994329190 J_10994329192 38.79 0.013 0 0
C_6562185320_1275552789_0 J_6562185320 J_1275552789 376.14 0.013 0 0
C_6562185320_6562185321_0 J_6562185320 J_6562185321 14.23 0.013 0 0
C_6631012279_10172868164_0 J_6631012279 J_10172868164 84.68 0.013 0 0
C_6631012279_12060861673_0 J_6631012279 J_12060861673 223.79 0.013 0 0
C_10172868164_10172868165_0 J_10172868164 J_10172868165 42.71 0.013 0 0
C_10172868164_6631012279_0 J_10172868164 J_6631012279 84.68 0.013 0 0
C_10172868164_6968263671_0 J_10172868164 J_6968263671 39.74 0.013 0 0
C_9824245046_9824245043_0 J_9824245046 J_9824245043 36.77 0.013 0 0
C_9824245046_9824245043_1 J_9824245046 J_9824245043 196.97 0.013 0 0
C_9824245046_6749666079_0 J_9824245046 J_6749666079 154.93 0.013 0 0
C_6749735684_4734151709_0 J_6749735684 J_4734151709 62.33 0.013 0 0
C_6768481191_6753563683_0 J_6768481191 J_6753563683 32.13 0.013 0 0
C_6768481191_6768481190_0 J_6768481191 J_6768481190 85.61 0.013 0 0
C_6768481191_6753563684_0 J_6768481191 J_6753563684 69.32 0.013 0 0
C_7043731241_6753563683_0 J_7043731241 J_6753563683 171.34 0.013 0 0
C_6753563684_6768481191_0 J_6753563684 J_6768481191 69.32 0.013 0 0
C_6755740921_10989354751_0 J_6755740921 J_10989354751 85.39 0.013 0 0
C_10989354751_6755740921_0 J_10989354751 J_6755740921 85.39 0.013 0 0
C_10989354751_6755740924_0 J_10989354751 J_6755740924 71.26 0.013 0 0
C_10989354751_6755740924_1 J_10989354751 J_6755740924 93.76 0.013 0 0
C_6755740924_10989354751_0 J_6755740924 J_10989354751 71.26 0.013 0 0
C_6755740924_10989354751_1 J_6755740924 J_10989354751 93.76 0.013 0 0
C_6755740924_6755740926_0 J_6755740924 J_6755740926 32.51 0.013 0 0
C_6755740926_7328007827_0 J_6755740926 J_7328007827 57.49 0.013 0 0
C_6755740926_6755740924_0 J_6755740926 J_6755740924 32.51 0.013 0 0
C_7328007827_7328007824_0 J_7328007827 J_7328007824 38.63 0.013 0 0
C_7328007827_6755740926_0 J_7328007827 J_6755740926 57.49 0.013 0 0
C_7328007827_7328007822_0 J_7328007827 J_7328007822 66.89 0.013 0 0
C_6758558441_6758558444_0 J_6758558441 J_6758558444 196.40 0.013 0 0
C_10996648270_6758558444_0 J_10996648270 J_6758558444 56.38 0.013 0 0
C_6758646579_10173119095_0 J_6758646579 J_10173119095 126.56 0.013 0 0
C_6768481190_6768481191_0 J_6768481190 J_6768481191 85.61 0.013 0 0
C_6802224014_6802224021_0 J_6802224014 J_6802224021 66.34 0.013 0 0
C_6802224015_6802224021_0 J_6802224015 J_6802224021 100.81 0.013 0 0
C_6884558829_6884558833_0 J_6884558829 J_6884558833 113.30 0.013 0 0
C_6885777456_6902137283_0 J_6885777456 J_6902137283 57.06 0.013 0 0
C_6902137283_6885777459_0 J_6902137283 J_6885777459 14.02 0.013 0 0
C_6902137283_6885777458_0 J_6902137283 J_6885777458 27.02 0.013 0 0
C_6902137283_6885777456_0 J_6902137283 J_6885777456 57.06 0.013 0 0
C_6885777458_6902137283_0 J_6885777458 J_6902137283 27.02 0.013 0 0
C_6887668015_9840153329_0 J_6887668015 J_9840153329 99.55 0.013 0 0
C_6887668015_12443097988_0 J_6887668015 J_12443097988 219.25 0.013 0 0
C_6887668015_12147412804_0 J_6887668015 J_12147412804 256.83 0.013 0 0
C_9840153329_6887668015_0 J_9840153329 J_6887668015 99.55 0.013 0 0
C_12443097988_12443097987_0 J_12443097988 J_12443097987 30.92 0.013 0 0
C_12443097988_12443097989_0 J_12443097988 J_12443097989 38.13 0.013 0 0
C_12443097988_6887668015_0 J_12443097988 J_6887668015 219.25 0.013 0 0
C_12147412804_9720271254_0 J_12147412804 J_9720271254 53.96 0.013 0 0
C_12147412804_12147412805_0 J_12147412804 J_12147412805 22.15 0.013 0 0
C_12147412804_6887668015_0 J_12147412804 J_6887668015 256.83 0.013 0 0
C_9796082511_6888399011_0 J_9796082511 J_6888399011 95.76 0.013 0 0
C_9796082511_9525461684_0 J_9796082511 J_9525461684 15.41 0.013 0 0
C_9796082514_10168279044_0 J_9796082514 J_10168279044 12.46 0.013 0 0
C_9796082514_9759551602_0 J_9796082514 J_9759551602 19.92 0.013 0 0
C_9796082514_6888399011_0 J_9796082514 J_6888399011 43.22 0.013 0 0
C_6894631549_6894631550_0 J_6894631549 J_6894631550 51.48 0.013 0 0
C_6894631550_6894631549_0 J_6894631550 J_6894631549 51.48 0.013 0 0
C_6894631550_6536271335_0 J_6894631550 J_6536271335 849.29 0.013 0 0
C_6901616696_6901616701_0 J_6901616696 J_6901616701 164.94 0.013 0 0
C_6901616701_6901616703_0 J_6901616701 J_6901616703 114.63 0.013 0 0
C_6901616701_12452602835_0 J_6901616701 J_12452602835 22.93 0.013 0 0
C_6901616701_12194261264_0 J_6901616701 J_12194261264 118.55 0.013 0 0
C_6901616701_6901616696_0 J_6901616701 J_6901616696 164.94 0.013 0 0
C_6901616703_6901616701_0 J_6901616703 J_6901616701 114.63 0.013 0 0
C_12452602835_6901616701_0 J_12452602835 J_6901616701 22.93 0.013 0 0
C_12194261264_6901616701_0 J_12194261264 J_6901616701 118.55 0.013 0 0
C_6904648003_6911622972_0 J_6904648003 J_6911622972 40.77 0.013 0 0
C_6911622972_6904648005_0 J_6911622972 J_6904648005 47.37 0.013 0 0
C_6911622972_6911622971_0 J_6911622972 J_6911622971 41.29 0.013 0 0
C_6911622972_6904648003_0 J_6911622972 J_6904648003 40.77 0.013 0 0
C_6911622971_6911622972_0 J_6911622971 J_6911622972 41.29 0.013 0 0
C_6914358596_6914358633_0 J_6914358596 J_6914358633 101.73 0.013 0 0
C_6914358633_6914358632_0 J_6914358633 J_6914358632 24.14 0.013 0 0
C_6914358633_7479631061_0 J_6914358633 J_7479631061 228.12 0.013 0 0
C_6914358633_6914358596_0 J_6914358633 J_6914358596 101.73 0.013 0 0
C_6914358616_7479630561_0 J_6914358616 J_7479630561 144.63 0.013 0 0
C_6914358625_6914358630_0 J_6914358625 J_6914358630 100.00 0.013 0 0
C_6914358625_12462722212_0 J_6914358625 J_12462722212 24.80 0.013 0 0
C_6914358630_7479631061_0 J_6914358630 J_7479631061 56.82 0.013 0 0
C_6914358630_6914358648_0 J_6914358630 J_6914358648 78.50 0.013 0 0
C_6914358630_6914358625_0 J_6914358630 J_6914358625 100.00 0.013 0 0
C_12462722212_7479631049_0 J_12462722212 J_7479631049 55.30 0.013 0 0
C_12462722212_7479631043_0 J_12462722212 J_7479631043 6.09 0.013 0 0
C_12462722212_6914358625_0 J_12462722212 J_6914358625 24.80 0.013 0 0
C_6914358626_6914358627_0 J_6914358626 J_6914358627 49.88 0.013 0 0
C_6914358626_9179098233_0 J_6914358626 J_9179098233 36.20 0.013 0 0
C_6914358626_7479631046_0 J_6914358626 J_7479631046 18.88 0.013 0 0
C_6914358627_6914358626_0 J_6914358627 J_6914358626 49.88 0.013 0 0
C_6914358627_7479631043_0 J_6914358627 J_7479631043 31.57 0.013 0 0
C_6914358627_7479631050_0 J_6914358627 J_7479631050 64.57 0.013 0 0
C_9179098233_6914358626_0 J_9179098233 J_6914358626 36.20 0.013 0 0
C_9179098233_7479631043_0 J_9179098233 J_7479631043 98.21 0.013 0 0
C_9179098233_6914358649_0 J_9179098233 J_6914358649 41.86 0.013 0 0
C_7479631043_6914358627_0 J_7479631043 J_6914358627 31.57 0.013 0 0
C_7479631043_12462722212_0 J_7479631043 J_12462722212 6.09 0.013 0 0
C_7479631043_9179098233_0 J_7479631043 J_9179098233 98.21 0.013 0 0
C_7479631050_6914358627_0 J_7479631050 J_6914358627 64.57 0.013 0 0
C_7479631061_7479630985_0 J_7479631061 J_7479630985 12.15 0.013 0 0
C_7479631061_6914358633_0 J_7479631061 J_6914358633 228.12 0.013 0 0
C_7479631061_6914358630_0 J_7479631061 J_6914358630 56.82 0.013 0 0
C_6914358648_6914358649_0 J_6914358648 J_6914358649 37.39 0.013 0 0
C_6914358648_10182456214_0 J_6914358648 J_10182456214 14.43 0.013 0 0
C_6914358648_6914358630_0 J_6914358648 J_6914358630 78.50 0.013 0 0
C_6914358631_6914358632_0 J_6914358631 J_6914358632 36.09 0.013 0 0
C_6914358649_6914358648_0 J_6914358649 J_6914358648 37.39 0.013 0 0
C_6914358649_9179098233_0 J_6914358649 J_9179098233 41.86 0.013 0 0
C_6914358649_7479630545_0 J_6914358649 J_7479630545 141.16 0.013 0 0
C_10182456214_6914358648_0 J_10182456214 J_6914358648 14.43 0.013 0 0
C_7479630545_7479630520_0 J_7479630545 J_7479630520 36.37 0.013 0 0
C_7479630545_7479630537_0 J_7479630545 J_7479630537 98.45 0.013 0 0
C_7479630545_6914358649_0 J_7479630545 J_6914358649 141.16 0.013 0 0
C_6968263670_6968263671_0 J_6968263670 J_6968263671 27.41 0.013 0 0
C_7095228341_7478154530_0 J_7095228341 J_7478154530 26.85 0.013 0 0
C_7095228341_13136176386_0 J_7095228341 J_13136176386 40.29 0.013 0 0
C_7095228341_7095228343_0 J_7095228341 J_7095228343 191.99 0.013 0 0
C_7478154530_11370378569_0 J_7478154530 J_11370378569 4.49 0.013 0 0
C_7478154530_7095228341_0 J_7478154530 J_7095228341 26.85 0.013 0 0
C_7478154530_7478154518_0 J_7478154530 J_7478154518 16.34 0.013 0 0
C_7095228343_7095228341_0 J_7095228343 J_7095228341 191.99 0.013 0 0
C_7095265249_11370378569_0 J_7095265249 J_11370378569 100.53 0.013 0 0
C_7097308434_12145839287_0 J_7097308434 J_12145839287 77.04 0.013 0 0
C_7097308434_9830778271_0 J_7097308434 J_9830778271 6.04 0.013 0 0
C_7097308434_7097308435_0 J_7097308434 J_7097308435 59.07 0.013 0 0
C_7097308435_7097308434_0 J_7097308435 J_7097308434 59.07 0.013 0 0
C_7138066340_13130383416_0 J_7138066340 J_13130383416 77.73 0.013 0 0
C_13130383416_7328007816_0 J_13130383416 J_7328007816 5.60 0.013 0 0
C_7147081174_7479630457_0 J_7147081174 J_7479630457 93.61 0.013 0 0
C_7479630457_7147081174_0 J_7479630457 J_7147081174 93.61 0.013 0 0
C_7479630457_7147081175_0 J_7479630457 J_7147081175 67.85 0.013 0 0
C_7479630457_7479630458_0 J_7479630457 J_7479630458 12.18 0.013 0 0
C_7479630456_7479630455_0 J_7479630456 J_7479630455 32.35 0.013 0 0
C_7479630456_7479630469_0 J_7479630456 J_7479630469 20.21 0.013 0 0
C_7479630456_7147081175_0 J_7479630456 J_7147081175 33.55 0.013 0 0
C_7147100015_13134720443_0 J_7147100015 J_13134720443 48.49 0.013 0 0
C_13134720443_13134720442_0 J_13134720443 J_13134720442 40.10 0.013 0 0
C_13134720443_7147100015_0 J_13134720443 J_7147100015 48.49 0.013 0 0
C_13134720443_7147100023_0 J_13134720443 J_7147100023 123.01 0.013 0 0
C_7147100023_13823559216_0 J_7147100023 J_13823559216 75.70 0.013 0 0
C_7147100023_13134720443_0 J_7147100023 J_13134720443 123.01 0.013 0 0
C_13823559216_6180290590_0 J_13823559216 J_6180290590 130.06 0.013 0 0
C_7147986885_7147949887_0 J_7147986885 J_7147949887 14.39 0.013 0 0
C_7147986187_7147949887_0 J_7147986187 J_7147949887 25.00 0.013 0 0
C_12651830520_7262830543_0 J_12651830520 J_7262830543 42.41 0.013 0 0
C_7263153520_7263153521_0 J_7263153520 J_7263153521 94.35 0.013 0 0
C_7265834830_7263153521_0 J_7265834830 J_7263153521 286.69 0.013 0 0
C_7263153527_7263153533_0 J_7263153527 J_7263153533 106.30 0.013 0 0
C_7265834819_7263153539_0 J_7265834819 J_7263153539 45.42 0.013 0 0
C_7263316361_7263316354_0 J_7263316361 J_7263316354 72.15 0.013 0 0
C_7266164815_7266164820_0 J_7266164815 J_7266164820 26.37 0.013 0 0
C_9179098228_7298619209_0 J_9179098228 J_7298619209 70.59 0.013 0 0
C_7298619246_12558535618_0 J_7298619246 J_12558535618 37.59 0.013 0 0
C_7298619246_13135583058_0 J_7298619246 J_13135583058 30.02 0.013 0 0
C_7298619246_9757079871_0 J_7298619246 J_9757079871 116.24 0.013 0 0
C_12558535618_7298619246_0 J_12558535618 J_7298619246 37.59 0.013 0 0
C_12558535618_13135627938_0 J_12558535618 J_13135627938 27.74 0.013 0 0
C_12558535618_13135583074_0 J_12558535618 J_13135583074 53.47 0.013 0 0
C_13135583058_7298619246_0 J_13135583058 J_7298619246 30.02 0.013 0 0
C_9757079871_9757079872_0 J_9757079871 J_9757079872 53.55 0.013 0 0
C_9757079871_9757079870_0 J_9757079871 J_9757079870 20.89 0.013 0 0
C_9757079871_7298619246_0 J_9757079871 J_7298619246 116.24 0.013 0 0
C_7301789573_7301789574_0 J_7301789573 J_7301789574 98.42 0.013 0 0
C_10996655571_10996655572_0 J_10996655571 J_10996655572 85.47 0.013 0 0
C_10996655571_9826793285_0 J_10996655571 J_9826793285 74.33 0.013 0 0
C_10996655571_7301789574_0 J_10996655571 J_7301789574 79.22 0.013 0 0
C_7301790589_7301790590_0 J_7301790589 J_7301790590 51.99 0.013 0 0
C_7328007238_7328007243_0 J_7328007238 J_7328007243 117.14 0.013 0 0
C_7478154531_7328007243_0 J_7478154531 J_7328007243 73.41 0.013 0 0
C_7478154531_7479631472_0 J_7478154531 J_7479631472 17.13 0.013 0 0
C_7478154531_7478154532_0 J_7478154531 J_7478154532 131.58 0.013 0 0
C_7328007284_7328007285_0 J_7328007284 J_7328007285 29.88 0.013 0 0
C_7328007287_7328007288_0 J_7328007287 J_7328007288 61.43 0.013 0 0
C_7478154670_7328007720_0 J_7478154670 J_7328007720 23.41 0.013 0 0
C_7328007723_7328007720_0 J_7328007723 J_7328007720 96.05 0.013 0 0
C_7328007816_7602632240_0 J_7328007816 J_7602632240 13.45 0.013 0 0
C_7328007816_7328099161_0 J_7328007816 J_7328099161 185.17 0.013 0 0
C_7602632240_13130383417_0 J_7602632240 J_13130383417 5.00 0.013 0 0
C_7602632240_7602632242_0 J_7602632240 J_7602632242 16.11 0.013 0 0
C_7328099161_7328099162_0 J_7328099161 J_7328099162 84.22 0.013 0 0
C_7328099161_7328099147_0 J_7328099161 J_7328099147 49.56 0.013 0 0
C_7328007822_7328007827_0 J_7328007822 J_7328007827 66.89 0.013 0 0
C_7328007823_7328007824_0 J_7328007823 J_7328007824 75.38 0.013 0 0
C_7328099142_7328099146_0 J_7328099142 J_7328099146 60.83 0.013 0 0
C_7328099147_7328099157_0 J_7328099147 J_7328099157 87.73 0.013 0 0
C_7328099147_695079385_0 J_7328099147 J_695079385 72.55 0.013 0 0
C_7328099157_7328099147_0 J_7328099157 J_7328099147 87.73 0.013 0 0
C_7328099162_7328099161_0 J_7328099162 J_7328099161 84.22 0.013 0 0
C_7328345273_13142028564_0 J_7328345273 J_13142028564 27.59 0.013 0 0
C_13142028564_13142028598_0 J_13142028564 J_13142028598 61.38 0.013 0 0
C_13142028564_7328345273_0 J_13142028564 J_7328345273 27.59 0.013 0 0
C_13142028564_13142028560_0 J_13142028564 J_13142028560 39.44 0.013 0 0
C_7328345275_7328345274_0 J_7328345275 J_7328345274 18.81 0.013 0 0
C_7328345275_12415673019_0 J_7328345275 J_12415673019 13.94 0.013 0 0
C_7328345275_13142028560_0 J_7328345275 J_13142028560 41.52 0.013 0 0
C_12415673019_7328345275_0 J_12415673019 J_7328345275 13.94 0.013 0 0
C_13142028560_13142028562_0 J_13142028560 J_13142028562 12.93 0.013 0 0
C_13142028560_7328345275_0 J_13142028560 J_7328345275 41.52 0.013 0 0
C_13142028560_13142028564_0 J_13142028560 J_13142028564 39.44 0.013 0 0
C_7328379058_7328379067_0 J_7328379058 J_7328379067 253.83 0.013 0 0
C_7328379077_7328379076_0 J_7328379077 J_7328379076 38.30 0.013 0 0
C_7328379154_7328379151_0 J_7328379154 J_7328379151 74.54 0.013 0 0
C_7328379156_7328379155_0 J_7328379156 J_7328379155 36.97 0.013 0 0
C_9849585566_7328379155_0 J_9849585566 J_7328379155 100.13 0.013 0 0
C_11707855552_7328379157_0 J_11707855552 J_7328379157 82.45 0.013 0 0
C_7328379167_7328379166_0 J_7328379167 J_7328379166 45.80 0.013 0 0
C_13736562866_7328379166_0 J_13736562866 J_7328379166 25.75 0.013 0 0
C_7328379176_7328379175_0 J_7328379176 J_7328379175 48.30 0.013 0 0
C_7328379201_7328379200_0 J_7328379201 J_7328379200 66.52 0.013 0 0
C_7432261686_7432261687_0 J_7432261686 J_7432261687 55.92 0.013 0 0
C_7432261686_6894631550_0 J_7432261686 J_6894631550 57.42 0.013 0 0
C_7432261687_7432261686_0 J_7432261687 J_7432261686 55.92 0.013 0 0
C_7479631027_7436685266_0 J_7479631027 J_7436685266 5.27 0.013 0 0
C_7479631027_7437331394_0 J_7479631027 J_7437331394 40.55 0.013 0 0
C_7479631027_7479631021_0 J_7479631027 J_7479631021 158.42 0.013 0 0
C_7479630316_7437331400_0 J_7479630316 J_7437331400 32.04 0.013 0 0
C_7479630316_7436685266_0 J_7479630316 J_7436685266 33.91 0.013 0 0
C_7437296683_7437296682_0 J_7437296683 J_7437296682 31.35 0.013 0 0
C_7437296683_7479630324_0 J_7437296683 J_7479630324 13.33 0.013 0 0
C_7437296683_7437331404_0 J_7437296683 J_7437331404 36.79 0.013 0 0
C_7479630324_7437296683_0 J_7479630324 J_7437296683 13.33 0.013 0 0
C_7479630324_7479630325_0 J_7479630324 J_7479630325 17.43 0.013 0 0
C_7437331394_7437331401_0 J_7437331394 J_7437331401 33.24 0.013 0 0
C_7437331394_7479631027_0 J_7437331394 J_7479631027 40.55 0.013 0 0
C_7437331394_7479631031_0 J_7437331394 J_7479631031 123.53 0.013 0 0
C_7437331401_7437331394_0 J_7437331401 J_7437331394 33.24 0.013 0 0
C_7437331401_7437331400_0 J_7437331401 J_7437331400 16.32 0.013 0 0
C_7479631031_7479630422_0 J_7479631031 J_7479630422 82.02 0.013 0 0
C_7479631031_7437331394_0 J_7479631031 J_7437331394 123.53 0.013 0 0
C_7479631031_7479631029_0 J_7479631031 J_7479631029 29.48 0.013 0 0
C_7437331400_7479630316_0 J_7437331400 J_7479630316 32.04 0.013 0 0
C_7437331400_7437331401_0 J_7437331400 J_7437331401 16.32 0.013 0 0
C_7465559431_7465559430_0 J_7465559431 J_7465559430 149.34 0.013 0 0
C_11432092734_7465559430_0 J_11432092734 J_7465559430 3.21 0.013 0 0
C_7478154505_7478154497_0 J_7478154505 J_7478154497 117.32 0.013 0 0
C_7478154524_7478154516_0 J_7478154524 J_7478154516 37.88 0.013 0 0
C_7478154524_7478154523_0 J_7478154524 J_7478154523 24.34 0.013 0 0
C_7478154524_7478154518_0 J_7478154524 J_7478154518 76.75 0.013 0 0
C_7478154518_7478154516_0 J_7478154518 J_7478154516 53.00 0.013 0 0
C_7478154518_7478154530_0 J_7478154518 J_7478154530 16.34 0.013 0 0
C_7478154518_7478154524_0 J_7478154518 J_7478154524 76.75 0.013 0 0
C_7478154523_7478154524_0 J_7478154523 J_7478154524 24.34 0.013 0 0
C_7478154532_7478154531_0 J_7478154532 J_7478154531 131.58 0.013 0 0
C_7478154534_7478154539_0 J_7478154534 J_7478154539 42.50 0.013 0 0
C_7478154539_7478154545_0 J_7478154539 J_7478154545 13.55 0.013 0 0
C_7478154539_7478154534_0 J_7478154539 J_7478154534 42.50 0.013 0 0
C_7478154539_7478154540_0 J_7478154539 J_7478154540 116.67 0.013 0 0
C_7478154545_7478154539_0 J_7478154545 J_7478154539 13.55 0.013 0 0
C_7478154544_7478154540_0 J_7478154544 J_7478154540 48.23 0.013 0 0
C_7478154575_7478154579_0 J_7478154575 J_7478154579 46.64 0.013 0 0
C_7478154575_7478154576_0 J_7478154575 J_7478154576 50.63 0.013 0 0
C_7478154575_7478154577_0 J_7478154575 J_7478154577 56.34 0.013 0 0
C_7478154576_7478154575_0 J_7478154576 J_7478154575 50.63 0.013 0 0
C_7478154577_7478154575_0 J_7478154577 J_7478154575 56.34 0.013 0 0
C_11433644719_11433644720_0 J_11433644719 J_11433644720 70.70 0.013 0 0
C_11433644719_7478154651_0 J_11433644719 J_7478154651 163.39 0.013 0 0
C_11433644719_11433644721_0 J_11433644719 J_11433644721 154.46 0.013 0 0
C_7478154725_7478154729_0 J_7478154725 J_7478154729 155.12 0.013 0 0
C_7478154725_7478154786_0 J_7478154725 J_7478154786 142.49 0.013 0 0
C_7478154786_7478154787_0 J_7478154786 J_7478154787 66.82 0.013 0 0
C_7478154786_11921590003_0 J_7478154786 J_11921590003 23.94 0.013 0 0
C_7478154786_7478154725_0 J_7478154786 J_7478154725 142.49 0.013 0 0
C_12447971611_7478154729_0 J_12447971611 J_7478154729 63.75 0.013 0 0
C_7478154787_7478154786_0 J_7478154787 J_7478154786 66.82 0.013 0 0
C_11921590003_11414759654_0 J_11921590003 J_11414759654 113.43 0.013 0 0
C_11921590003_7478154786_0 J_11921590003 J_7478154786 23.94 0.013 0 0
C_12446863535_12963900368_0 J_12446863535 J_12963900368 37.94 0.013 0 0
C_12446863535_7478155165_0 J_12446863535 J_7478155165 68.31 0.013 0 0
C_12446863535_12446863536_0 J_12446863535 J_12446863536 117.58 0.013 0 0
C_12443097983_12443097985_0 J_12443097983 J_12443097985 36.20 0.013 0 0
C_12443097983_12443097982_0 J_12443097983 J_12443097982 38.06 0.013 0 0
C_12443097983_7478155165_0 J_12443097983 J_7478155165 63.68 0.013 0 0
C_7479630319_7479630320_0 J_7479630319 J_7479630320 31.02 0.013 0 0
C_7479630422_7479631031_0 J_7479630422 J_7479631031 82.02 0.013 0 0
C_7479630444_7479630469_0 J_7479630444 J_7479630469 69.20 0.013 0 0
C_7479630455_7479630456_0 J_7479630455 J_7479630456 32.35 0.013 0 0
C_7479630458_7479630457_0 J_7479630458 J_7479630457 12.18 0.013 0 0
C_7479630480_7479630483_0 J_7479630480 J_7479630483 37.19 0.013 0 0
C_7479630512_7479630537_0 J_7479630512 J_7479630537 30.06 0.013 0 0
C_7479630537_7479630512_0 J_7479630537 J_7479630512 30.06 0.013 0 0
C_7479630537_7479630520_0 J_7479630537 J_7479630520 134.22 0.013 0 0
C_7479630537_7479630545_0 J_7479630537 J_7479630545 98.45 0.013 0 0
C_7479630747_7479630751_0 J_7479630747 J_7479630751 48.25 0.013 0 0
C_7479630756_7479630758_0 J_7479630756 J_7479630758 39.31 0.013 0 0
C_9784518335_7479630758_0 J_9784518335 J_7479630758 44.70 0.013 0 0
C_9784518335_9784518334_0 J_9784518335 J_9784518334 83.52 0.013 0 0
C_9784518335_11434263478_0 J_9784518335 J_11434263478 31.08 0.013 0 0
C_10172935935_7479630763_0 J_10172935935 J_7479630763 28.62 0.013 0 0
C_7479630767_7479630768_0 J_7479630767 J_7479630768 35.83 0.013 0 0
C_7479630769_7479630770_0 J_7479630769 J_7479630770 39.99 0.013 0 0
C_7479630772_7479630771_0 J_7479630772 J_7479630771 50.95 0.013 0 0
C_7479630773_9784518332_0 J_7479630773 J_9784518332 85.36 0.013 0 0
C_9784518332_7479630773_0 J_9784518332 J_7479630773 85.36 0.013 0 0
C_9784518332_7479630780_0 J_9784518332 J_7479630780 46.69 0.013 0 0
C_9784518332_9784518333_0 J_9784518332 J_9784518333 64.98 0.013 0 0
C_7479630774_7479630779_0 J_7479630774 J_7479630779 31.35 0.013 0 0
C_7479630774_11434263476_0 J_7479630774 J_11434263476 59.18 0.013 0 0
C_7479630774_7479630780_0 J_7479630774 J_7479630780 18.44 0.013 0 0
C_7479630779_7479630782_0 J_7479630779 J_7479630782 53.05 0.013 0 0
C_7479630779_7479630774_0 J_7479630779 J_7479630774 31.35 0.013 0 0
C_7479630779_7479630778_0 J_7479630779 J_7479630778 50.34 0.013 0 0
C_11434263476_7479630774_0 J_11434263476 J_7479630774 59.18 0.013 0 0
C_11434263476_12477867929_0 J_11434263476 J_12477867929 74.12 0.013 0 0
C_11434263476_11434263477_0 J_11434263476 J_11434263477 53.43 0.013 0 0
C_12477867928_7479630775_0 J_12477867928 J_7479630775 50.55 0.013 0 0
C_7479630777_7479630782_0 J_7479630777 J_7479630782 50.36 0.013 0 0
C_7479630778_7479630779_0 J_7479630778 J_7479630779 50.34 0.013 0 0
C_7479630836_6137643400_0 J_7479630836 J_6137643400 28.09 0.013 0 0
C_7479630836_7479630845_0 J_7479630836 J_7479630845 149.06 0.013 0 0
C_7479630845_7479630836_0 J_7479630845 J_7479630836 149.06 0.013 0 0
C_7479630846_7479630847_0 J_7479630846 J_7479630847 27.72 0.013 0 0
C_7479630851_7479630857_0 J_7479630851 J_7479630857 95.94 0.013 0 0
C_7479630857_13134720405_0 J_7479630857 J_13134720405 30.27 0.013 0 0
C_7479630857_7479630851_0 J_7479630857 J_7479630851 95.94 0.013 0 0
C_7479630857_9784652733_0 J_7479630857 J_9784652733 111.73 0.013 0 0
C_9784652733_7479630857_0 J_9784652733 J_7479630857 111.73 0.013 0 0
C_7479630860_7479630861_0 J_7479630860 J_7479630861 31.01 0.013 0 0
C_7479630866_7479630871_0 J_7479630866 J_7479630871 49.14 0.013 0 0
C_7479630871_7479630866_0 J_7479630871 J_7479630866 49.14 0.013 0 0
C_7479630871_7479630867_0 J_7479630871 J_7479630867 24.59 0.013 0 0
C_7479630871_7479630875_0 J_7479630871 J_7479630875 66.43 0.013 0 0
C_7479630868_7479630867_0 J_7479630868 J_7479630867 40.45 0.013 0 0
C_7479630875_7479630871_0 J_7479630875 J_7479630871 66.43 0.013 0 0
C_7479630878_7479630882_0 J_7479630878 J_7479630882 50.44 0.013 0 0
C_7479630883_7479630882_0 J_7479630883 J_7479630882 31.57 0.013 0 0
C_7479630901_7479630959_0 J_7479630901 J_7479630959 196.52 0.013 0 0
C_7479630959_7479630944_0 J_7479630959 J_7479630944 18.93 0.013 0 0
C_7479630959_7479630901_0 J_7479630959 J_7479630901 196.52 0.013 0 0
C_7479630959_12464922958_0 J_7479630959 J_12464922958 90.99 0.013 0 0
C_11434843380_7479630930_0 J_11434843380 J_7479630930 81.59 0.013 0 0
C_7479630941_7479630944_0 J_7479630941 J_7479630944 81.08 0.013 0 0
C_7479630944_7479630959_0 J_7479630944 J_7479630959 18.93 0.013 0 0
C_7479630944_7479630941_0 J_7479630944 J_7479630941 81.08 0.013 0 0
C_7479630944_7479630950_0 J_7479630944 J_7479630950 190.18 0.013 0 0
C_12464922958_7479630959_0 J_12464922958 J_7479630959 90.99 0.013 0 0
C_7479630985_7479631061_0 J_7479630985 J_7479631061 12.15 0.013 0 0
C_7479631021_7479631027_0 J_7479631021 J_7479631027 158.42 0.013 0 0
C_7479631030_7479631029_0 J_7479631030 J_7479631029 35.82 0.013 0 0
C_7479631047_7479631046_0 J_7479631047 J_7479631046 33.10 0.013 0 0
C_7479631049_12462722212_0 J_7479631049 J_12462722212 55.30 0.013 0 0
C_7479631125_7479631129_0 J_7479631125 J_7479631129 69.38 0.013 0 0
C_7479631135_12468537412_0 J_7479631135 J_12468537412 33.40 0.013 0 0
C_7479631135_7479631133_0 J_7479631135 J_7479631133 24.61 0.013 0 0
C_7479631135_7479631136_0 J_7479631135 J_7479631136 23.63 0.013 0 0
C_7479631134_7479631133_0 J_7479631134 J_7479631133 24.78 0.013 0 0
C_7479631136_7479631135_0 J_7479631136 J_7479631135 23.63 0.013 0 0
C_7479631147_7479631148_0 J_7479631147 J_7479631148 45.07 0.013 0 0
C_7479631152_7479631149_0 J_7479631152 J_7479631149 41.92 0.013 0 0
C_7479631169_7479631168_0 J_7479631169 J_7479631168 30.88 0.013 0 0
C_7479631180_7479631181_0 J_7479631180 J_7479631181 32.33 0.013 0 0
C_7479631187_7479631182_0 J_7479631187 J_7479631182 88.42 0.013 0 0
C_7479631192_7479631193_0 J_7479631192 J_7479631193 34.36 0.013 0 0
C_7479631213_7479631210_0 J_7479631213 J_7479631210 34.30 0.013 0 0
C_7479631444_10948126480_0 J_7479631444 J_10948126480 290.98 0.013 0 0
C_10948126480_10948126479_0 J_10948126480 J_10948126479 8.37 0.013 0 0
C_10948126480_6144095981_0 J_10948126480 J_6144095981 668.25 0.013 0 0
C_10948126480_7479631444_0 J_10948126480 J_7479631444 290.98 0.013 0 0
C_7479631471_7479631470_0 J_7479631471 J_7479631470 68.44 0.013 0 0
C_7479631476_7479631472_0 J_7479631476 J_7479631472 78.51 0.013 0 0
C_7484216047_7484216048_0 J_7484216047 J_7484216048 35.35 0.013 0 0
C_10182376309_7484216048_0 J_10182376309 J_7484216048 31.45 0.013 0 0
C_10182376309_10182376310_0 J_10182376309 J_10182376310 35.67 0.013 0 0
C_10182376309_7484216052_0 J_10182376309 J_7484216052 50.55 0.013 0 0
C_7484216051_7484216052_0 J_7484216051 J_7484216052 49.67 0.013 0 0
C_7484216052_7484216051_0 J_7484216052 J_7484216051 49.67 0.013 0 0
C_7484216052_10182376302_0 J_7484216052 J_10182376302 35.84 0.013 0 0
C_7484216052_10182376309_0 J_7484216052 J_10182376309 50.55 0.013 0 0
C_10182376302_10182376305_0 J_10182376302 J_10182376305 31.39 0.013 0 0
C_10182376302_7484216052_0 J_10182376302 J_7484216052 35.84 0.013 0 0
C_10182376302_10182376304_0 J_10182376302 J_10182376304 35.42 0.013 0 0
C_13130383417_7602632240_0 J_13130383417 J_7602632240 5.00 0.013 0 0
C_13130383417_9824051075_0 J_13130383417 J_9824051075 72.05 0.013 0 0
C_13130383417_13130383416_0 J_13130383417 J_13130383416 13.69 0.013 0 0
C_11009632658_8433749411_0 J_11009632658 J_8433749411 34.23 0.013 0 0
C_10196255890_8530739259_0 J_10196255890 J_8530739259 63.97 0.013 0 0
C_8609029843_11011650785_0 J_8609029843 J_11011650785 10.88 0.013 0 0
C_8609029843_10213547238_0 J_8609029843 J_10213547238 14.08 0.013 0 0
C_8609029843_12279397377_0 J_8609029843 J_12279397377 80.99 0.013 0 0
C_12279397377_12278137174_0 J_12279397377 J_12278137174 5.39 0.013 0 0
C_12279397377_8609029843_0 J_12279397377 J_8609029843 80.99 0.013 0 0
C_9179098226_9179098227_0 J_9179098226 J_9179098227 112.80 0.013 0 0
C_9510028747_11121177292_0 J_9510028747 J_11121177292 5.72 0.013 0 0
C_9510028747_10994453386_0 J_9510028747 J_10994453386 41.46 0.013 0 0
C_9510028747_9510028744_0 J_9510028747 J_9510028744 123.56 0.013 0 0
C_11121177292_9510028770_0 J_11121177292 J_9510028770 53.20 0.013 0 0
C_11121177292_9510028747_0 J_11121177292 J_9510028747 5.72 0.013 0 0
C_11121177292_11121177293_0 J_11121177292 J_11121177293 24.45 0.013 0 0
C_10994453386_9510028747_0 J_10994453386 J_9510028747 41.46 0.013 0 0
C_9510028770_11121177292_0 J_9510028770 J_11121177292 53.20 0.013 0 0
C_9525461684_9796082511_0 J_9525461684 J_9796082511 15.41 0.013 0 0
C_9708811991_9708811990_0 J_9708811991 J_9708811990 104.52 0.013 0 0
C_12147412806_9720271254_0 J_12147412806 J_9720271254 21.64 0.013 0 0
C_12169759724_9749202516_0 J_12169759724 J_9749202516 163.05 0.013 0 0
C_12169759724_12169759731_0 J_12169759724 J_12169759731 10.18 0.013 0 0
C_9757079870_9757079871_0 J_9757079870 J_9757079871 20.89 0.013 0 0
C_9757079872_9757079871_0 J_9757079872 J_9757079871 53.55 0.013 0 0
C_9757079872_13135583074_0 J_9757079872 J_13135583074 13.09 0.013 0 0
C_9757079872_13135583071_0 J_9757079872 J_13135583071 53.96 0.013 0 0
C_13135583074_12558535618_0 J_13135583074 J_12558535618 53.47 0.013 0 0
C_13135583074_9757079872_0 J_13135583074 J_9757079872 13.09 0.013 0 0
C_13135583074_13135583069_0 J_13135583074 J_13135583069 26.69 0.013 0 0
C_13135583071_9757079872_0 J_13135583071 J_9757079872 53.96 0.013 0 0
C_9759551602_9796082514_0 J_9759551602 J_9796082514 19.92 0.013 0 0
C_9759551602_12169759734_0 J_9759551602 J_12169759734 100.55 0.013 0 0
C_12169759734_12169759733_0 J_12169759734 J_12169759733 14.10 0.013 0 0
C_12169759734_10221211848_0 J_12169759734 J_10221211848 134.96 0.013 0 0
C_9784518333_9784518332_0 J_9784518333 J_9784518332 64.98 0.013 0 0
C_9784518334_9784518335_0 J_9784518334 J_9784518335 83.52 0.013 0 0
C_11434263478_9784518335_0 J_11434263478 J_9784518335 31.08 0.013 0 0
C_13343872440_9788419608_0 J_13343872440 J_9788419608 43.61 0.013 0 0
C_10168279044_9796082514_0 J_10168279044 J_9796082514 12.46 0.013 0 0
C_10168279044_10168279045_0 J_10168279044 J_10168279045 43.30 0.013 0 0
C_10168279044_9796082515_0 J_10168279044 J_9796082515 100.67 0.013 0 0
C_9796082515_10168279044_0 J_9796082515 J_10168279044 100.67 0.013 0 0
C_9796708050_1614318730_0 J_9796708050 J_1614318730 555.57 0.013 0 0
C_9824051075_13130383417_0 J_9824051075 J_13130383417 72.05 0.013 0 0
C_9824051075_7138066340_0 J_9824051075 J_7138066340 12.01 0.013 0 0
C_9824245043_11184918138_0 J_9824245043 J_11184918138 7.14 0.013 0 0
C_9824245043_9824245046_0 J_9824245043 J_9824245046 36.77 0.013 0 0
C_9824245043_9824245046_1 J_9824245043 J_9824245046 196.97 0.013 0 0
C_11184918138_9824245043_0 J_11184918138 J_9824245043 7.14 0.013 0 0
C_9826793285_9826793286_0 J_9826793285 J_9826793286 89.87 0.013 0 0
C_9826793285_10996944954_0 J_9826793285 J_10996944954 45.93 0.013 0 0
C_9826793285_10996655571_0 J_9826793285 J_10996655571 74.33 0.013 0 0
C_9826793286_9826793285_0 J_9826793286 J_9826793285 89.87 0.013 0 0
C_11233009356_307401420_0 J_11233009356 J_307401420 262.30 0.013 0 0
C_12506414300_6142233157_0 J_12506414300 J_6142233157 137.43 0.013 0 0
C_9846394217_11428038811_0 J_9846394217 J_11428038811 95.72 0.013 0 0
C_11428038811_11428038810_0 J_11428038811 J_11428038810 33.95 0.013 0 0
C_11428038811_9846394217_0 J_11428038811 J_9846394217 95.72 0.013 0 0
C_11428038811_11922878281_0 J_11428038811 J_11922878281 58.20 0.013 0 0
C_10969136196_10969136192_0 J_10969136196 J_10969136192 4.16 0.013 0 0
C_10969136196_695070306_0 J_10969136196 J_695070306 50.52 0.013 0 0
C_10969136194_10969136196_0 J_10969136194 J_10969136196 5.76 0.013 0 0
C_10969136194_9846394225_0 J_10969136194 J_9846394225 45.44 0.013 0 0
C_13877530781_13877530782_0 J_13877530781 J_13877530782 6.17 0.013 0 0
C_13877530781_12956054174_0 J_13877530781 J_12956054174 470.12 0.013 0 0
C_11509998741_11509998750_0 J_11509998741 J_11509998750 731.18 0.013 0 0
C_11509998741_13928938237_0 J_11509998741 J_13928938237 327.41 0.013 0 0
C_13903770309_13903770310_0 J_13903770309 J_13903770310 10.52 0.013 0 0
C_13903770309_11873774240_0 J_13903770309 J_11873774240 208.72 0.013 0 0
C_10172868165_10172868164_0 J_10172868165 J_10172868164 42.71 0.013 0 0
C_10172914467_10172914465_0 J_10172914467 J_10172914465 65.10 0.013 0 0
C_10172935937_10172935936_0 J_10172935937 J_10172935936 27.08 0.013 0 0
C_10172935939_10172935938_0 J_10172935939 J_10172935938 65.52 0.013 0 0
C_10172942119_10172942118_0 J_10172942119 J_10172942118 55.53 0.013 0 0
C_10172979378_10172979379_0 J_10172979378 J_10172979379 101.60 0.013 0 0
C_11359603296_10172979380_0 J_11359603296 J_10172979380 142.81 0.013 0 0
C_11432115299_10172979382_0 J_11432115299 J_10172979382 45.90 0.013 0 0
C_10172979412_10172979413_0 J_10172979412 J_10172979413 74.65 0.013 0 0
C_10172979415_10172979414_0 J_10172979415 J_10172979414 39.61 0.013 0 0
C_10172982422_10172982423_0 J_10172982422 J_10172982423 30.44 0.013 0 0
C_10173119094_10173119093_0 J_10173119094 J_10173119093 39.16 0.013 0 0
C_13140374056_10173119093_0 J_13140374056 J_10173119093 31.12 0.013 0 0
C_10173119096_10173119095_0 J_10173119096 J_10173119095 74.74 0.013 0 0
C_10175047394_10175047393_0 J_10175047394 J_10175047393 112.30 0.013 0 0
C_10175047396_10175047395_0 J_10175047396 J_10175047395 72.42 0.013 0 0
C_10182373816_10182373813_0 J_10182373816 J_10182373813 46.97 0.013 0 0
C_10182376305_10182376306_0 J_10182376305 J_10182376306 31.00 0.013 0 0
C_10182376305_10182376307_0 J_10182376305 J_10182376307 33.22 0.013 0 0
C_10182376305_10182376302_0 J_10182376305 J_10182376302 31.39 0.013 0 0
C_10182376304_10182376302_0 J_10182376304 J_10182376302 35.42 0.013 0 0
C_10182376306_10182376305_0 J_10182376306 J_10182376305 31.00 0.013 0 0
C_10182376308_10182376307_0 J_10182376308 J_10182376307 30.90 0.013 0 0
C_10182376310_10182376309_0 J_10182376310 J_10182376309 35.67 0.013 0 0
C_10182379412_12198988557_0 J_10182379412 J_12198988557 4.64 0.013 0 0
C_10182379412_12432886068_0 J_10182379412 J_12432886068 52.72 0.013 0 0
C_12198988557_12198988556_0 J_12198988557 J_12198988556 5.77 0.013 0 0
C_12432886068_11921590006_0 J_12432886068 J_11921590006 26.34 0.013 0 0
C_12432886068_12543439896_0 J_12432886068 J_12543439896 49.61 0.013 0 0
C_10182451858_10182451857_0 J_10182451858 J_10182451857 55.76 0.013 0 0
C_11290335534_10182729200_0 J_11290335534 J_10182729200 12.93 0.013 0 0
C_12651793611_10182729200_0 J_12651793611 J_10182729200 19.56 0.013 0 0
C_10221211848_12169759733_0 J_10221211848 J_12169759733 134.82 0.013 0 0
C_10221211848_12169759721_0 J_10221211848 J_12169759721 17.19 0.013 0 0
C_12169759733_12169759734_0 J_12169759733 J_12169759734 14.10 0.013 0 0
C_12169759733_9759551602_0 J_12169759733 J_9759551602 102.46 0.013 0 0
C_12169759721_12169759723_0 J_12169759721 J_12169759723 5.86 0.013 0 0
C_12169759721_10221211848_0 J_12169759721 J_10221211848 17.19 0.013 0 0
C_12169759721_12169759726_0 J_12169759721 J_12169759726 33.84 0.013 0 0
C_10948126479_10948126480_0 J_10948126479 J_10948126480 8.37 0.013 0 0
C_10948126479_12106511659_0 J_10948126479 J_12106511659 449.46 0.013 0 0
C_12106511659_10948126479_0 J_12106511659 J_10948126479 449.46 0.013 0 0
C_12106511659_13238937706_0 J_12106511659 J_13238937706 593.28 0.013 0 0
C_12106511659_12106511663_0 J_12106511659 J_12106511663 17.58 0.013 0 0
C_12144258015_10994097991_0 J_12144258015 J_10994097991 93.87 0.013 0 0
C_10994159749_10994159748_0 J_10994159749 J_10994159748 32.57 0.013 0 0
C_10994329192_10994329190_0 J_10994329192 J_10994329190 38.79 0.013 0 0
C_10994329200_10994329194_0 J_10994329200 J_10994329194 118.18 0.013 0 0
C_10994377348_10994377346_0 J_10994377348 J_10994377346 53.49 0.013 0 0
C_12443901195_10994386528_0 J_12443901195 J_10994386528 152.89 0.013 0 0
C_10994411032_10994402342_0 J_10994411032 J_10994402342 10.96 0.013 0 0
C_10994411032_10994411033_0 J_10994411032 J_10994411033 31.41 0.013 0 0
C_10994411032_10994402344_0 J_10994411032 J_10994402344 39.97 0.013 0 0
C_10994402343_10994402342_0 J_10994402343 J_10994402342 67.17 0.013 0 0
C_10994402344_10994402345_0 J_10994402344 J_10994402345 78.19 0.013 0 0
C_10994402344_10994411032_0 J_10994402344 J_10994411032 39.97 0.013 0 0
C_10994402344_12435660636_0 J_10994402344 J_12435660636 3.32 0.013 0 0
C_10994402345_10994402344_0 J_10994402345 J_10994402344 78.19 0.013 0 0
C_12435660636_12435660637_0 J_12435660636 J_12435660637 27.21 0.013 0 0
C_12435660636_10994402344_0 J_12435660636 J_10994402344 3.32 0.013 0 0
C_12435660636_13077693351_0 J_12435660636 J_13077693351 44.37 0.013 0 0
C_10994411033_10994411032_0 J_10994411033 J_10994411032 31.41 0.013 0 0
C_11017145233_10994470325_0 J_11017145233 J_10994470325 32.80 0.013 0 0
C_10996655572_10996655571_0 J_10996655572 J_10996655571 85.47 0.013 0 0
C_10996777703_10996777702_0 J_10996777703 J_10996777702 43.56 0.013 0 0
C_10996868635_10996868634_0 J_10996868635 J_10996868634 50.55 0.013 0 0
C_11034031540_11034031541_0 J_11034031540 J_11034031541 41.22 0.013 0 0
C_11034031540_10996869891_0 J_11034031540 J_10996869891 40.18 0.013 0 0
C_11034031540_10996868634_0 J_11034031540 J_10996868634 21.13 0.013 0 0
C_10996869891_11034031538_0 J_10996869891 J_11034031538 9.68 0.013 0 0
C_10996869891_11034031540_0 J_10996869891 J_11034031540 40.18 0.013 0 0
C_10996869891_10996869896_0 J_10996869891 J_10996869896 91.40 0.013 0 0
C_11034031538_10996869891_0 J_11034031538 J_10996869891 9.68 0.013 0 0
C_11034031538_11034031539_0 J_11034031538 J_11034031539 37.67 0.013 0 0
C_11034031538_11075395480_0 J_11034031538 J_11075395480 146.06 0.013 0 0
C_10996869896_10996869891_0 J_10996869896 J_10996869891 91.40 0.013 0 0
C_10996944953_10996944954_0 J_10996944953 J_10996944954 25.09 0.013 0 0
C_10996992471_10996992466_0 J_10996992471 J_10996992466 67.25 0.013 0 0
C_11002591560_11002591551_0 J_11002591560 J_11002591551 85.56 0.013 0 0
C_11002608085_11002608083_0 J_11002608085 J_11002608083 29.39 0.013 0 0
C_13347226823_13347226822_0 J_13347226823 J_13347226822 60.20 0.013 0 0
C_13347226823_11002608083_0 J_13347226823 J_11002608083 390.44 0.013 0 0
C_13347226823_13137760956_0 J_13347226823 J_13137760956 129.11 0.013 0 0
C_11009627053_11009627049_0 J_11009627053 J_11009627049 51.10 0.013 0 0
C_11009632657_11009632656_0 J_11009632657 J_11009632656 47.14 0.013 0 0
C_11011674943_6749735684_0 J_11011674943 J_6749735684 21.93 0.013 0 0
C_11011971396_11011971395_0 J_11011971396 J_11011971395 29.87 0.013 0 0
C_11025131193_9824051075_0 J_11025131193 J_9824051075 16.55 0.013 0 0
C_11034031539_11034031538_0 J_11034031539 J_11034031538 37.67 0.013 0 0
C_11034031541_11034031540_0 J_11034031541 J_11034031540 41.22 0.013 0 0
C_11075395481_11075395480_0 J_11075395481 J_11075395480 74.29 0.013 0 0
C_11121177293_11121177292_0 J_11121177293 J_11121177292 24.45 0.013 0 0
C_12151494704_5773497557_0 J_12151494704 J_5773497557 87.24 0.013 0 0
C_12151494704_12151458578_0 J_12151494704 J_12151458578 12.44 0.013 0 0
C_11220661004_11220661003_0 J_11220661004 J_11220661003 11.90 0.013 0 0
C_11220661004_3500405745_0 J_11220661004 J_3500405745 165.90 0.013 0 0
C_11233009357_11233009356_0 J_11233009357 J_11233009356 18.68 0.013 0 0
C_11233009357_9828540923_0 J_11233009357 J_9828540923 15.43 0.013 0 0
C_11260020609_11260020610_0 J_11260020609 J_11260020610 24.37 0.013 0 0
C_11260020609_5398408451_0 J_11260020609 J_5398408451 134.54 0.013 0 0
C_11260020610_11955031767_0 J_11260020610 J_11955031767 60.32 0.013 0 0
C_11955031767_5398408451_0 J_11955031767 J_5398408451 55.22 0.013 0 0
C_11955031767_2406966810_0 J_11955031767 J_2406966810 99.04 0.013 0 0
C_11395511434_12655271583_0 J_11395511434 J_12655271583 10.33 0.013 0 0
C_11397517841_11397517840_0 J_11397517841 J_11397517840 16.99 0.013 0 0
C_11408964579_11408964580_0 J_11408964579 J_11408964580 69.85 0.013 0 0
C_11408964580_11408964584_0 J_11408964580 J_11408964584 6.66 0.013 0 0
C_11408964580_11408964581_0 J_11408964580 J_11408964581 41.82 0.013 0 0
C_11408964580_11408964579_0 J_11408964580 J_11408964579 69.85 0.013 0 0
C_11408964584_11408964580_0 J_11408964584 J_11408964580 6.66 0.013 0 0
C_11408964584_11408964582_0 J_11408964584 J_11408964582 7.41 0.013 0 0
C_11408964584_11408964589_0 J_11408964584 J_11408964589 22.10 0.013 0 0
C_11408964581_11408964580_0 J_11408964581 J_11408964580 41.82 0.013 0 0
C_11408964583_11408964582_0 J_11408964583 J_11408964582 43.19 0.013 0 0
C_11408964589_11408964590_0 J_11408964589 J_11408964590 2.31 0.013 0 0
C_11408964589_11408964584_0 J_11408964589 J_11408964584 22.10 0.013 0 0
C_11408964589_11408964588_0 J_11408964589 J_11408964588 38.62 0.013 0 0
C_11408964585_11408964587_0 J_11408964585 J_11408964587 9.18 0.013 0 0
C_11408964587_11408964585_0 J_11408964587 J_11408964585 9.18 0.013 0 0
C_11408964587_11408964590_0 J_11408964587 J_11408964590 16.23 0.013 0 0
C_11408964587_11408964586_0 J_11408964587 J_11408964586 36.81 0.013 0 0
C_11408964586_11408964587_0 J_11408964586 J_11408964587 36.81 0.013 0 0
C_11408964590_11408964587_0 J_11408964590 J_11408964587 16.23 0.013 0 0
C_11408964590_11408964589_0 J_11408964590 J_11408964589 2.31 0.013 0 0
C_11408964590_11408964591_0 J_11408964590 J_11408964591 11.34 0.013 0 0
C_11408964588_11408964589_0 J_11408964588 J_11408964589 38.62 0.013 0 0
C_11408964591_11408964590_0 J_11408964591 J_11408964590 11.34 0.013 0 0
C_11414694996_10168257533_0 J_11414694996 J_10168257533 11.31 0.013 0 0
C_11414759654_10182379412_0 J_11414759654 J_10182379412 5.95 0.013 0 0
C_11428038810_11428038811_0 J_11428038810 J_11428038811 33.95 0.013 0 0
C_11428038812_11428038813_0 J_11428038812 J_11428038813 12.67 0.013 0 0
C_11428038812_11428038814_0 J_11428038812 J_11428038814 142.45 0.013 0 0
C_11428038814_11922878283_0 J_11428038814 J_11922878283 206.93 0.013 0 0
C_11428038815_11428038814_0 J_11428038815 J_11428038814 20.84 0.013 0 0
C_11428038815_12060861662_0 J_11428038815 J_12060861662 517.34 0.013 0 0
C_11922878283_1321535551_0 J_11922878283 J_1321535551 5.15 0.013 0 0
C_11922878283_11922878281_0 J_11922878283 J_11922878281 35.44 0.013 0 0
C_12060861662_12060861661_0 J_12060861662 J_12060861661 12.91 0.013 0 0
C_12060861662_11260020609_0 J_12060861662 J_11260020609 896.84 0.013 0 0
C_11428038817_11428038816_0 J_11428038817 J_11428038816 11.37 0.013 0 0
C_11428038817_2412953615_0 J_11428038817 J_2412953615 156.25 0.013 0 0
C_11433644720_11433644719_0 J_11433644720 J_11433644719 70.70 0.013 0 0
C_11433644721_11433644719_0 J_11433644721 J_11433644719 154.46 0.013 0 0
C_12477867929_11434263476_0 J_12477867929 J_11434263476 74.12 0.013 0 0
C_13928938237_5370756307_0 J_13928938237 J_5370756307 20.23 0.013 0 0
C_13928938237_13928938241_0 J_13928938237 J_13928938241 39.75 0.013 0 0
C_11703595135_6894177760_0 J_11703595135 J_6894177760 5.55 0.013 0 0
C_11873774240_12157177352_0 J_11873774240 J_12157177352 10.58 0.013 0 0
C_11873774240_1319974914_0 J_11873774240 J_1319974914 447.55 0.013 0 0
C_12157177352_11873774240_0 J_12157177352 J_11873774240 10.58 0.013 0 0
C_12157177352_1319974913_0 J_12157177352 J_1319974913 446.12 0.013 0 0
C_11921590006_12462993523_0 J_11921590006 J_12462993523 5.86 0.013 0 0
C_11921590006_1383248309_0 J_11921590006 J_1383248309 73.16 0.013 0 0
C_12169759722_12169759731_0 J_12169759722 J_12169759731 6.02 0.013 0 0
C_12169759722_12169759724_0 J_12169759722 J_12169759724 11.95 0.013 0 0
C_12137575005_5776756946_0 J_12137575005 J_5776756946 60.31 0.013 0 0
C_13757868548_12059211981_0 J_13757868548 J_12059211981 94.17 0.013 0 0
C_12060861592_1645178612_0 J_12060861592 J_1645178612 15.32 0.013 0 0
C_12100338251_12100338250_0 J_12100338251 J_12100338250 59.09 0.013 0 0
C_12106511663_12106511659_0 J_12106511663 J_12106511659 17.58 0.013 0 0
C_12144258013_12144258014_0 J_12144258013 J_12144258014 29.44 0.013 0 0
C_12145839288_12145839287_0 J_12145839288 J_12145839287 43.05 0.013 0 0
C_12147412805_12147412804_0 J_12147412805 J_12147412804 22.15 0.013 0 0
C_12169759723_12169759722_0 J_12169759723 J_12169759722 9.11 0.013 0 0
C_12169759723_1300454732_0 J_12169759723 J_1300454732 654.63 0.013 0 0
C_12169759726_12963900368_0 J_12169759726 J_12963900368 310.28 0.013 0 0
C_12169759726_12169759723_0 J_12169759726 J_12169759723 33.31 0.013 0 0
C_12169759731_12169759721_0 J_12169759731 J_12169759721 9.14 0.013 0 0
C_12963900368_12446863535_0 J_12963900368 J_12446863535 37.94 0.013 0 0
C_12963900368_12169759726_0 J_12963900368 J_12169759726 310.28 0.013 0 0
C_12963900368_12963900366_0 J_12963900368 J_12963900366 190.58 0.013 0 0
C_12176161390_13743331082_0 J_12176161390 J_13743331082 26.60 0.013 0 0
C_12176161390_13743331082_1 J_12176161390 J_13743331082 29.06 0.013 0 0
C_12176161390_12176161387_0 J_12176161390 J_12176161387 41.63 0.013 0 0
C_13743331082_12176161400_0 J_13743331082 J_12176161400 21.35 0.013 0 0
C_13743331082_12176161390_0 J_13743331082 J_12176161390 26.60 0.013 0 0
C_13743331082_12176161390_1 J_13743331082 J_12176161390 29.06 0.013 0 0
C_12176161400_13743331082_0 J_12176161400 J_13743331082 21.35 0.013 0 0
C_12187854997_5930945945_0 J_12187854997 J_5930945945 45.62 0.013 0 0
C_12198988556_11414759654_0 J_12198988556 J_11414759654 4.90 0.013 0 0
C_12198988556_11921590003_0 J_12198988556 J_11921590003 113.24 0.013 0 0
C_12250445350_12250445349_0 J_12250445350 J_12250445349 64.92 0.013 0 0
C_12278137174_12319493407_0 J_12278137174 J_12319493407 18.73 0.013 0 0
C_12278137174_12279397378_0 J_12278137174 J_12279397378 12.69 0.013 0 0
C_12543439896_12432886068_0 J_12543439896 J_12432886068 49.61 0.013 0 0
C_12435660637_12435660636_0 J_12435660637 J_12435660636 27.21 0.013 0 0
C_12443097982_12443097983_0 J_12443097982 J_12443097983 38.06 0.013 0 0
C_12443097985_12443097987_0 J_12443097985 J_12443097987 33.13 0.013 0 0
C_12443097985_12443097983_0 J_12443097985 J_12443097983 36.20 0.013 0 0
C_12443097985_12443097984_0 J_12443097985 J_12443097984 37.69 0.013 0 0
C_12443097984_12443097985_0 J_12443097984 J_12443097985 37.69 0.013 0 0
C_12443097987_12443097988_0 J_12443097987 J_12443097988 30.92 0.013 0 0
C_12443097987_12443097985_0 J_12443097987 J_12443097985 33.13 0.013 0 0
C_12443097987_12443097986_0 J_12443097987 J_12443097986 37.79 0.013 0 0
C_12443097986_12443097987_0 J_12443097986 J_12443097987 37.79 0.013 0 0
C_12443097989_12443097988_0 J_12443097989 J_12443097988 38.13 0.013 0 0
C_12446863536_12446863535_0 J_12446863536 J_12446863535 117.58 0.013 0 0
C_12468537408_12468537412_0 J_12468537408 J_12468537412 39.89 0.013 0 0
C_12655271582_12655271583_0 J_12655271582 J_12655271583 37.51 0.013 0 0
C_12963900366_12963900368_0 J_12963900366 J_12963900368 190.58 0.013 0 0
C_12997741438_13877530782_0 J_12997741438 J_13877530782 461.79 0.013 0 0
C_13877530782_5370756309_0 J_13877530782 J_5370756309 377.17 0.013 0 0
C_13077693352_13077693351_0 J_13077693352 J_13077693351 69.73 0.013 0 0
C_13130383419_13130383417_0 J_13130383419 J_13130383417 129.10 0.013 0 0
C_13134720404_13134720405_0 J_13134720404 J_13134720405 31.64 0.013 0 0
C_13134720442_13134720443_0 J_13134720442 J_13134720443 40.10 0.013 0 0
C_13135583069_13135583074_0 J_13135583069 J_13135583074 26.69 0.013 0 0
C_13136176381_13136176386_0 J_13136176381 J_13136176386 211.50 0.013 0 0
C_13137760928_13137760931_0 J_13137760928 J_13137760931 10.68 0.013 0 0
C_13137760928_13137760931_1 J_13137760928 J_13137760931 59.19 0.013 0 0
C_13137760956_13347226823_0 J_13137760956 J_13347226823 129.11 0.013 0 0
C_13140521147_13140521149_0 J_13140521147 J_13140521149 29.60 0.013 0 0
C_13142028562_13142028560_0 J_13142028562 J_13142028560 12.93 0.013 0 0
C_13142028597_13142028598_0 J_13142028597 J_13142028598 32.82 0.013 0 0
C_13238937707_13238937706_0 J_13238937707 J_13238937706 23.40 0.013 0 0
C_13347226822_13347226823_0 J_13347226822 J_13347226823 60.20 0.013 0 0
C_13736562871_13736567789_0 J_13736562871 J_13736567789 72.91 0.013 0 0
C_13736567810_13736567811_0 J_13736567810 J_13736567811 62.68 0.013 0 0
C_13738231244_13738231243_0 J_13738231244 J_13738231243 56.83 0.013 0 0
C_13743331025_13743331026_0 J_13743331025 J_13743331026 48.64 0.013 0 0
C_13743331043_13743331044_0 J_13743331043 J_13743331044 28.77 0.013 0 0
C_13875979598_13875979600_0 J_13875979598 J_13875979600 43.24 0.013 0 0
C_outfall J_2206930263 Outfall_1 10.00 0.013 0 0

[XSECTIONS]
;;Link Shape Geom1 Geom2 Geom3 Geom4 Barrels
C_260908311_10721527309_0 RECT_OPEN 1.0 1.5 0 0 1
C_260908311_4472266108_0 RECT_OPEN 1.0 1.5 0 0 1
C_10721527309_260908311_0 RECT_OPEN 1.0 1.5 0 0 1
C_4472266108_4472266103_0 RECT_OPEN 1.0 1.5 0 0 1
C_4472266108_8403844097_0 RECT_OPEN 1.0 1.5 0 0 1
C_262268684_266371138_0 RECT_OPEN 1.0 1.5 0 0 1
C_262268684_9828511707_0 RECT_OPEN 1.0 1.5 0 0 1
C_262268684_3870651477_0 RECT_OPEN 1.0 1.5 0 0 1
C_266371138_1644166489_0 RECT_OPEN 1.0 1.5 0 0 1
C_9828511707_262268684_0 RECT_OPEN 1.0 1.5 0 0 1
C_9828511707_5774293614_0 RECT_OPEN 1.0 1.5 0 0 1
C_3870651477_3870651479_0 RECT_OPEN 1.0 1.5 0 0 1
C_3870651477_262268684_0 RECT_OPEN 1.0 1.5 0 0 1
C_3870651477_3870651478_0 RECT_OPEN 1.0 1.5 0 0 1
C_262268685_7298619223_0 RECT_OPEN 1.0 1.5 0 0 1
C_262268685_349027597_0 RECT_OPEN 1.0 1.5 0 0 1
C_262268685_3870651479_0 RECT_OPEN 1.0 1.5 0 0 1
C_262268685_3149622374_0 RECT_OPEN 1.0 1.5 0 0 1
C_7298619223_262268685_0 RECT_OPEN 1.0 1.5 0 0 1
C_7298619223_1305577009_0 RECT_OPEN 1.0 1.5 0 0 1
C_349027597_262268685_0 RECT_OPEN 1.0 1.5 0 0 1
C_349027597_590698291_0 RECT_OPEN 1.0 1.5 0 0 1
C_349027597_3715148292_0 RECT_OPEN 1.0 1.5 0 0 1
C_3870651479_3870651477_0 RECT_OPEN 1.0 1.5 0 0 1
C_3870651479_262268685_0 RECT_OPEN 1.0 1.5 0 0 1
C_3870651479_3870651480_0 RECT_OPEN 1.0 1.5 0 0 1
C_3149622374_262459524_0 RECT_OPEN 1.0 1.5 0 0 1
C_3149622374_262459524_1 RECT_OPEN 1.0 1.5 0 0 1
C_3149622374_262268685_0 RECT_OPEN 1.0 1.5 0 0 1
C_262459524_3149622374_0 RECT_OPEN 1.0 1.5 0 0 1
C_262459524_3149622374_1 RECT_OPEN 1.0 1.5 0 0 1
C_262459524_13144006534_0 RECT_OPEN 1.0 1.5 0 0 1
C_262459524_262459526_0 RECT_OPEN 1.0 1.5 0 0 1
C_13144006534_262459524_0 RECT_OPEN 1.0 1.5 0 0 1
C_13144006534_11378886517_0 RECT_OPEN 1.0 1.5 0 0 1
C_13144006534_3149619842_0 RECT_OPEN 1.0 1.5 0 0 1
C_262459526_12655271583_0 RECT_OPEN 1.0 1.5 0 0 1
C_262459526_3149619842_0 RECT_OPEN 1.0 1.5 0 0 1
C_262459526_262459527_0 RECT_OPEN 1.0 1.5 0 0 1
C_262459526_262459524_0 RECT_OPEN 1.0 1.5 0 0 1
C_12655271583_11395511434_0 RECT_OPEN 1.0 1.5 0 0 1
C_12655271583_262459526_0 RECT_OPEN 1.0 1.5 0 0 1
C_12655271583_12655271582_0 RECT_OPEN 1.0 1.5 0 0 1
C_3149619842_3149619841_0 RECT_OPEN 1.0 1.5 0 0 1
C_3149619842_262459526_0 RECT_OPEN 1.0 1.5 0 0 1
C_3149619842_13144006534_0 RECT_OPEN 1.0 1.5 0 0 1
C_262459527_262459526_0 RECT_OPEN 1.0 1.5 0 0 1
C_264129270_12183845711_0 RECT_OPEN 1.0 1.5 0 0 1
C_12183845711_5774292417_0 RECT_OPEN 1.0 1.5 0 0 1
C_264129289_264141527_0 RECT_OPEN 1.0 1.5 0 0 1
C_264129289_9179098227_0 RECT_OPEN 1.0 1.5 0 0 1
C_264129289_3141425534_0 RECT_OPEN 1.0 1.5 0 0 1
C_264141527_3141425542_0 RECT_OPEN 1.0 1.5 0 0 1
C_264141527_264129289_0 RECT_OPEN 1.0 1.5 0 0 1
C_264141527_3161309799_0 RECT_OPEN 1.0 1.5 0 0 1
C_9179098227_7298619209_0 RECT_OPEN 1.0 1.5 0 0 1
C_9179098227_9179098226_0 RECT_OPEN 1.0 1.5 0 0 1
C_9179098227_264129289_0 RECT_OPEN 1.0 1.5 0 0 1
C_3141425534_3141425537_0 RECT_OPEN 1.0 1.5 0 0 1
C_3141425534_264129289_0 RECT_OPEN 1.0 1.5 0 0 1
C_3141425534_1083495045_0 RECT_OPEN 1.0 1.5 0 0 1
C_264129319_264147890_0 RECT_OPEN 1.0 1.5 0 0 1
C_264129319_5724583886_0 RECT_OPEN 1.0 1.5 0 0 1
C_264129319_5930997555_0 RECT_OPEN 1.0 1.5 0 0 1
C_264147890_264129319_0 RECT_OPEN 1.0 1.5 0 0 1
C_5724583886_264129319_0 RECT_OPEN 1.0 1.5 0 0 1
C_5724583886_9958736551_0 RECT_OPEN 1.0 1.5 0 0 1
C_5724583886_10175047395_0 RECT_OPEN 1.0 1.5 0 0 1
C_5930997555_10175064193_0 RECT_OPEN 1.0 1.5 0 0 1
C_5930997555_264129319_0 RECT_OPEN 1.0 1.5 0 0 1
C_5930997555_7298619209_0 RECT_OPEN 1.0 1.5 0 0 1
C_3141425542_3141425540_0 RECT_OPEN 1.0 1.5 0 0 1
C_3141425542_264141527_0 RECT_OPEN 1.0 1.5 0 0 1
C_3141425542_3141425543_0 RECT_OPEN 1.0 1.5 0 0 1
C_3161309799_3161309801_0 RECT_OPEN 1.0 1.5 0 0 1
C_3161309799_3141425538_0 RECT_OPEN 1.0 1.5 0 0 1
C_3161309799_264141527_0 RECT_OPEN 1.0 1.5 0 0 1
C_264189089_3149619847_0 RECT_OPEN 1.0 1.5 0 0 1
C_264189089_3149619851_0 RECT_OPEN 1.0 1.5 0 0 1
C_264189089_3149619853_0 RECT_OPEN 1.0 1.5 0 0 1
C_264189089_6536271335_0 RECT_OPEN 1.0 1.5 0 0 1
C_3149619847_264189089_0 RECT_OPEN 1.0 1.5 0 0 1
C_3149619847_3149619839_0 RECT_OPEN 1.0 1.5 0 0 1
C_3149619847_13140521075_0 RECT_OPEN 1.0 1.5 0 0 1
C_3149619851_264189089_0 RECT_OPEN 1.0 1.5 0 0 1
C_3149619851_3149619854_0 RECT_OPEN 1.0 1.5 0 0 1
C_3149619851_1083500529_0 RECT_OPEN 1.0 1.5 0 0 1
C_3149619851_3149619850_0 RECT_OPEN 1.0 1.5 0 0 1
C_3149619853_3149619837_0 RECT_OPEN 1.0 1.5 0 0 1
C_3149619853_264189089_0 RECT_OPEN 1.0 1.5 0 0 1
C_3149619853_3149619854_0 RECT_OPEN 1.0 1.5 0 0 1
C_6536271335_1083500529_0 RECT_OPEN 1.0 1.5 0 0 1
C_6536271335_264189089_0 RECT_OPEN 1.0 1.5 0 0 1
C_264845660_13135627938_0 RECT_OPEN 1.0 1.5 0 0 1
C_264845660_2389701677_0 RECT_OPEN 1.0 1.5 0 0 1
C_13135627938_10172979413_0 RECT_OPEN 1.0 1.5 0 0 1
C_13135627938_264845660_0 RECT_OPEN 1.0 1.5 0 0 1
C_13135627938_12558535618_0 RECT_OPEN 1.0 1.5 0 0 1
C_2389701677_3157670226_0 RECT_OPEN 1.0 1.5 0 0 1
C_2389701677_574762980_0 RECT_OPEN 1.0 1.5 0 0 1
C_264845710_3148667904_0 RECT_OPEN 1.0 1.5 0 0 1
C_264845710_3148667896_0 RECT_OPEN 1.0 1.5 0 0 1
C_264845710_9859790834_0 RECT_OPEN 1.0 1.5 0 0 1
C_3148667904_264845710_0 RECT_OPEN 1.0 1.5 0 0 1
C_3148667904_3148668037_0 RECT_OPEN 1.0 1.5 0 0 1
C_3148667904_3148667908_0 RECT_OPEN 1.0 1.5 0 0 1
C_3148667896_264845710_0 RECT_OPEN 1.0 1.5 0 0 1
C_3148667896_10172979414_0 RECT_OPEN 1.0 1.5 0 0 1
C_3148667896_6204951065_0 RECT_OPEN 1.0 1.5 0 0 1
C_9859790834_264845710_0 RECT_OPEN 1.0 1.5 0 0 1
C_264845740_1315048083_0 RECT_OPEN 1.0 1.5 0 0 1
C_264845740_3872540688_0 RECT_OPEN 1.0 1.5 0 0 1
C_264845740_3872540686_0 RECT_OPEN 1.0 1.5 0 0 1
C_1315048083_264845740_0 RECT_OPEN 1.0 1.5 0 0 1
C_1315048083_2387579012_0 RECT_OPEN 1.0 1.5 0 0 1
C_1315048083_1315048075_0 RECT_OPEN 1.0 1.5 0 0 1
C_3872540688_3872533486_0 RECT_OPEN 1.0 1.5 0 0 1
C_3872540688_3872533485_0 RECT_OPEN 1.0 1.5 0 0 1
C_3872540688_3872540689_0 RECT_OPEN 1.0 1.5 0 0 1
C_3872540688_264845740_0 RECT_OPEN 1.0 1.5 0 0 1
C_3872540686_3872540684_0 RECT_OPEN 1.0 1.5 0 0 1
C_3872540686_3872533485_0 RECT_OPEN 1.0 1.5 0 0 1
C_3872540686_264845740_0 RECT_OPEN 1.0 1.5 0 0 1
C_264845751_3872533488_0 RECT_OPEN 1.0 1.5 0 0 1
C_264845751_3872533478_0 RECT_OPEN 1.0 1.5 0 0 1
C_264845751_2206930282_0 RECT_OPEN 1.0 1.5 0 0 1
C_3872533488_264845751_0 RECT_OPEN 1.0 1.5 0 0 1
C_3872533488_3872533482_0 RECT_OPEN 1.0 1.5 0 0 1
C_3872533488_11404841379_0 RECT_OPEN 1.0 1.5 0 0 1
C_3872533478_264845751_0 RECT_OPEN 1.0 1.5 0 0 1
C_3872533478_3872533474_0 RECT_OPEN 1.0 1.5 0 0 1
C_3872533478_3872533476_0 RECT_OPEN 1.0 1.5 0 0 1
C_2206930282_10172979379_0 RECT_OPEN 1.0 1.5 0 0 1
C_2206930282_264845751_0 RECT_OPEN 1.0 1.5 0 0 1
C_2206930282_2206930284_0 RECT_OPEN 1.0 1.5 0 0 1
C_1644166489_11527430411_0 RECT_OPEN 1.0 1.5 0 0 1
C_1644166489_11070754935_0 RECT_OPEN 1.0 1.5 0 0 1
C_267210547_267210550_0 RECT_OPEN 1.0 1.5 0 0 1
C_267210547_7147115841_0 RECT_OPEN 1.0 1.5 0 0 1
C_267210547_7147115841_1 RECT_OPEN 1.0 1.5 0 0 1
C_267210550_2099691667_0 RECT_OPEN 1.0 1.5 0 0 1
C_267210550_5919853090_0 RECT_OPEN 1.0 1.5 0 0 1
C_267210550_267210547_0 RECT_OPEN 1.0 1.5 0 0 1
C_7147115841_267210547_0 RECT_OPEN 1.0 1.5 0 0 1
C_7147115841_267210547_1 RECT_OPEN 1.0 1.5 0 0 1
C_7147115841_2099691601_0 RECT_OPEN 1.0 1.5 0 0 1
C_2099691667_267210550_0 RECT_OPEN 1.0 1.5 0 0 1
C_2099691667_11011674941_0 RECT_OPEN 1.0 1.5 0 0 1
C_5919853090_7147053364_0 RECT_OPEN 1.0 1.5 0 0 1
C_5919853090_7301790590_0 RECT_OPEN 1.0 1.5 0 0 1
C_5919853090_267210550_0 RECT_OPEN 1.0 1.5 0 0 1
C_267215656_13075849008_0 RECT_OPEN 1.0 1.5 0 0 1
C_267215656_3148580198_0 RECT_OPEN 1.0 1.5 0 0 1
C_267215656_2206930283_0 RECT_OPEN 1.0 1.5 0 0 1
C_13075849008_267215656_0 RECT_OPEN 1.0 1.5 0 0 1
C_3148580198_267215656_0 RECT_OPEN 1.0 1.5 0 0 1
C_3148580198_2206930293_0 RECT_OPEN 1.0 1.5 0 0 1
C_3148580198_7465559430_0 RECT_OPEN 1.0 1.5 0 0 1
C_2206930283_267215656_0 RECT_OPEN 1.0 1.5 0 0 1
C_274569246_12176161387_0 RECT_OPEN 1.0 1.5 0 0 1
C_274569246_274569296_0 RECT_OPEN 1.0 1.5 0 0 1
C_274569246_3141473152_0 RECT_OPEN 1.0 1.5 0 0 1
C_12176161387_274569246_0 RECT_OPEN 1.0 1.5 0 0 1
C_12176161387_7328379157_0 RECT_OPEN 1.0 1.5 0 0 1
C_12176161387_12176161390_0 RECT_OPEN 1.0 1.5 0 0 1
C_274569296_7328379155_0 RECT_OPEN 1.0 1.5 0 0 1
C_274569296_274569309_0 RECT_OPEN 1.0 1.5 0 0 1
C_274569296_274569246_0 RECT_OPEN 1.0 1.5 0 0 1
C_3141473152_3504895273_0 RECT_OPEN 1.0 1.5 0 0 1
C_3141473152_1186777956_0 RECT_OPEN 1.0 1.5 0 0 1
C_3141473152_274569246_0 RECT_OPEN 1.0 1.5 0 0 1
C_7328379155_274569296_0 RECT_OPEN 1.0 1.5 0 0 1
C_7328379155_7328379156_0 RECT_OPEN 1.0 1.5 0 0 1
C_7328379155_9849585566_0 RECT_OPEN 1.0 1.5 0 0 1
C_274569309_274570242_0 RECT_OPEN 1.0 1.5 0 0 1
C_274569309_274569296_0 RECT_OPEN 1.0 1.5 0 0 1
C_274569309_7328379172_0 RECT_OPEN 1.0 1.5 0 0 1
C_274570242_274569309_0 RECT_OPEN 1.0 1.5 0 0 1
C_274570242_3170006930_0 RECT_OPEN 1.0 1.5 0 0 1
C_274570242_11563497460_0 RECT_OPEN 1.0 1.5 0 0 1
C_7328379172_274569309_0 RECT_OPEN 1.0 1.5 0 0 1
C_274569328_7328379173_0 RECT_OPEN 1.0 1.5 0 0 1
C_274569328_3141473132_0 RECT_OPEN 1.0 1.5 0 0 1
C_274569328_3141472722_0 RECT_OPEN 1.0 1.5 0 0 1
C_7328379173_11563497460_0 RECT_OPEN 1.0 1.5 0 0 1
C_7328379173_274569328_0 RECT_OPEN 1.0 1.5 0 0 1
C_7328379173_3170006931_0 RECT_OPEN 1.0 1.5 0 0 1
C_3141473132_3141473133_0 RECT_OPEN 1.0 1.5 0 0 1
C_3141473132_274569328_0 RECT_OPEN 1.0 1.5 0 0 1
C_3141473132_3141473135_0 RECT_OPEN 1.0 1.5 0 0 1
C_3141472722_13742285040_0 RECT_OPEN 1.0 1.5 0 0 1
C_3141472722_3141452102_0 RECT_OPEN 1.0 1.5 0 0 1
C_3141472722_274569328_0 RECT_OPEN 1.0 1.5 0 0 1
C_274569348_3141473140_0 RECT_OPEN 1.0 1.5 0 0 1
C_274569348_3141473150_0 RECT_OPEN 1.0 1.5 0 0 1
C_274569348_3141473145_0 RECT_OPEN 1.0 1.5 0 0 1
C_3141473140_3141473138_0 RECT_OPEN 1.0 1.5 0 0 1
C_3141473140_274569348_0 RECT_OPEN 1.0 1.5 0 0 1
C_3141473140_6505328002_0 RECT_OPEN 1.0 1.5 0 0 1
C_3141473150_3141473151_0 RECT_OPEN 1.0 1.5 0 0 1
C_3141473150_274569348_0 RECT_OPEN 1.0 1.5 0 0 1
C_3141473150_3141473146_0 RECT_OPEN 1.0 1.5 0 0 1
C_3141473145_6505328002_0 RECT_OPEN 1.0 1.5 0 0 1
C_3141473145_274569348_0 RECT_OPEN 1.0 1.5 0 0 1
C_3141473145_3141473149_0 RECT_OPEN 1.0 1.5 0 0 1
C_3170006930_3170006931_0 RECT_OPEN 1.0 1.5 0 0 1
C_3170006930_274570242_0 RECT_OPEN 1.0 1.5 0 0 1
C_3170006930_4447421339_0 RECT_OPEN 1.0 1.5 0 0 1
C_11563497460_7328379173_0 RECT_OPEN 1.0 1.5 0 0 1
C_11563497460_274569309_0 RECT_OPEN 1.0 1.5 0 0 1
C_274570292_1387622103_0 RECT_OPEN 1.0 1.5 0 0 1
C_274570292_4824673767_0 RECT_OPEN 1.0 1.5 0 0 1
C_274570292_7328379200_0 RECT_OPEN 1.0 1.5 0 0 1
C_1387622103_3141475567_0 RECT_OPEN 1.0 1.5 0 0 1
C_1387622103_274570292_0 RECT_OPEN 1.0 1.5 0 0 1
C_1387622103_4824673767_0 RECT_OPEN 1.0 1.5 0 0 1
C_4824673767_4447421339_0 RECT_OPEN 1.0 1.5 0 0 1
C_4824673767_274570292_0 RECT_OPEN 1.0 1.5 0 0 1
C_4824673767_1387622103_0 RECT_OPEN 1.0 1.5 0 0 1
C_7328379200_7328379201_0 RECT_OPEN 1.0 1.5 0 0 1
C_7328379200_3778310159_0 RECT_OPEN 1.0 1.5 0 0 1
C_7328379200_274570292_0 RECT_OPEN 1.0 1.5 0 0 1
C_274576719_4475150582_0 RECT_OPEN 1.0 1.5 0 0 1
C_274576719_2268546167_0 RECT_OPEN 1.0 1.5 0 0 1
C_4475150582_1387622086_0 RECT_OPEN 1.0 1.5 0 0 1
C_4475150582_2268546156_0 RECT_OPEN 1.0 1.5 0 0 1
C_4475150582_274576719_0 RECT_OPEN 1.0 1.5 0 0 1
C_2268546167_10725368291_0 RECT_OPEN 1.0 1.5 0 0 1
C_2268546167_274576719_0 RECT_OPEN 1.0 1.5 0 0 1
C_2268546167_2268546166_0 RECT_OPEN 1.0 1.5 0 0 1
C_292565231_7479630325_0 RECT_OPEN 1.0 1.5 0 0 1
C_292565231_7479630930_0 RECT_OPEN 1.0 1.5 0 0 1
C_292565231_7479630950_0 RECT_OPEN 1.0 1.5 0 0 1
C_7479630325_292565231_0 RECT_OPEN 1.0 1.5 0 0 1
C_7479630325_7479630324_0 RECT_OPEN 1.0 1.5 0 0 1
C_7479630930_11434843380_0 RECT_OPEN 1.0 1.5 0 0 1
C_7479630930_7479630320_0 RECT_OPEN 1.0 1.5 0 0 1
C_7479630930_292565231_0 RECT_OPEN 1.0 1.5 0 0 1
C_7479630950_292565231_0 RECT_OPEN 1.0 1.5 0 0 1
C_7479630950_7437296682_0 RECT_OPEN 1.0 1.5 0 0 1
C_7479630950_7479630944_0 RECT_OPEN 1.0 1.5 0 0 1
C_292565243_7478154729_0 RECT_OPEN 1.0 1.5 0 0 1
C_292565243_7478154719_0 RECT_OPEN 1.0 1.5 0 0 1
C_292565243_7479630320_0 RECT_OPEN 1.0 1.5 0 0 1
C_7478154729_292565243_0 RECT_OPEN 1.0 1.5 0 0 1
C_7478154729_12447971611_0 RECT_OPEN 1.0 1.5 0 0 1
C_7478154729_1914928013_0 RECT_OPEN 1.0 1.5 0 0 1
C_7478154729_7478154725_0 RECT_OPEN 1.0 1.5 0 0 1
C_7478154719_7478154731_0 RECT_OPEN 1.0 1.5 0 0 1
C_7478154719_292565243_0 RECT_OPEN 1.0 1.5 0 0 1
C_7479630320_7479630319_0 RECT_OPEN 1.0 1.5 0 0 1
C_7479630320_7479630930_0 RECT_OPEN 1.0 1.5 0 0 1
C_7479630320_292565243_0 RECT_OPEN 1.0 1.5 0 0 1
C_293709519_2034648224_0 RECT_OPEN 1.0 1.5 0 0 1
C_293709519_3771990524_0 RECT_OPEN 1.0 1.5 0 0 1
C_293709519_2268546111_0 RECT_OPEN 1.0 1.5 0 0 1
C_2034648224_293709519_0 RECT_OPEN 1.0 1.5 0 0 1
C_2034648224_7328379076_0 RECT_OPEN 1.0 1.5 0 0 1
C_2034648224_2034648233_0 RECT_OPEN 1.0 1.5 0 0 1
C_3771990524_3771990522_0 RECT_OPEN 1.0 1.5 0 0 1
C_3771990524_293709519_0 RECT_OPEN 1.0 1.5 0 0 1
C_3771990524_3771990535_0 RECT_OPEN 1.0 1.5 0 0 1
C_2268546111_2268546121_0 RECT_OPEN 1.0 1.5 0 0 1
C_2268546111_2034648234_0 RECT_OPEN 1.0 1.5 0 0 1
C_2268546111_293709519_0 RECT_OPEN 1.0 1.5 0 0 1
C_293709525_3771990505_0 RECT_OPEN 1.0 1.5 0 0 1
C_293709525_7328379022_0 RECT_OPEN 1.0 1.5 0 0 1
C_293709525_7328379067_0 RECT_OPEN 1.0 1.5 0 0 1
C_3771990505_293709525_0 RECT_OPEN 1.0 1.5 0 0 1
C_3771990505_2180904962_0 RECT_OPEN 1.0 1.5 0 0 1
C_3771990505_3771990469_0 RECT_OPEN 1.0 1.5 0 0 1
C_7328379022_293709525_0 RECT_OPEN 1.0 1.5 0 0 1
C_7328379067_293709525_0 RECT_OPEN 1.0 1.5 0 0 1
C_7328379067_6144032627_0 RECT_OPEN 1.0 1.5 0 0 1
C_7328379067_7328379058_0 RECT_OPEN 1.0 1.5 0 0 1
C_302499540_6197379428_0 RECT_OPEN 1.0 1.5 0 0 1
C_302499540_1748486107_0 RECT_OPEN 1.0 1.5 0 0 1
C_302499540_5778474214_0 RECT_OPEN 1.0 1.5 0 0 1
C_6197379428_302499540_0 RECT_OPEN 1.0 1.5 0 0 1
C_6197379428_1132734424_0 RECT_OPEN 1.0 1.5 0 0 1
C_6197379428_7263153521_0 RECT_OPEN 1.0 1.5 0 0 1
C_1748486107_13144414990_0 RECT_OPEN 1.0 1.5 0 0 1
C_1748486107_1305577009_0 RECT_OPEN 1.0 1.5 0 0 1
C_1748486107_302499540_0 RECT_OPEN 1.0 1.5 0 0 1
C_5778474214_302499540_0 RECT_OPEN 1.0 1.5 0 0 1
C_307401420_429781973_0 RECT_OPEN 1.0 1.5 0 0 1
C_307401420_11070754936_0 RECT_OPEN 1.0 1.5 0 0 1
C_429781973_3150107472_0 RECT_OPEN 1.0 1.5 0 0 1
C_429781973_3150107471_0 RECT_OPEN 1.0 1.5 0 0 1
C_429781973_307401420_0 RECT_OPEN 1.0 1.5 0 0 1
C_11070754936_11070754935_0 RECT_OPEN 1.0 1.5 0 0 1
C_11070754936_9830778271_0 RECT_OPEN 1.0 1.5 0 0 1
C_590698291_349027597_0 RECT_OPEN 1.0 1.5 0 0 1
C_590698291_11527430411_0 RECT_OPEN 1.0 1.5 0 0 1
C_590698291_13137760931_0 RECT_OPEN 1.0 1.5 0 0 1
C_3715148292_11234065453_0 RECT_OPEN 1.0 1.5 0 0 1
C_3715148292_349027597_0 RECT_OPEN 1.0 1.5 0 0 1
C_3715148292_3715148285_0 RECT_OPEN 1.0 1.5 0 0 1
C_429780762_429780764_0 RECT_OPEN 1.0 1.5 0 0 1
C_429780762_590698298_0 RECT_OPEN 1.0 1.5 0 0 1
C_429780762_9828540923_0 RECT_OPEN 1.0 1.5 0 0 1
C_429780764_590698311_0 RECT_OPEN 1.0 1.5 0 0 1
C_429780764_429780762_0 RECT_OPEN 1.0 1.5 0 0 1
C_429780764_590698302_0 RECT_OPEN 1.0 1.5 0 0 1
C_590698298_590698311_0 RECT_OPEN 1.0 1.5 0 0 1
C_590698298_3558431203_0 RECT_OPEN 1.0 1.5 0 0 1
C_590698298_429780762_0 RECT_OPEN 1.0 1.5 0 0 1
C_9828540923_429780762_0 RECT_OPEN 1.0 1.5 0 0 1
C_9828540923_11233009356_0 RECT_OPEN 1.0 1.5 0 0 1
C_590698311_2483733242_0 RECT_OPEN 1.0 1.5 0 0 1
C_590698311_429780764_0 RECT_OPEN 1.0 1.5 0 0 1
C_590698311_590698298_0 RECT_OPEN 1.0 1.5 0 0 1
C_590698302_590698318_0 RECT_OPEN 1.0 1.5 0 0 1
C_590698302_1305577019_0 RECT_OPEN 1.0 1.5 0 0 1
C_590698302_429780764_0 RECT_OPEN 1.0 1.5 0 0 1
C_429781781_590698314_0 RECT_OPEN 1.0 1.5 0 0 1
C_429781781_2483733242_0 RECT_OPEN 1.0 1.5 0 0 1
C_429781781_590698312_0 RECT_OPEN 1.0 1.5 0 0 1
C_590698314_429781782_0 RECT_OPEN 1.0 1.5 0 0 1
C_590698314_429781781_0 RECT_OPEN 1.0 1.5 0 0 1
C_590698314_590698313_0 RECT_OPEN 1.0 1.5 0 0 1
C_2483733242_429781781_0 RECT_OPEN 1.0 1.5 0 0 1
C_2483733242_590698311_0 RECT_OPEN 1.0 1.5 0 0 1
C_2483733242_590698300_0 RECT_OPEN 1.0 1.5 0 0 1
C_590698312_590698296_0 RECT_OPEN 1.0 1.5 0 0 1
C_590698312_429781781_0 RECT_OPEN 1.0 1.5 0 0 1
C_590698312_590698300_0 RECT_OPEN 1.0 1.5 0 0 1
C_429781782_650076942_0 RECT_OPEN 1.0 1.5 0 0 1
C_429781782_650076942_1 RECT_OPEN 1.0 1.5 0 0 1
C_429781782_590698314_0 RECT_OPEN 1.0 1.5 0 0 1
C_429781782_3150107472_0 RECT_OPEN 1.0 1.5 0 0 1
C_650076942_429781782_0 RECT_OPEN 1.0 1.5 0 0 1
C_650076942_429781782_1 RECT_OPEN 1.0 1.5 0 0 1
C_650076942_1558259250_0 RECT_OPEN 1.0 1.5 0 0 1
C_650076942_1693112084_0 RECT_OPEN 1.0 1.5 0 0 1
C_3150107472_429781782_0 RECT_OPEN 1.0 1.5 0 0 1
C_3150107472_429781973_0 RECT_OPEN 1.0 1.5 0 0 1
C_3150107472_3150107475_0 RECT_OPEN 1.0 1.5 0 0 1
C_3150107471_429781973_0 RECT_OPEN 1.0 1.5 0 0 1
C_429783956_12059211981_0 RECT_OPEN 1.0 1.5 0 0 1
C_429783956_5930945945_0 RECT_OPEN 1.0 1.5 0 0 1
C_429783956_429783966_0 RECT_OPEN 1.0 1.5 0 0 1
C_12059211981_429783956_0 RECT_OPEN 1.0 1.5 0 0 1
C_12059211981_3778310159_0 RECT_OPEN 1.0 1.5 0 0 1
C_12059211981_13757868548_0 RECT_OPEN 1.0 1.5 0 0 1
C_5930945945_429783956_0 RECT_OPEN 1.0 1.5 0 0 1
C_5930945945_12187854996_0 RECT_OPEN 1.0 1.5 0 0 1
C_429783966_1694231991_0 RECT_OPEN 1.0 1.5 0 0 1
C_429783966_961816867_0 RECT_OPEN 1.0 1.5 0 0 1
C_429783966_429783956_0 RECT_OPEN 1.0 1.5 0 0 1
C_1694231991_2446054167_0 RECT_OPEN 1.0 1.5 0 0 1
C_1694231991_1694231590_0 RECT_OPEN 1.0 1.5 0 0 1
C_961816867_1694231590_0 RECT_OPEN 1.0 1.5 0 0 1
C_961816867_10994329194_0 RECT_OPEN 1.0 1.5 0 0 1
C_961816867_429783966_0 RECT_OPEN 1.0 1.5 0 0 1
C_515736998_11891216393_0 RECT_OPEN 1.0 1.5 0 0 1
C_11891216393_6631012279_0 RECT_OPEN 1.0 1.5 0 0 1
C_11891216393_9796708050_0 RECT_OPEN 1.0 1.5 0 0 1
C_574762971_574762980_0 RECT_OPEN 1.0 1.5 0 0 1
C_574762980_574762971_0 RECT_OPEN 1.0 1.5 0 0 1
C_574762980_12279397378_0 RECT_OPEN 1.0 1.5 0 0 1
C_574762980_12319493407_0 RECT_OPEN 1.0 1.5 0 0 1
C_574762976_10175047393_0 RECT_OPEN 1.0 1.5 0 0 1
C_574762976_574762978_0 RECT_OPEN 1.0 1.5 0 0 1
C_574762976_10213547236_0 RECT_OPEN 1.0 1.5 0 0 1
C_10175047393_574763005_0 RECT_OPEN 1.0 1.5 0 0 1
C_10175047393_574762976_0 RECT_OPEN 1.0 1.5 0 0 1
C_10175047393_10175047394_0 RECT_OPEN 1.0 1.5 0 0 1
C_574762978_574762976_0 RECT_OPEN 1.0 1.5 0 0 1
C_10213547236_4734151709_0 RECT_OPEN 1.0 1.5 0 0 1
C_10213547236_10213547238_0 RECT_OPEN 1.0 1.5 0 0 1
C_10213547236_574762976_0 RECT_OPEN 1.0 1.5 0 0 1
C_12279397378_260908311_0 RECT_OPEN 1.0 1.5 0 0 1
C_12279397378_12278137174_0 RECT_OPEN 1.0 1.5 0 0 1
C_12319493407_2099691630_0 RECT_OPEN 1.0 1.5 0 0 1
C_12319493407_574762980_0 RECT_OPEN 1.0 1.5 0 0 1
C_574762987_2099691681_0 RECT_OPEN 1.0 1.5 0 0 1
C_574762987_11399565982_0 RECT_OPEN 1.0 1.5 0 0 1
C_574762987_11011994983_0 RECT_OPEN 1.0 1.5 0 0 1
C_2099691681_574762987_0 RECT_OPEN 1.0 1.5 0 0 1
C_2099691681_10172914465_0 RECT_OPEN 1.0 1.5 0 0 1
C_11399565982_574762987_0 RECT_OPEN 1.0 1.5 0 0 1
C_11011994983_574762987_0 RECT_OPEN 1.0 1.5 0 0 1
C_574763005_10175047393_0 RECT_OPEN 1.0 1.5 0 0 1
C_574763005_11075395480_0 RECT_OPEN 1.0 1.5 0 0 1
C_574763005_13816840517_0 RECT_OPEN 1.0 1.5 0 0 1
C_11075395480_11075395481_0 RECT_OPEN 1.0 1.5 0 0 1
C_11075395480_574763005_0 RECT_OPEN 1.0 1.5 0 0 1
C_11075395480_11034031538_0 RECT_OPEN 1.0 1.5 0 0 1
C_13816840517_574763005_0 RECT_OPEN 1.0 1.5 0 0 1
C_574763010_6180297958_0 RECT_OPEN 1.0 1.5 0 0 1
C_574763010_3504349796_0 RECT_OPEN 1.0 1.5 0 0 1
C_574763010_10996723268_0 RECT_OPEN 1.0 1.5 0 0 1
C_6180297958_10996868634_0 RECT_OPEN 1.0 1.5 0 0 1
C_6180297958_574763010_0 RECT_OPEN 1.0 1.5 0 0 1
C_6180297958_10996777702_0 RECT_OPEN 1.0 1.5 0 0 1
C_3504349796_574763010_0 RECT_OPEN 1.0 1.5 0 0 1
C_3504349796_6758558444_0 RECT_OPEN 1.0 1.5 0 0 1
C_3504349796_3504349795_0 RECT_OPEN 1.0 1.5 0 0 1
C_10996723268_574763010_0 RECT_OPEN 1.0 1.5 0 0 1
C_11527430411_590698291_0 RECT_OPEN 1.0 1.5 0 0 1
C_11527430411_11233009357_0 RECT_OPEN 1.0 1.5 0 0 1
C_13137760931_13137760928_0 RECT_OPEN 1.0 1.5 0 0 1
C_13137760931_590698291_0 RECT_OPEN 1.0 1.5 0 0 1
C_590698294_3558431203_0 RECT_OPEN 1.0 1.5 0 0 1
C_3558431203_590698298_0 RECT_OPEN 1.0 1.5 0 0 1
C_3558431203_590698300_0 RECT_OPEN 1.0 1.5 0 0 1
C_3558431203_590698294_0 RECT_OPEN 1.0 1.5 0 0 1
C_590698296_590698312_0 RECT_OPEN 1.0 1.5 0 0 1
C_590698300_3558431203_0 RECT_OPEN 1.0 1.5 0 0 1
C_590698300_590698312_0 RECT_OPEN 1.0 1.5 0 0 1
C_590698300_2483733242_0 RECT_OPEN 1.0 1.5 0 0 1
C_590698318_590698328_0 RECT_OPEN 1.0 1.5 0 0 1
C_590698318_3170496474_0 RECT_OPEN 1.0 1.5 0 0 1
C_590698318_590698302_0 RECT_OPEN 1.0 1.5 0 0 1
C_1305577019_11234065193_0 RECT_OPEN 1.0 1.5 0 0 1
C_1305577019_590698302_0 RECT_OPEN 1.0 1.5 0 0 1
C_1305577019_6168052376_0 RECT_OPEN 1.0 1.5 0 0 1
C_590698313_590698314_0 RECT_OPEN 1.0 1.5 0 0 1
C_590698313_590698328_0 RECT_OPEN 1.0 1.5 0 0 1
C_590698313_7265834831_0 RECT_OPEN 1.0 1.5 0 0 1
C_590698328_590698313_0 RECT_OPEN 1.0 1.5 0 0 1
C_590698328_590698330_0 RECT_OPEN 1.0 1.5 0 0 1
C_590698328_590698318_0 RECT_OPEN 1.0 1.5 0 0 1
C_7265834831_590698313_0 RECT_OPEN 1.0 1.5 0 0 1
C_3170496474_590698318_0 RECT_OPEN 1.0 1.5 0 0 1
C_3170496474_4447382437_0 RECT_OPEN 1.0 1.5 0 0 1
C_3170496474_3170496477_0 RECT_OPEN 1.0 1.5 0 0 1
C_590698330_590698328_0 RECT_OPEN 1.0 1.5 0 0 1
C_1558259250_650076942_0 RECT_OPEN 1.0 1.5 0 0 1
C_1693112084_650076942_0 RECT_OPEN 1.0 1.5 0 0 1
C_1693112084_7147103496_0 RECT_OPEN 1.0 1.5 0 0 1
C_1693112084_11078308794_0 RECT_OPEN 1.0 1.5 0 0 1
C_695070306_10969136192_0 RECT_OPEN 1.0 1.5 0 0 1
C_695070306_2113348452_0 RECT_OPEN 1.0 1.5 0 0 1
C_10969136192_9846394228_0 RECT_OPEN 1.0 1.5 0 0 1
C_10969136192_9846394226_0 RECT_OPEN 1.0 1.5 0 0 1
C_2113348452_695070306_0 RECT_OPEN 1.0 1.5 0 0 1
C_2113348452_6749666079_0 RECT_OPEN 1.0 1.5 0 0 1
C_695070314_3148655277_0 RECT_OPEN 1.0 1.5 0 0 1
C_695070314_4915966850_0 RECT_OPEN 1.0 1.5 0 0 1
C_695070314_3148655275_0 RECT_OPEN 1.0 1.5 0 0 1
C_3148655277_695070314_0 RECT_OPEN 1.0 1.5 0 0 1
C_3148655277_3148655275_0 RECT_OPEN 1.0 1.5 0 0 1
C_3148655277_1383248254_0 RECT_OPEN 1.0 1.5 0 0 1
C_3148655277_9720271254_0 RECT_OPEN 1.0 1.5 0 0 1
C_4915966850_695070314_0 RECT_OPEN 1.0 1.5 0 0 1
C_4915966850_12185693394_0 RECT_OPEN 1.0 1.5 0 0 1
C_4915966850_9921271169_0 RECT_OPEN 1.0 1.5 0 0 1
C_3148655275_7479631210_0 RECT_OPEN 1.0 1.5 0 0 1
C_3148655275_3148655277_0 RECT_OPEN 1.0 1.5 0 0 1
C_3148655275_695070314_0 RECT_OPEN 1.0 1.5 0 0 1
C_695070403_3148656438_0 RECT_OPEN 1.0 1.5 0 0 1
C_695070403_7479631129_0 RECT_OPEN 1.0 1.5 0 0 1
C_695070403_12468537412_0 RECT_OPEN 1.0 1.5 0 0 1
C_3148656438_695070403_0 RECT_OPEN 1.0 1.5 0 0 1
C_3148656438_3148656434_0 RECT_OPEN 1.0 1.5 0 0 1
C_3148656438_3148656440_0 RECT_OPEN 1.0 1.5 0 0 1
C_7479631129_695070406_0 RECT_OPEN 1.0 1.5 0 0 1
C_7479631129_695070403_0 RECT_OPEN 1.0 1.5 0 0 1
C_7479631129_7479631125_0 RECT_OPEN 1.0 1.5 0 0 1
C_12468537412_7479631135_0 RECT_OPEN 1.0 1.5 0 0 1
C_12468537412_695070403_0 RECT_OPEN 1.0 1.5 0 0 1
C_12468537412_12468537408_0 RECT_OPEN 1.0 1.5 0 0 1
C_695070406_13077693351_0 RECT_OPEN 1.0 1.5 0 0 1
C_695070406_7479631129_0 RECT_OPEN 1.0 1.5 0 0 1
C_695070406_6802224021_0 RECT_OPEN 1.0 1.5 0 0 1
C_13077693351_13077693352_0 RECT_OPEN 1.0 1.5 0 0 1
C_13077693351_12435660636_0 RECT_OPEN 1.0 1.5 0 0 1
C_13077693351_695070406_0 RECT_OPEN 1.0 1.5 0 0 1
C_6802224021_6802224014_0 RECT_OPEN 1.0 1.5 0 0 1
C_6802224021_6802224015_0 RECT_OPEN 1.0 1.5 0 0 1
C_6802224021_695070406_0 RECT_OPEN 1.0 1.5 0 0 1
C_695070408_3148656447_0 RECT_OPEN 1.0 1.5 0 0 1
C_695070408_7147949887_0 RECT_OPEN 1.0 1.5 0 0 1
C_695070408_13875979600_0 RECT_OPEN 1.0 1.5 0 0 1
C_3148656447_695070408_0 RECT_OPEN 1.0 1.5 0 0 1
C_3148656447_3148656451_0 RECT_OPEN 1.0 1.5 0 0 1
C_3148656447_10994386529_0 RECT_OPEN 1.0 1.5 0 0 1
C_7147949887_7147986885_0 RECT_OPEN 1.0 1.5 0 0 1
C_7147949887_7147986187_0 RECT_OPEN 1.0 1.5 0 0 1
C_7147949887_695070408_0 RECT_OPEN 1.0 1.5 0 0 1
C_13875979600_818634499_0 RECT_OPEN 1.0 1.5 0 0 1
C_13875979600_695070408_0 RECT_OPEN 1.0 1.5 0 0 1
C_13875979600_13875979598_0 RECT_OPEN 1.0 1.5 0 0 1
C_695079385_7328099146_0 RECT_OPEN 1.0 1.5 0 0 1
C_695079385_10182468120_0 RECT_OPEN 1.0 1.5 0 0 1
C_7328099146_695079385_0 RECT_OPEN 1.0 1.5 0 0 1
C_7328099146_1817170898_0 RECT_OPEN 1.0 1.5 0 0 1
C_7328099146_7328099142_0 RECT_OPEN 1.0 1.5 0 0 1
C_10182468120_6197671075_0 RECT_OPEN 1.0 1.5 0 0 1
C_10182468120_6141748418_0 RECT_OPEN 1.0 1.5 0 0 1
C_818630839_1387622149_0 RECT_OPEN 1.0 1.5 0 0 1
C_818630839_3148609358_0 RECT_OPEN 1.0 1.5 0 0 1
C_818630839_11182448718_0 RECT_OPEN 1.0 1.5 0 0 1
C_1387622149_818630839_0 RECT_OPEN 1.0 1.5 0 0 1
C_1387622149_13064841548_0 RECT_OPEN 1.0 1.5 0 0 1
C_3148609358_844403663_0 RECT_OPEN 1.0 1.5 0 0 1
C_3148609358_818630839_0 RECT_OPEN 1.0 1.5 0 0 1
C_3148609358_6536473134_0 RECT_OPEN 1.0 1.5 0 0 1
C_11182448718_3141475567_0 RECT_OPEN 1.0 1.5 0 0 1
C_11182448718_1387622149_0 RECT_OPEN 1.0 1.5 0 0 1
C_818634499_13875979600_0 RECT_OPEN 1.0 1.5 0 0 1
C_818634499_818634502_0 RECT_OPEN 1.0 1.5 0 0 1
C_818634502_827145938_0 RECT_OPEN 1.0 1.5 0 0 1
C_818634502_3148633513_0 RECT_OPEN 1.0 1.5 0 0 1
C_827145938_13875979449_0 RECT_OPEN 1.0 1.5 0 0 1
C_827145938_13875979449_1 RECT_OPEN 1.0 1.5 0 0 1
C_3148633513_5370756307_0 RECT_OPEN 1.0 1.5 0 0 1
C_3148633513_13928938241_0 RECT_OPEN 1.0 1.5 0 0 1
C_818634513_3170006921_0 RECT_OPEN 1.0 1.5 0 0 1
C_818634513_929965958_0 RECT_OPEN 1.0 1.5 0 0 1
C_818634513_10996944954_0 RECT_OPEN 1.0 1.5 0 0 1
C_3170006921_818634513_0 RECT_OPEN 1.0 1.5 0 0 1
C_3170006921_12506414299_0 RECT_OPEN 1.0 1.5 0 0 1
C_3170006921_9830778271_0 RECT_OPEN 1.0 1.5 0 0 1
C_3170006921_10147078393_0 RECT_OPEN 1.0 1.5 0 0 1
C_929965958_956058174_0 RECT_OPEN 1.0 1.5 0 0 1
C_929965958_3157684368_0 RECT_OPEN 1.0 1.5 0 0 1
C_10996944954_10996944953_0 RECT_OPEN 1.0 1.5 0 0 1
C_10996944954_9826793285_0 RECT_OPEN 1.0 1.5 0 0 1
C_10996944954_818634513_0 RECT_OPEN 1.0 1.5 0 0 1
C_825408102_7479630561_0 RECT_OPEN 1.0 1.5 0 0 1
C_825408102_956077413_0 RECT_OPEN 1.0 1.5 0 0 1
C_7479630561_825408102_0 RECT_OPEN 1.0 1.5 0 0 1
C_7479630561_6914358616_0 RECT_OPEN 1.0 1.5 0 0 1
C_956077413_7479631029_0 RECT_OPEN 1.0 1.5 0 0 1
C_956077413_7479631046_0 RECT_OPEN 1.0 1.5 0 0 1
C_956077413_825408102_0 RECT_OPEN 1.0 1.5 0 0 1
C_13875979449_10948126479_0 RECT_OPEN 1.0 1.5 0 0 1
C_844403663_6536884399_0 RECT_OPEN 1.0 1.5 0 0 1
C_844403663_3148609358_0 RECT_OPEN 1.0 1.5 0 0 1
C_844403663_6141753929_0 RECT_OPEN 1.0 1.5 0 0 1
C_6536884399_10994377346_0 RECT_OPEN 1.0 1.5 0 0 1
C_6536884399_6536884398_0 RECT_OPEN 1.0 1.5 0 0 1
C_6536884399_844403663_0 RECT_OPEN 1.0 1.5 0 0 1
C_6141753929_10994377647_0 RECT_OPEN 1.0 1.5 0 0 1
C_6141753929_844403663_0 RECT_OPEN 1.0 1.5 0 0 1
C_6141753929_6141753927_0 RECT_OPEN 1.0 1.5 0 0 1
C_956058174_929965968_0 RECT_OPEN 1.0 1.5 0 0 1
C_956058174_956058186_0 RECT_OPEN 1.0 1.5 0 0 1
C_956058174_929965958_0 RECT_OPEN 1.0 1.5 0 0 1
C_3157684368_13903770310_0 RECT_OPEN 1.0 1.5 0 0 1
C_3157684368_3157684367_0 RECT_OPEN 1.0 1.5 0 0 1
C_929965968_956058174_0 RECT_OPEN 1.0 1.5 0 0 1
C_929965968_2349412314_0 RECT_OPEN 1.0 1.5 0 0 1
C_929965968_10996638660_0 RECT_OPEN 1.0 1.5 0 0 1
C_2349412314_929965968_0 RECT_OPEN 1.0 1.5 0 0 1
C_10996638660_929965968_0 RECT_OPEN 1.0 1.5 0 0 1
C_929965972_956058186_0 RECT_OPEN 1.0 1.5 0 0 1
C_929965972_929965977_0 RECT_OPEN 1.0 1.5 0 0 1
C_929965972_929965973_0 RECT_OPEN 1.0 1.5 0 0 1
C_956058186_956058174_0 RECT_OPEN 1.0 1.5 0 0 1
C_956058186_3157684367_0 RECT_OPEN 1.0 1.5 0 0 1
C_956058186_929965972_0 RECT_OPEN 1.0 1.5 0 0 1
C_929965977_929965972_0 RECT_OPEN 1.0 1.5 0 0 1
C_929965973_1390345459_0 RECT_OPEN 1.0 1.5 0 0 1
C_929965973_929965972_0 RECT_OPEN 1.0 1.5 0 0 1
C_929965973_7301790590_0 RECT_OPEN 1.0 1.5 0 0 1
C_1390345459_929965973_0 RECT_OPEN 1.0 1.5 0 0 1
C_1390345459_3504349795_0 RECT_OPEN 1.0 1.5 0 0 1
C_1390345459_5777299715_0 RECT_OPEN 1.0 1.5 0 0 1
C_7301790590_7301790589_0 RECT_OPEN 1.0 1.5 0 0 1
C_7301790590_929965973_0 RECT_OPEN 1.0 1.5 0 0 1
C_7301790590_5919853090_0 RECT_OPEN 1.0 1.5 0 0 1
C_3157684367_956058186_0 RECT_OPEN 1.0 1.5 0 0 1
C_3157684367_2414360817_0 RECT_OPEN 1.0 1.5 0 0 1
C_3157684367_3157684368_0 RECT_OPEN 1.0 1.5 0 0 1
C_7479631029_7479631030_0 RECT_OPEN 1.0 1.5 0 0 1
C_7479631029_956077413_0 RECT_OPEN 1.0 1.5 0 0 1
C_7479631029_7479631031_0 RECT_OPEN 1.0 1.5 0 0 1
C_7479631046_7479631047_0 RECT_OPEN 1.0 1.5 0 0 1
C_7479631046_956077413_0 RECT_OPEN 1.0 1.5 0 0 1
C_7479631046_6914358626_0 RECT_OPEN 1.0 1.5 0 0 1
C_1694231590_961816867_0 RECT_OPEN 1.0 1.5 0 0 1
C_1694231590_11428038816_0 RECT_OPEN 1.0 1.5 0 0 1
C_10994329194_9510028744_0 RECT_OPEN 1.0 1.5 0 0 1
C_10994329194_961816867_0 RECT_OPEN 1.0 1.5 0 0 1
C_10994329194_10994329200_0 RECT_OPEN 1.0 1.5 0 0 1
C_1067315124_3161309802_0 RECT_OPEN 1.0 1.5 0 0 1
C_1067315124_12272816024_0 RECT_OPEN 1.0 1.5 0 0 1
C_1067315124_11185418653_0 RECT_OPEN 1.0 1.5 0 0 1
C_3161309802_3161309801_0 RECT_OPEN 1.0 1.5 0 0 1
C_3161309802_1067315124_0 RECT_OPEN 1.0 1.5 0 0 1
C_3161309802_1083495045_0 RECT_OPEN 1.0 1.5 0 0 1
C_12272816024_1067315124_0 RECT_OPEN 1.0 1.5 0 0 1
C_11185418653_1067315124_0 RECT_OPEN 1.0 1.5 0 0 1
C_1083495045_3141425534_0 RECT_OPEN 1.0 1.5 0 0 1
C_1083495045_2387290813_0 RECT_OPEN 1.0 1.5 0 0 1
C_1083495045_3161309802_0 RECT_OPEN 1.0 1.5 0 0 1
C_2387290813_3141425530_0 RECT_OPEN 1.0 1.5 0 0 1
C_2387290813_1083495045_0 RECT_OPEN 1.0 1.5 0 0 1
C_2387290813_5776756946_0 RECT_OPEN 1.0 1.5 0 0 1
C_1083500526_3149622352_0 RECT_OPEN 1.0 1.5 0 0 1
C_1083500526_2387123504_0 RECT_OPEN 1.0 1.5 0 0 1
C_3149622352_3149622362_0 RECT_OPEN 1.0 1.5 0 0 1
C_3149622352_1083500526_0 RECT_OPEN 1.0 1.5 0 0 1
C_3149622352_3149622354_0 RECT_OPEN 1.0 1.5 0 0 1
C_2387123504_3803663193_0 RECT_OPEN 1.0 1.5 0 0 1
C_2387123504_262268684_0 RECT_OPEN 1.0 1.5 0 0 1
C_1083500529_3149619851_0 RECT_OPEN 1.0 1.5 0 0 1
C_1083500529_1083500526_0 RECT_OPEN 1.0 1.5 0 0 1
C_1132734424_6197379428_0 RECT_OPEN 1.0 1.5 0 0 1
C_1186777885_7263153533_0 RECT_OPEN 1.0 1.5 0 0 1
C_1186777885_12649685464_0 RECT_OPEN 1.0 1.5 0 0 1
C_1186777885_11002591551_0 RECT_OPEN 1.0 1.5 0 0 1
C_7263153533_7328379151_0 RECT_OPEN 1.0 1.5 0 0 1
C_7263153533_1186777885_0 RECT_OPEN 1.0 1.5 0 0 1
C_7263153533_7263153527_0 RECT_OPEN 1.0 1.5 0 0 1
C_12649685464_1186777885_0 RECT_OPEN 1.0 1.5 0 0 1
C_11002591551_1186777885_0 RECT_OPEN 1.0 1.5 0 0 1
C_11002591551_3170496477_0 RECT_OPEN 1.0 1.5 0 0 1
C_11002591551_11002591560_0 RECT_OPEN 1.0 1.5 0 0 1
C_1186777924_4447404413_0 RECT_OPEN 1.0 1.5 0 0 1
C_1186777924_1186777952_0 RECT_OPEN 1.0 1.5 0 0 1
C_1186777924_7328379151_0 RECT_OPEN 1.0 1.5 0 0 1
C_4447404413_1186777924_0 RECT_OPEN 1.0 1.5 0 0 1
C_1186777952_1186777966_0 RECT_OPEN 1.0 1.5 0 0 1
C_1186777952_1186777924_0 RECT_OPEN 1.0 1.5 0 0 1
C_1186777952_6195813805_0 RECT_OPEN 1.0 1.5 0 0 1
C_7328379151_7263153533_0 RECT_OPEN 1.0 1.5 0 0 1
C_7328379151_1186777924_0 RECT_OPEN 1.0 1.5 0 0 1
C_7328379151_7328379154_0 RECT_OPEN 1.0 1.5 0 0 1
C_1186777966_1186777956_0 RECT_OPEN 1.0 1.5 0 0 1
C_1186777966_13743331044_0 RECT_OPEN 1.0 1.5 0 0 1
C_1186777966_1186777952_0 RECT_OPEN 1.0 1.5 0 0 1
C_6195813805_3141473155_0 RECT_OPEN 1.0 1.5 0 0 1
C_6195813805_6180293490_0 RECT_OPEN 1.0 1.5 0 0 1
C_6195813805_1186777952_0 RECT_OPEN 1.0 1.5 0 0 1
C_1186777956_1186777966_0 RECT_OPEN 1.0 1.5 0 0 1
C_1186777956_7328379157_0 RECT_OPEN 1.0 1.5 0 0 1
C_1186777956_3141473152_0 RECT_OPEN 1.0 1.5 0 0 1
C_7328379157_11707855552_0 RECT_OPEN 1.0 1.5 0 0 1
C_7328379157_12176161387_0 RECT_OPEN 1.0 1.5 0 0 1
C_7328379157_1186777956_0 RECT_OPEN 1.0 1.5 0 0 1
C_13743331044_13743331043_0 RECT_OPEN 1.0 1.5 0 0 1
C_13743331044_13743331026_0 RECT_OPEN 1.0 1.5 0 0 1
C_13743331044_1186777966_0 RECT_OPEN 1.0 1.5 0 0 1
C_1224322808_7263316354_0 RECT_OPEN 1.0 1.5 0 0 1
C_1224322808_2034648220_0 RECT_OPEN 1.0 1.5 0 0 1
C_1224322808_2268546130_0 RECT_OPEN 1.0 1.5 0 0 1
C_7263316354_2034648222_0 RECT_OPEN 1.0 1.5 0 0 1
C_7263316354_1224322808_0 RECT_OPEN 1.0 1.5 0 0 1
C_7263316354_7263316361_0 RECT_OPEN 1.0 1.5 0 0 1
C_2034648220_2034648230_0 RECT_OPEN 1.0 1.5 0 0 1
C_2034648220_1224322808_0 RECT_OPEN 1.0 1.5 0 0 1
C_2034648220_2034648234_0 RECT_OPEN 1.0 1.5 0 0 1
C_2268546130_6144032627_0 RECT_OPEN 1.0 1.5 0 0 1
C_2268546130_2268546100_0 RECT_OPEN 1.0 1.5 0 0 1
C_2268546130_1224322808_0 RECT_OPEN 1.0 1.5 0 0 1
C_1244527875_2828324523_0 RECT_OPEN 1.0 1.5 0 0 1
C_1244527875_2387579010_0 RECT_OPEN 1.0 1.5 0 0 1
C_1244527875_1244527888_0 RECT_OPEN 1.0 1.5 0 0 1
C_2828324523_9708811990_0 RECT_OPEN 1.0 1.5 0 0 1
C_2828324523_1244527875_0 RECT_OPEN 1.0 1.5 0 0 1
C_2828324523_2828324522_0 RECT_OPEN 1.0 1.5 0 0 1
C_2387579010_1244527875_0 RECT_OPEN 1.0 1.5 0 0 1
C_1244527888_6342458097_0 RECT_OPEN 1.0 1.5 0 0 1
C_1244527888_1244527875_0 RECT_OPEN 1.0 1.5 0 0 1
C_1244527888_1315049037_0 RECT_OPEN 1.0 1.5 0 0 1
C_6342458097_1244527888_0 RECT_OPEN 1.0 1.5 0 0 1
C_1315049037_11009632656_0 RECT_OPEN 1.0 1.5 0 0 1
C_1315049037_10173119093_0 RECT_OPEN 1.0 1.5 0 0 1
C_1315049037_1244527888_0 RECT_OPEN 1.0 1.5 0 0 1
C_1300454732_11922878281_0 RECT_OPEN 1.0 1.5 0 0 1
C_1300454732_1321535551_0 RECT_OPEN 1.0 1.5 0 0 1
C_11922878281_1300454732_0 RECT_OPEN 1.0 1.5 0 0 1
C_11922878281_12169759722_0 RECT_OPEN 1.0 1.5 0 0 1
C_11922878281_11428038811_0 RECT_OPEN 1.0 1.5 0 0 1
C_1321535551_12060861661_0 RECT_OPEN 1.0 1.5 0 0 1
C_1305577009_7298619223_0 RECT_OPEN 1.0 1.5 0 0 1
C_1305577009_1748486107_0 RECT_OPEN 1.0 1.5 0 0 1
C_11234065193_1305577019_0 RECT_OPEN 1.0 1.5 0 0 1
C_6168052376_11395651197_0 RECT_OPEN 1.0 1.5 0 0 1
C_6168052376_1305577019_0 RECT_OPEN 1.0 1.5 0 0 1
C_6168052376_11685087325_0 RECT_OPEN 1.0 1.5 0 0 1
C_1314077241_7479631472_0 RECT_OPEN 1.0 1.5 0 0 1
C_1314077241_7478154540_0 RECT_OPEN 1.0 1.5 0 0 1
C_1314077241_11370378569_0 RECT_OPEN 1.0 1.5 0 0 1
C_7479631472_1314077241_0 RECT_OPEN 1.0 1.5 0 0 1
C_7479631472_7478154531_0 RECT_OPEN 1.0 1.5 0 0 1
C_7479631472_7479631476_0 RECT_OPEN 1.0 1.5 0 0 1
C_7478154540_1314077241_0 RECT_OPEN 1.0 1.5 0 0 1
C_7478154540_7478154544_0 RECT_OPEN 1.0 1.5 0 0 1
C_7478154540_7478154539_0 RECT_OPEN 1.0 1.5 0 0 1
C_11370378569_7478154530_0 RECT_OPEN 1.0 1.5 0 0 1
C_11370378569_1314077241_0 RECT_OPEN 1.0 1.5 0 0 1
C_11370378569_7095265249_0 RECT_OPEN 1.0 1.5 0 0 1
C_1314077247_6168067117_0 RECT_OPEN 1.0 1.5 0 0 1
C_1314077247_7478154497_0 RECT_OPEN 1.0 1.5 0 0 1
C_1314077247_7736381401_0 RECT_OPEN 1.0 1.5 0 0 1
C_6168067117_7478154579_0 RECT_OPEN 1.0 1.5 0 0 1
C_6168067117_7478154579_1 RECT_OPEN 1.0 1.5 0 0 1
C_6168067117_1314077247_0 RECT_OPEN 1.0 1.5 0 0 1
C_7478154497_1314077247_0 RECT_OPEN 1.0 1.5 0 0 1
C_7478154497_1314077248_0 RECT_OPEN 1.0 1.5 0 0 1
C_7478154497_7478154505_0 RECT_OPEN 1.0 1.5 0 0 1
C_7736381401_7736381406_0 RECT_OPEN 1.0 1.5 0 0 1
C_7736381401_1314077247_0 RECT_OPEN 1.0 1.5 0 0 1
C_7736381401_1906888933_0 RECT_OPEN 1.0 1.5 0 0 1
C_1314077248_5777147300_0 RECT_OPEN 1.0 1.5 0 0 1
C_1314077248_5777147337_0 RECT_OPEN 1.0 1.5 0 0 1
C_1314077248_7478154497_0 RECT_OPEN 1.0 1.5 0 0 1
C_5777147300_1314077248_0 RECT_OPEN 1.0 1.5 0 0 1
C_5777147337_13136176386_0 RECT_OPEN 1.0 1.5 0 0 1
C_5777147337_5777147338_0 RECT_OPEN 1.0 1.5 0 0 1
C_5777147337_1314077248_0 RECT_OPEN 1.0 1.5 0 0 1
C_1315048058_3148668048_0 RECT_OPEN 1.0 1.5 0 0 1
C_1315048058_6141957199_0 RECT_OPEN 1.0 1.5 0 0 1
C_1315048058_1315048061_0 RECT_OPEN 1.0 1.5 0 0 1
C_3148668048_1315048058_0 RECT_OPEN 1.0 1.5 0 0 1
C_3148668048_10172982419_0 RECT_OPEN 1.0 1.5 0 0 1
C_3148668048_6204951079_0 RECT_OPEN 1.0 1.5 0 0 1
C_6141957199_6141957196_0 RECT_OPEN 1.0 1.5 0 0 1
C_6141957199_1315048060_0 RECT_OPEN 1.0 1.5 0 0 1
C_6141957199_1315048058_0 RECT_OPEN 1.0 1.5 0 0 1
C_1315048061_1315048058_0 RECT_OPEN 1.0 1.5 0 0 1
C_1315048061_2206930291_0 RECT_OPEN 1.0 1.5 0 0 1
C_1315048061_10172982423_0 RECT_OPEN 1.0 1.5 0 0 1
C_1315048060_11009627049_0 RECT_OPEN 1.0 1.5 0 0 1
C_1315048060_6141957199_0 RECT_OPEN 1.0 1.5 0 0 1
C_1315048060_10172982421_0 RECT_OPEN 1.0 1.5 0 0 1
C_11009627049_1315048060_0 RECT_OPEN 1.0 1.5 0 0 1
C_11009627049_1315048078_0 RECT_OPEN 1.0 1.5 0 0 1
C_11009627049_11009627053_0 RECT_OPEN 1.0 1.5 0 0 1
C_10172982421_1315048060_0 RECT_OPEN 1.0 1.5 0 0 1
C_2206930291_1315048080_0 RECT_OPEN 1.0 1.5 0 0 1
C_2206930291_10172982423_0 RECT_OPEN 1.0 1.5 0 0 1
C_2206930291_1315048061_0 RECT_OPEN 1.0 1.5 0 0 1
C_10172982423_2206930291_0 RECT_OPEN 1.0 1.5 0 0 1
C_10172982423_10172982422_0 RECT_OPEN 1.0 1.5 0 0 1
C_10172982423_1315048061_0 RECT_OPEN 1.0 1.5 0 0 1
C_1315048075_3148668044_0 RECT_OPEN 1.0 1.5 0 0 1
C_1315048075_3148668042_0 RECT_OPEN 1.0 1.5 0 0 1
C_1315048075_10232292384_0 RECT_OPEN 1.0 1.5 0 0 1
C_1315048075_1315048083_0 RECT_OPEN 1.0 1.5 0 0 1
C_3148668044_1315048075_0 RECT_OPEN 1.0 1.5 0 0 1
C_3148668044_1315048080_0 RECT_OPEN 1.0 1.5 0 0 1
C_3148668044_3148668045_0 RECT_OPEN 1.0 1.5 0 0 1
C_3148668044_3148668043_0 RECT_OPEN 1.0 1.5 0 0 1
C_3148668042_1315048075_0 RECT_OPEN 1.0 1.5 0 0 1
C_10232292384_1315048075_0 RECT_OPEN 1.0 1.5 0 0 1
C_1315048078_8433749411_0 RECT_OPEN 1.0 1.5 0 0 1
C_1315048078_6183009077_0 RECT_OPEN 1.0 1.5 0 0 1
C_1315048078_11009627049_0 RECT_OPEN 1.0 1.5 0 0 1
C_8433749411_11009632656_0 RECT_OPEN 1.0 1.5 0 0 1
C_8433749411_11009632658_0 RECT_OPEN 1.0 1.5 0 0 1
C_8433749411_1315048078_0 RECT_OPEN 1.0 1.5 0 0 1
C_6183009077_1315048078_0 RECT_OPEN 1.0 1.5 0 0 1
C_6183009077_5776596292_0 RECT_OPEN 1.0 1.5 0 0 1
C_1315048080_2206930291_0 RECT_OPEN 1.0 1.5 0 0 1
C_1315048080_3148668044_0 RECT_OPEN 1.0 1.5 0 0 1
C_1315048080_1315052254_0 RECT_OPEN 1.0 1.5 0 0 1
C_1315052254_3148668037_0 RECT_OPEN 1.0 1.5 0 0 1
C_1315052254_3148668038_0 RECT_OPEN 1.0 1.5 0 0 1
C_1315052254_1315048080_0 RECT_OPEN 1.0 1.5 0 0 1
C_2387579012_1315048083_0 RECT_OPEN 1.0 1.5 0 0 1
C_2387579012_3148668038_0 RECT_OPEN 1.0 1.5 0 0 1
C_2387579012_3872533486_0 RECT_OPEN 1.0 1.5 0 0 1
C_1315049031_10173119093_0 RECT_OPEN 1.0 1.5 0 0 1
C_1315049031_1315049034_0 RECT_OPEN 1.0 1.5 0 0 1
C_1315049031_13140374079_0 RECT_OPEN 1.0 1.5 0 0 1
C_10173119093_1315049031_0 RECT_OPEN 1.0 1.5 0 0 1
C_10173119093_10173119094_0 RECT_OPEN 1.0 1.5 0 0 1
C_10173119093_13140374056_0 RECT_OPEN 1.0 1.5 0 0 1
C_10173119093_1315049037_0 RECT_OPEN 1.0 1.5 0 0 1
C_1315049034_1315049031_0 RECT_OPEN 1.0 1.5 0 0 1
C_13140374079_1315049031_0 RECT_OPEN 1.0 1.5 0 0 1
C_11009632656_1315049037_0 RECT_OPEN 1.0 1.5 0 0 1
C_11009632656_8433749411_0 RECT_OPEN 1.0 1.5 0 0 1
C_11009632656_11009632657_0 RECT_OPEN 1.0 1.5 0 0 1
C_3148668037_1315052254_0 RECT_OPEN 1.0 1.5 0 0 1
C_3148668037_3148667904_0 RECT_OPEN 1.0 1.5 0 0 1
C_3148668037_10172979411_0 RECT_OPEN 1.0 1.5 0 0 1
C_3148668038_3148668041_0 RECT_OPEN 1.0 1.5 0 0 1
C_3148668038_2387579012_0 RECT_OPEN 1.0 1.5 0 0 1
C_3148668038_1315052254_0 RECT_OPEN 1.0 1.5 0 0 1
C_1319974913_5372340496_0 RECT_OPEN 1.0 1.5 0 0 1
C_1319974913_1319974914_0 RECT_OPEN 1.0 1.5 0 0 1
C_5372340496_1827247449_0 RECT_OPEN 1.0 1.5 0 0 1
C_5372340496_266371138_0 RECT_OPEN 1.0 1.5 0 0 1
C_1319974914_11865827584_0 RECT_OPEN 1.0 1.5 0 0 1
C_1319974914_1319974913_0 RECT_OPEN 1.0 1.5 0 0 1
C_11865827584_1645178566_0 RECT_OPEN 1.0 1.5 0 0 1
C_12060861661_12060861662_0 RECT_OPEN 1.0 1.5 0 0 1
C_12060861661_818634499_0 RECT_OPEN 1.0 1.5 0 0 1
C_1367979481_4446729192_0 RECT_OPEN 1.0 1.5 0 0 1
C_4446729192_1367979481_0 RECT_OPEN 1.0 1.5 0 0 1
C_4446729192_10056058173_0 RECT_OPEN 1.0 1.5 0 0 1
C_1383248215_3148645671_0 RECT_OPEN 1.0 1.5 0 0 1
C_1383248215_3148655238_0 RECT_OPEN 1.0 1.5 0 0 1
C_1383248215_3148655236_0 RECT_OPEN 1.0 1.5 0 0 1
C_3148645671_3148655234_0 RECT_OPEN 1.0 1.5 0 0 1
C_3148645671_1383248215_0 RECT_OPEN 1.0 1.5 0 0 1
C_3148645671_3148645670_0 RECT_OPEN 1.0 1.5 0 0 1
C_3148655238_1383248215_0 RECT_OPEN 1.0 1.5 0 0 1
C_3148655236_3148655239_0 RECT_OPEN 1.0 1.5 0 0 1
C_3148655236_7479631141_0 RECT_OPEN 1.0 1.5 0 0 1
C_3148655236_1383248215_0 RECT_OPEN 1.0 1.5 0 0 1
C_1383248254_3148655266_0 RECT_OPEN 1.0 1.5 0 0 1
C_1383248254_7478155165_0 RECT_OPEN 1.0 1.5 0 0 1
C_1383248254_3148655277_0 RECT_OPEN 1.0 1.5 0 0 1
C_3148655266_3148655263_0 RECT_OPEN 1.0 1.5 0 0 1
C_3148655266_1383248254_0 RECT_OPEN 1.0 1.5 0 0 1
C_3148655266_3148655265_0 RECT_OPEN 1.0 1.5 0 0 1
C_3148655266_3148655268_0 RECT_OPEN 1.0 1.5 0 0 1
C_7478155165_12446863535_0 RECT_OPEN 1.0 1.5 0 0 1
C_7478155165_1383248254_0 RECT_OPEN 1.0 1.5 0 0 1
C_7478155165_12443097983_0 RECT_OPEN 1.0 1.5 0 0 1
C_1383248309_10168257533_0 RECT_OPEN 1.0 1.5 0 0 1
C_1383248309_12462993523_0 RECT_OPEN 1.0 1.5 0 0 1
C_10168257533_5843951128_0 RECT_OPEN 1.0 1.5 0 0 1
C_10168257533_1383248309_0 RECT_OPEN 1.0 1.5 0 0 1
C_12462993523_11921590006_0 RECT_OPEN 1.0 1.5 0 0 1
C_12462993523_12198988557_0 RECT_OPEN 1.0 1.5 0 0 1
C_1387622086_4475150582_0 RECT_OPEN 1.0 1.5 0 0 1
C_1387622086_2195883502_0 RECT_OPEN 1.0 1.5 0 0 1
C_1387622086_12334925123_0 RECT_OPEN 1.0 1.5 0 0 1
C_2195883502_1387622086_0 RECT_OPEN 1.0 1.5 0 0 1
C_2195883502_1387622131_0 RECT_OPEN 1.0 1.5 0 0 1
C_2195883502_2195883497_0 RECT_OPEN 1.0 1.5 0 0 1
C_12334925123_2041854936_0 RECT_OPEN 1.0 1.5 0 0 1
C_12334925123_1387622086_0 RECT_OPEN 1.0 1.5 0 0 1
C_12334925123_2268546156_0 RECT_OPEN 1.0 1.5 0 0 1
C_1387622091_2268546103_0 RECT_OPEN 1.0 1.5 0 0 1
C_1387622091_10994097991_0 RECT_OPEN 1.0 1.5 0 0 1
C_1387622091_10182451860_0 RECT_OPEN 1.0 1.5 0 0 1
C_2268546103_10182451857_0 RECT_OPEN 1.0 1.5 0 0 1
C_2268546103_1387622091_0 RECT_OPEN 1.0 1.5 0 0 1
C_2268546103_4475055875_0 RECT_OPEN 1.0 1.5 0 0 1
C_10994097991_1387622091_0 RECT_OPEN 1.0 1.5 0 0 1
C_10994097991_2268546087_0 RECT_OPEN 1.0 1.5 0 0 1
C_10994097991_12144258015_0 RECT_OPEN 1.0 1.5 0 0 1
C_10182451860_1387622091_0 RECT_OPEN 1.0 1.5 0 0 1
C_3141475567_11182448718_0 RECT_OPEN 1.0 1.5 0 0 1
C_3141475567_1387622103_0 RECT_OPEN 1.0 1.5 0 0 1
C_3141475567_6560163455_0 RECT_OPEN 1.0 1.5 0 0 1
C_1387622131_2268546143_0 RECT_OPEN 1.0 1.5 0 0 1
C_1387622131_2195883502_0 RECT_OPEN 1.0 1.5 0 0 1
C_1387622131_2268546123_0 RECT_OPEN 1.0 1.5 0 0 1
C_2268546143_5388808643_0 RECT_OPEN 1.0 1.5 0 0 1
C_2268546143_1387622131_0 RECT_OPEN 1.0 1.5 0 0 1
C_2268546143_4445588631_0 RECT_OPEN 1.0 1.5 0 0 1
C_2268546123_2268546114_0 RECT_OPEN 1.0 1.5 0 0 1
C_2268546123_1387622131_0 RECT_OPEN 1.0 1.5 0 0 1
C_2268546123_2268546140_0 RECT_OPEN 1.0 1.5 0 0 1
C_1387622145_2268546106_0 RECT_OPEN 1.0 1.5 0 0 1
C_1387622145_10182451857_0 RECT_OPEN 1.0 1.5 0 0 1
C_1387622145_2268546110_0 RECT_OPEN 1.0 1.5 0 0 1
C_2268546106_2268546114_0 RECT_OPEN 1.0 1.5 0 0 1
C_2268546106_1387622145_0 RECT_OPEN 1.0 1.5 0 0 1
C_2268546106_2268546105_0 RECT_OPEN 1.0 1.5 0 0 1
C_10182451857_1387622145_0 RECT_OPEN 1.0 1.5 0 0 1
C_10182451857_2268546103_0 RECT_OPEN 1.0 1.5 0 0 1
C_10182451857_10182451858_0 RECT_OPEN 1.0 1.5 0 0 1
C_2268546110_1387622145_0 RECT_OPEN 1.0 1.5 0 0 1
C_2268546110_4974503765_0 RECT_OPEN 1.0 1.5 0 0 1
C_2268546110_7328345274_0 RECT_OPEN 1.0 1.5 0 0 1
C_13064841548_2180904962_0 RECT_OPEN 1.0 1.5 0 0 1
C_13064841548_818630839_0 RECT_OPEN 1.0 1.5 0 0 1
C_3504349795_3504349796_0 RECT_OPEN 1.0 1.5 0 0 1
C_3504349795_1390345459_0 RECT_OPEN 1.0 1.5 0 0 1
C_3504349795_7301789574_0 RECT_OPEN 1.0 1.5 0 0 1
C_5777299715_1390345459_0 RECT_OPEN 1.0 1.5 0 0 1
C_1614318567_2130361899_0 RECT_OPEN 1.0 1.5 0 0 1
C_1614318567_12060861673_0 RECT_OPEN 1.0 1.5 0 0 1
C_1614318567_1614318730_0 RECT_OPEN 1.0 1.5 0 0 1
C_1614318567_1614318635_0 RECT_OPEN 1.0 1.5 0 0 1
C_2130361899_1614318567_0 RECT_OPEN 1.0 1.5 0 0 1
C_2130361899_11891163805_0 RECT_OPEN 1.0 1.5 0 0 1
C_2130361899_6536473139_0 RECT_OPEN 1.0 1.5 0 0 1
C_12060861673_1614318567_0 RECT_OPEN 1.0 1.5 0 0 1
C_12060861673_1615766921_0 RECT_OPEN 1.0 1.5 0 0 1
C_12060861673_11428038812_0 RECT_OPEN 1.0 1.5 0 0 1
C_1614318730_11428038813_0 RECT_OPEN 1.0 1.5 0 0 1
C_1614318635_6562185321_0 RECT_OPEN 1.0 1.5 0 0 1
C_6562185321_6562185320_0 RECT_OPEN 1.0 1.5 0 0 1
C_11428038813_11428038812_0 RECT_OPEN 1.0 1.5 0 0 1
C_11428038813_11428038815_0 RECT_OPEN 1.0 1.5 0 0 1
C_1615766875_11017227499_0 RECT_OPEN 1.0 1.5 0 0 1
C_1615766875_1615766938_0 RECT_OPEN 1.0 1.5 0 0 1
C_1615766875_6536473101_0 RECT_OPEN 1.0 1.5 0 0 1
C_1615766875_1615766958_0 RECT_OPEN 1.0 1.5 0 0 1
C_11017227499_1615766875_0 RECT_OPEN 1.0 1.5 0 0 1
C_1615766938_1615766875_0 RECT_OPEN 1.0 1.5 0 0 1
C_1615766938_1615767002_0 RECT_OPEN 1.0 1.5 0 0 1
C_1615766938_3684986226_0 RECT_OPEN 1.0 1.5 0 0 1
C_1615766938_3237573297_0 RECT_OPEN 1.0 1.5 0 0 1
C_6536473101_1615766875_0 RECT_OPEN 1.0 1.5 0 0 1
C_6536473101_6536473100_0 RECT_OPEN 1.0 1.5 0 0 1
C_6536473101_1615766921_0 RECT_OPEN 1.0 1.5 0 0 1
C_1615766958_1615767002_0 RECT_OPEN 1.0 1.5 0 0 1
C_1615766958_6536473104_0 RECT_OPEN 1.0 1.5 0 0 1
C_1615766958_1615766875_0 RECT_OPEN 1.0 1.5 0 0 1
C_1615766885_1615767016_0 RECT_OPEN 1.0 1.5 0 0 1
C_1615766885_1615766914_0 RECT_OPEN 1.0 1.5 0 0 1
C_1615766885_1615766985_0 RECT_OPEN 1.0 1.5 0 0 1
C_1615767016_1615766885_0 RECT_OPEN 1.0 1.5 0 0 1
C_1615767016_11397517840_0 RECT_OPEN 1.0 1.5 0 0 1
C_1615766914_1615766885_0 RECT_OPEN 1.0 1.5 0 0 1
C_1615766914_1615767002_0 RECT_OPEN 1.0 1.5 0 0 1
C_1615766914_3684986226_0 RECT_OPEN 1.0 1.5 0 0 1
C_1615766985_6968263671_0 RECT_OPEN 1.0 1.5 0 0 1
C_1615766985_1615766885_0 RECT_OPEN 1.0 1.5 0 0 1
C_1615766985_3684986226_0 RECT_OPEN 1.0 1.5 0 0 1
C_1615767002_1615766914_0 RECT_OPEN 1.0 1.5 0 0 1
C_1615767002_1615766958_0 RECT_OPEN 1.0 1.5 0 0 1
C_1615767002_1615766938_0 RECT_OPEN 1.0 1.5 0 0 1
C_3684986226_1615766914_0 RECT_OPEN 1.0 1.5 0 0 1
C_3684986226_1615766985_0 RECT_OPEN 1.0 1.5 0 0 1
C_3684986226_1615766938_0 RECT_OPEN 1.0 1.5 0 0 1
C_1615766921_6536473101_0 RECT_OPEN 1.0 1.5 0 0 1
C_1615766921_12060861673_0 RECT_OPEN 1.0 1.5 0 0 1
C_1615766921_6536473099_0 RECT_OPEN 1.0 1.5 0 0 1
C_6536473099_6536473097_0 RECT_OPEN 1.0 1.5 0 0 1
C_6536473099_6536473098_0 RECT_OPEN 1.0 1.5 0 0 1
C_6536473099_1615766921_0 RECT_OPEN 1.0 1.5 0 0 1
C_3237573297_1615766938_0 RECT_OPEN 1.0 1.5 0 0 1
C_6536473104_1615766958_0 RECT_OPEN 1.0 1.5 0 0 1
C_6536473104_11397532787_0 RECT_OPEN 1.0 1.5 0 0 1
C_6536473104_1615767007_0 RECT_OPEN 1.0 1.5 0 0 1
C_6968263671_6968263670_0 RECT_OPEN 1.0 1.5 0 0 1
C_6968263671_1615766985_0 RECT_OPEN 1.0 1.5 0 0 1
C_6968263671_10172868164_0 RECT_OPEN 1.0 1.5 0 0 1
C_1615767007_6536473104_0 RECT_OPEN 1.0 1.5 0 0 1
C_1615767007_9846394228_0 RECT_OPEN 1.0 1.5 0 0 1
C_9846394228_10969136194_0 RECT_OPEN 1.0 1.5 0 0 1
C_1615767013_11397517840_0 RECT_OPEN 1.0 1.5 0 0 1
C_11397517840_1615767016_0 RECT_OPEN 1.0 1.5 0 0 1
C_11397517840_1615767013_0 RECT_OPEN 1.0 1.5 0 0 1
C_11397517840_11397517841_0 RECT_OPEN 1.0 1.5 0 0 1
C_11070754935_11070754936_0 RECT_OPEN 1.0 1.5 0 0 1
C_11070754935_2387407562_0 RECT_OPEN 1.0 1.5 0 0 1
C_1645178566_11865827584_0 RECT_OPEN 1.0 1.5 0 0 1
C_1645178612_1083500529_0 RECT_OPEN 1.0 1.5 0 0 1
C_1683173710_1683173716_0 RECT_OPEN 1.0 1.5 0 0 1
C_1683173716_1683173710_0 RECT_OPEN 1.0 1.5 0 0 1
C_1683173716_7478154651_0 RECT_OPEN 1.0 1.5 0 0 1
C_7478154651_7147100023_0 RECT_OPEN 1.0 1.5 0 0 1
C_7478154651_11433644719_0 RECT_OPEN 1.0 1.5 0 0 1
C_7147103496_1693112084_0 RECT_OPEN 1.0 1.5 0 0 1
C_11078308794_1693112084_0 RECT_OPEN 1.0 1.5 0 0 1
C_11428038816_2156205416_0 RECT_OPEN 1.0 1.5 0 0 1
C_2446054167_11509998750_0 RECT_OPEN 1.0 1.5 0 0 1
C_2446054167_818634499_0 RECT_OPEN 1.0 1.5 0 0 1
C_1714977975_1714984580_0 RECT_OPEN 1.0 1.5 0 0 1
C_1714977975_12009305216_0 RECT_OPEN 1.0 1.5 0 0 1
C_12009305216_12137575005_0 RECT_OPEN 1.0 1.5 0 0 1
C_12009305216_5776756937_0 RECT_OPEN 1.0 1.5 0 0 1
C_1714984568_8403844099_0 RECT_OPEN 1.0 1.5 0 0 1
C_1714984568_5776756937_0 RECT_OPEN 1.0 1.5 0 0 1
C_8403844099_1714984568_0 RECT_OPEN 1.0 1.5 0 0 1
C_8403844099_1714984609_0 RECT_OPEN 1.0 1.5 0 0 1
C_8403844099_6019669025_0 RECT_OPEN 1.0 1.5 0 0 1
C_5776756937_12009305215_0 RECT_OPEN 1.0 1.5 0 0 1
C_1714984609_8403844099_0 RECT_OPEN 1.0 1.5 0 0 1
C_13144414990_1748486107_0 RECT_OPEN 1.0 1.5 0 0 1
C_1815485809_3148587503_0 RECT_OPEN 1.0 1.5 0 0 1
C_3148587503_1815485809_0 RECT_OPEN 1.0 1.5 0 0 1
C_3148587503_7478154731_0 RECT_OPEN 1.0 1.5 0 0 1
C_1817170894_5689989229_0 RECT_OPEN 1.0 1.5 0 0 1
C_1817170894_7328007720_0 RECT_OPEN 1.0 1.5 0 0 1
C_1817170894_5772629055_0 RECT_OPEN 1.0 1.5 0 0 1
C_5689989229_5689989230_0 RECT_OPEN 1.0 1.5 0 0 1
C_5689989229_5689989227_0 RECT_OPEN 1.0 1.5 0 0 1
C_5689989229_1817170894_0 RECT_OPEN 1.0 1.5 0 0 1
C_7328007720_1817170894_0 RECT_OPEN 1.0 1.5 0 0 1
C_7328007720_7478154670_0 RECT_OPEN 1.0 1.5 0 0 1
C_7328007720_7328007723_0 RECT_OPEN 1.0 1.5 0 0 1
C_5772629055_1817170894_0 RECT_OPEN 1.0 1.5 0 0 1
C_1817170897_5689989225_0 RECT_OPEN 1.0 1.5 0 0 1
C_1817170897_5689989227_0 RECT_OPEN 1.0 1.5 0 0 1
C_1817170897_7478154681_0 RECT_OPEN 1.0 1.5 0 0 1
C_5689989225_5689989226_0 RECT_OPEN 1.0 1.5 0 0 1
C_5689989225_1817170898_0 RECT_OPEN 1.0 1.5 0 0 1
C_5689989225_1817170897_0 RECT_OPEN 1.0 1.5 0 0 1
C_5689989227_5689989228_0 RECT_OPEN 1.0 1.5 0 0 1
C_5689989227_1817170897_0 RECT_OPEN 1.0 1.5 0 0 1
C_5689989227_5689989229_0 RECT_OPEN 1.0 1.5 0 0 1
C_7478154681_1817170897_0 RECT_OPEN 1.0 1.5 0 0 1
C_1817170898_5689989225_0 RECT_OPEN 1.0 1.5 0 0 1
C_1817170898_6499300015_0 RECT_OPEN 1.0 1.5 0 0 1
C_1817170898_7328099146_0 RECT_OPEN 1.0 1.5 0 0 1
C_6499300015_1817170898_0 RECT_OPEN 1.0 1.5 0 0 1
C_6499300015_6499300016_0 RECT_OPEN 1.0 1.5 0 0 1
C_6499300015_7328007824_0 RECT_OPEN 1.0 1.5 0 0 1
C_1827247449_5778521345_0 RECT_OPEN 1.0 1.5 0 0 1
C_5778521345_2099691601_0 RECT_OPEN 1.0 1.5 0 0 1
C_5778521345_12690206052_0 RECT_OPEN 1.0 1.5 0 0 1
C_1827634843_1645178566_0 RECT_OPEN 1.0 1.5 0 0 1
C_1906888933_11220661003_0 RECT_OPEN 1.0 1.5 0 0 1
C_1906888933_7736381401_0 RECT_OPEN 1.0 1.5 0 0 1
C_11220661003_12151494704_0 RECT_OPEN 1.0 1.5 0 0 1
C_1914928013_10182390928_0 RECT_OPEN 1.0 1.5 0 0 1
C_1914928013_4682937550_0 RECT_OPEN 1.0 1.5 0 0 1
C_1914928013_7478154729_0 RECT_OPEN 1.0 1.5 0 0 1
C_10182390928_1914928013_0 RECT_OPEN 1.0 1.5 0 0 1
C_4682937550_7479630892_0 RECT_OPEN 1.0 1.5 0 0 1
C_4682937550_13238937706_0 RECT_OPEN 1.0 1.5 0 0 1
C_4682937550_1914928013_0 RECT_OPEN 1.0 1.5 0 0 1
C_2034648230_2034648225_0 RECT_OPEN 1.0 1.5 0 0 1
C_2034648230_2268546125_0 RECT_OPEN 1.0 1.5 0 0 1
C_2034648230_2034648220_0 RECT_OPEN 1.0 1.5 0 0 1
C_2034648234_2268546125_0 RECT_OPEN 1.0 1.5 0 0 1
C_2034648234_2268546111_0 RECT_OPEN 1.0 1.5 0 0 1
C_2034648234_2034648220_0 RECT_OPEN 1.0 1.5 0 0 1
C_2034648222_7266164820_0 RECT_OPEN 1.0 1.5 0 0 1
C_2034648222_7263316354_0 RECT_OPEN 1.0 1.5 0 0 1
C_2034648222_2034648226_0 RECT_OPEN 1.0 1.5 0 0 1
C_7266164820_2034648235_0 RECT_OPEN 1.0 1.5 0 0 1
C_7266164820_2034648222_0 RECT_OPEN 1.0 1.5 0 0 1
C_7266164820_7266164815_0 RECT_OPEN 1.0 1.5 0 0 1
C_2034648226_2034648222_0 RECT_OPEN 1.0 1.5 0 0 1
C_2034648226_2268546160_0 RECT_OPEN 1.0 1.5 0 0 1
C_2034648226_7328379076_0 RECT_OPEN 1.0 1.5 0 0 1
C_7328379076_7328379077_0 RECT_OPEN 1.0 1.5 0 0 1
C_7328379076_2034648226_0 RECT_OPEN 1.0 1.5 0 0 1
C_7328379076_2034648224_0 RECT_OPEN 1.0 1.5 0 0 1
C_2034648233_2268546136_0 RECT_OPEN 1.0 1.5 0 0 1
C_2034648233_2034648225_0 RECT_OPEN 1.0 1.5 0 0 1
C_2034648233_2034648224_0 RECT_OPEN 1.0 1.5 0 0 1
C_2034648225_2034648230_0 RECT_OPEN 1.0 1.5 0 0 1
C_2034648225_2034648233_0 RECT_OPEN 1.0 1.5 0 0 1
C_2034648225_4447100001_0 RECT_OPEN 1.0 1.5 0 0 1
C_4447100001_2034648225_0 RECT_OPEN 1.0 1.5 0 0 1
C_2268546160_2034648226_0 RECT_OPEN 1.0 1.5 0 0 1
C_2268546125_2034648230_0 RECT_OPEN 1.0 1.5 0 0 1
C_2268546125_2034648234_0 RECT_OPEN 1.0 1.5 0 0 1
C_2268546125_2268546121_0 RECT_OPEN 1.0 1.5 0 0 1
C_2268546136_2034648233_0 RECT_OPEN 1.0 1.5 0 0 1
C_2034648235_7266164820_0 RECT_OPEN 1.0 1.5 0 0 1
C_2041854927_2268546140_0 RECT_OPEN 1.0 1.5 0 0 1
C_2041854927_4448123006_0 RECT_OPEN 1.0 1.5 0 0 1
C_2041854927_2268546144_0 RECT_OPEN 1.0 1.5 0 0 1
C_2268546140_2041854927_0 RECT_OPEN 1.0 1.5 0 0 1
C_2268546140_2041854936_0 RECT_OPEN 1.0 1.5 0 0 1
C_2268546140_2268546123_0 RECT_OPEN 1.0 1.5 0 0 1
C_4448123006_4448123019_0 RECT_OPEN 1.0 1.5 0 0 1
C_4448123006_2041854927_0 RECT_OPEN 1.0 1.5 0 0 1
C_4448123006_13142028598_0 RECT_OPEN 1.0 1.5 0 0 1
C_2268546144_2041854927_0 RECT_OPEN 1.0 1.5 0 0 1
C_2041854936_2268546140_0 RECT_OPEN 1.0 1.5 0 0 1
C_2041854936_12334925123_0 RECT_OPEN 1.0 1.5 0 0 1
C_2041854936_2268546152_0 RECT_OPEN 1.0 1.5 0 0 1
C_2268546152_2041854936_0 RECT_OPEN 1.0 1.5 0 0 1
C_2099691584_5354906276_0 RECT_OPEN 1.0 1.5 0 0 1
C_2099691584_6194830177_0 RECT_OPEN 1.0 1.5 0 0 1
C_5354906276_3148587490_0 RECT_OPEN 1.0 1.5 0 0 1
C_5354906276_7479630483_0 RECT_OPEN 1.0 1.5 0 0 1
C_6194830177_7479631105_0 RECT_OPEN 1.0 1.5 0 0 1
C_6194830177_6194830173_0 RECT_OPEN 1.0 1.5 0 0 1
C_6194830177_2099691584_0 RECT_OPEN 1.0 1.5 0 0 1
C_2099691601_7147115841_0 RECT_OPEN 1.0 1.5 0 0 1
C_2099691601_2099691667_0 RECT_OPEN 1.0 1.5 0 0 1
C_2099691630_12517783371_0 RECT_OPEN 1.0 1.5 0 0 1
C_2099691630_12517783377_0 RECT_OPEN 1.0 1.5 0 0 1
C_12517783371_2099691630_0 RECT_OPEN 1.0 1.5 0 0 1
C_12517783371_4474487238_0 RECT_OPEN 1.0 1.5 0 0 1
C_12517783371_12517783377_0 RECT_OPEN 1.0 1.5 0 0 1
C_12517783377_2099691681_0 RECT_OPEN 1.0 1.5 0 0 1
C_2099691637_2387361293_0 RECT_OPEN 1.0 1.5 0 0 1
C_2099691637_5807148396_0 RECT_OPEN 1.0 1.5 0 0 1
C_2099691637_6130070511_0 RECT_OPEN 1.0 1.5 0 0 1
C_2387361293_4540978393_0 RECT_OPEN 1.0 1.5 0 0 1
C_2387361293_2099691637_0 RECT_OPEN 1.0 1.5 0 0 1
C_5807148396_2099691637_0 RECT_OPEN 1.0 1.5 0 0 1
C_6130070511_5776596292_0 RECT_OPEN 1.0 1.5 0 0 1
C_6130070511_7479631470_0 RECT_OPEN 1.0 1.5 0 0 1
C_2099691661_8530739259_0 RECT_OPEN 1.0 1.5 0 0 1
C_2099691661_13823559215_0 RECT_OPEN 1.0 1.5 0 0 1
C_8530739259_2099691661_0 RECT_OPEN 1.0 1.5 0 0 1
C_8530739259_1906888933_0 RECT_OPEN 1.0 1.5 0 0 1
C_8530739259_10196255890_0 RECT_OPEN 1.0 1.5 0 0 1
C_13823559215_13823559216_0 RECT_OPEN 1.0 1.5 0 0 1
C_13823559215_7479630836_0 RECT_OPEN 1.0 1.5 0 0 1
C_11011674941_6749735684_0 RECT_OPEN 1.0 1.5 0 0 1
C_11011674941_11011674942_0 RECT_OPEN 1.0 1.5 0 0 1
C_10172914465_10172914467_0 RECT_OPEN 1.0 1.5 0 0 1
C_10172914465_4285700669_0 RECT_OPEN 1.0 1.5 0 0 1
C_2099691686_2387367081_0 RECT_OPEN 1.0 1.5 0 0 1
C_2099691686_12151458578_0 RECT_OPEN 1.0 1.5 0 0 1
C_2387367081_2099691686_0 RECT_OPEN 1.0 1.5 0 0 1
C_12151458578_11220661004_0 RECT_OPEN 1.0 1.5 0 0 1
C_6749666079_9824245046_0 RECT_OPEN 1.0 1.5 0 0 1
C_6749666079_2113348452_0 RECT_OPEN 1.0 1.5 0 0 1
C_6749666079_9749202516_0 RECT_OPEN 1.0 1.5 0 0 1
C_11891163805_6562185320_0 RECT_OPEN 1.0 1.5 0 0 1
C_11891163805_11891163804_0 RECT_OPEN 1.0 1.5 0 0 1
C_6536473139_6536473138_0 RECT_OPEN 1.0 1.5 0 0 1
C_6536473139_2130361899_0 RECT_OPEN 1.0 1.5 0 0 1
C_6536473139_6536473137_0 RECT_OPEN 1.0 1.5 0 0 1
C_2156205416_2130361899_0 RECT_OPEN 1.0 1.5 0 0 1
C_2156205416_6904648005_0 RECT_OPEN 1.0 1.5 0 0 1
C_2156205416_2412953615_0 RECT_OPEN 1.0 1.5 0 0 1
C_6904648005_6911622972_0 RECT_OPEN 1.0 1.5 0 0 1
C_6904648005_10994377647_0 RECT_OPEN 1.0 1.5 0 0 1
C_6904648005_2156205416_0 RECT_OPEN 1.0 1.5 0 0 1
C_2412953615_11891163804_0 RECT_OPEN 1.0 1.5 0 0 1
C_2412953615_2156205416_0 RECT_OPEN 1.0 1.5 0 0 1
C_2180904962_13064841548_0 RECT_OPEN 1.0 1.5 0 0 1
C_2180904962_3771990505_0 RECT_OPEN 1.0 1.5 0 0 1
C_2180904962_2268546087_0 RECT_OPEN 1.0 1.5 0 0 1
C_2268546087_10994097991_0 RECT_OPEN 1.0 1.5 0 0 1
C_2268546087_2268546093_0 RECT_OPEN 1.0 1.5 0 0 1
C_2268546087_2180904962_0 RECT_OPEN 1.0 1.5 0 0 1
C_2195883497_4445588631_0 RECT_OPEN 1.0 1.5 0 0 1
C_2195883497_2195883502_0 RECT_OPEN 1.0 1.5 0 0 1
C_4445588631_2268546161_0 RECT_OPEN 1.0 1.5 0 0 1
C_4445588631_2195883497_0 RECT_OPEN 1.0 1.5 0 0 1
C_4445588631_2268546143_0 RECT_OPEN 1.0 1.5 0 0 1
C_2206930257_3148668088_0 RECT_OPEN 1.0 1.5 0 0 1
C_2206930257_2206930285_0 RECT_OPEN 1.0 1.5 0 0 1
C_2206930257_2206930279_0 RECT_OPEN 1.0 1.5 0 0 1
C_3148668088_2206930277_0 RECT_OPEN 1.0 1.5 0 0 1
C_3148668088_3148668073_0 RECT_OPEN 1.0 1.5 0 0 1
C_3148668088_2206930257_0 RECT_OPEN 1.0 1.5 0 0 1
C_2206930285_2206930286_0 RECT_OPEN 1.0 1.5 0 0 1
C_2206930285_2206930257_0 RECT_OPEN 1.0 1.5 0 0 1
C_2206930279_2206930270_0 RECT_OPEN 1.0 1.5 0 0 1
C_2206930279_2206930257_0 RECT_OPEN 1.0 1.5 0 0 1
C_2206930279_2206930277_0 RECT_OPEN 1.0 1.5 0 0 1
C_2206930259_2206930263_0 RECT_OPEN 1.0 1.5 0 0 1
C_2206930259_2206930274_0 RECT_OPEN 1.0 1.5 0 0 1
C_2206930263_2206930259_0 RECT_OPEN 1.0 1.5 0 0 1
C_2206930263_3148668073_0 RECT_OPEN 1.0 1.5 0 0 1
C_2206930263_3148668067_0 RECT_OPEN 1.0 1.5 0 0 1
C_2206930274_2206930259_0 RECT_OPEN 1.0 1.5 0 0 1
C_2206930274_2387579019_0 RECT_OPEN 1.0 1.5 0 0 1
C_2206930274_3148668067_0 RECT_OPEN 1.0 1.5 0 0 1
C_2206930274_3148668099_0 RECT_OPEN 1.0 1.5 0 0 1
C_3148668073_2206930263_0 RECT_OPEN 1.0 1.5 0 0 1
C_3148668073_3148668088_0 RECT_OPEN 1.0 1.5 0 0 1
C_3148668073_3148668072_0 RECT_OPEN 1.0 1.5 0 0 1
C_3148668067_2206930263_0 RECT_OPEN 1.0 1.5 0 0 1
C_3148668067_3148668068_0 RECT_OPEN 1.0 1.5 0 0 1
C_3148668067_3148668072_0 RECT_OPEN 1.0 1.5 0 0 1
C_3148668067_2206930274_0 RECT_OPEN 1.0 1.5 0 0 1
C_2206930265_2206930266_0 RECT_OPEN 1.0 1.5 0 0 1
C_2206930266_2206930270_0 RECT_OPEN 1.0 1.5 0 0 1
C_2206930266_3148668114_0 RECT_OPEN 1.0 1.5 0 0 1
C_2206930266_2206930265_0 RECT_OPEN 1.0 1.5 0 0 1
C_2206930270_2206930279_0 RECT_OPEN 1.0 1.5 0 0 1
C_2206930270_2206930266_0 RECT_OPEN 1.0 1.5 0 0 1
C_2206930270_2206930278_0 RECT_OPEN 1.0 1.5 0 0 1
C_3148668114_2206930266_0 RECT_OPEN 1.0 1.5 0 0 1
C_2206930278_2206930277_0 RECT_OPEN 1.0 1.5 0 0 1
C_2206930278_3148668071_0 RECT_OPEN 1.0 1.5 0 0 1
C_2206930278_2206930270_0 RECT_OPEN 1.0 1.5 0 0 1
C_2387579019_2206930274_0 RECT_OPEN 1.0 1.5 0 0 1
C_2387579019_10094041459_0 RECT_OPEN 1.0 1.5 0 0 1
C_2387579019_3148668068_0 RECT_OPEN 1.0 1.5 0 0 1
C_2387579019_3148668100_0 RECT_OPEN 1.0 1.5 0 0 1
C_3148668099_2206930274_0 RECT_OPEN 1.0 1.5 0 0 1
C_3148668099_3148668100_0 RECT_OPEN 1.0 1.5 0 0 1
C_2206930277_3148668088_0 RECT_OPEN 1.0 1.5 0 0 1
C_2206930277_2206930278_0 RECT_OPEN 1.0 1.5 0 0 1
C_2206930277_2206930279_0 RECT_OPEN 1.0 1.5 0 0 1
C_2206930277_3148668072_0 RECT_OPEN 1.0 1.5 0 0 1
C_3148668072_3148668073_0 RECT_OPEN 1.0 1.5 0 0 1
C_3148668072_3148668071_0 RECT_OPEN 1.0 1.5 0 0 1
C_3148668072_2206930277_0 RECT_OPEN 1.0 1.5 0 0 1
C_3148668072_3148668067_0 RECT_OPEN 1.0 1.5 0 0 1
C_3148668071_3148668068_0 RECT_OPEN 1.0 1.5 0 0 1
C_3148668071_3148668072_0 RECT_OPEN 1.0 1.5 0 0 1
C_3148668071_2206930278_0 RECT_OPEN 1.0 1.5 0 0 1
C_10172979379_2206930293_0 RECT_OPEN 1.0 1.5 0 0 1
C_10172979379_10172979378_0 RECT_OPEN 1.0 1.5 0 0 1
C_10172979379_2206930282_0 RECT_OPEN 1.0 1.5 0 0 1
C_2206930284_2206930282_0 RECT_OPEN 1.0 1.5 0 0 1
C_2206930286_2206930285_0 RECT_OPEN 1.0 1.5 0 0 1
C_2206930286_3148668107_0 RECT_OPEN 1.0 1.5 0 0 1
C_2206930286_3148668112_0 RECT_OPEN 1.0 1.5 0 0 1
C_3148668107_3148668111_0 RECT_OPEN 1.0 1.5 0 0 1
C_3148668107_3148668105_0 RECT_OPEN 1.0 1.5 0 0 1
C_3148668107_2206930286_0 RECT_OPEN 1.0 1.5 0 0 1
C_3148668112_2206930286_0 RECT_OPEN 1.0 1.5 0 0 1
C_3148668112_3148668111_0 RECT_OPEN 1.0 1.5 0 0 1
C_3148668112_10172979382_0 RECT_OPEN 1.0 1.5 0 0 1
C_2206930293_3148580198_0 RECT_OPEN 1.0 1.5 0 0 1
C_2206930293_10172979379_0 RECT_OPEN 1.0 1.5 0 0 1
C_2206930293_10172979380_0 RECT_OPEN 1.0 1.5 0 0 1
C_10172979380_2206930293_0 RECT_OPEN 1.0 1.5 0 0 1
C_10172979380_3148668105_0 RECT_OPEN 1.0 1.5 0 0 1
C_10172979380_11359603296_0 RECT_OPEN 1.0 1.5 0 0 1
C_2268546082_2268546086_0 RECT_OPEN 1.0 1.5 0 0 1
C_2268546086_2268546082_0 RECT_OPEN 1.0 1.5 0 0 1
C_2268546086_2268546089_0 RECT_OPEN 1.0 1.5 0 0 1
C_2268546086_2268546089_1 RECT_OPEN 1.0 1.5 0 0 1
C_2268546086_2268546096_0 RECT_OPEN 1.0 1.5 0 0 1
C_2268546089_2268546086_0 RECT_OPEN 1.0 1.5 0 0 1
C_2268546089_2268546086_1 RECT_OPEN 1.0 1.5 0 0 1
C_2268546089_2268546100_0 RECT_OPEN 1.0 1.5 0 0 1
C_2268546096_2268546100_0 RECT_OPEN 1.0 1.5 0 0 1
C_2268546096_2268546095_0 RECT_OPEN 1.0 1.5 0 0 1
C_2268546096_2268546086_0 RECT_OPEN 1.0 1.5 0 0 1
C_2268546093_2268546087_0 RECT_OPEN 1.0 1.5 0 0 1
C_2268546100_2268546096_0 RECT_OPEN 1.0 1.5 0 0 1
C_2268546100_2268546089_0 RECT_OPEN 1.0 1.5 0 0 1
C_2268546100_2268546130_0 RECT_OPEN 1.0 1.5 0 0 1
C_2268546095_2268546096_0 RECT_OPEN 1.0 1.5 0 0 1
C_4475055875_2268546103_0 RECT_OPEN 1.0 1.5 0 0 1
C_2268546105_2268546106_0 RECT_OPEN 1.0 1.5 0 0 1
C_2268546114_2268546123_0 RECT_OPEN 1.0 1.5 0 0 1
C_2268546114_2268546106_0 RECT_OPEN 1.0 1.5 0 0 1
C_2268546114_3148657060_0 RECT_OPEN 1.0 1.5 0 0 1
C_2268546114_4974503765_0 RECT_OPEN 1.0 1.5 0 0 1
C_4974503765_2268546110_0 RECT_OPEN 1.0 1.5 0 0 1
C_4974503765_2268546117_0 RECT_OPEN 1.0 1.5 0 0 1
C_4974503765_2268546114_0 RECT_OPEN 1.0 1.5 0 0 1
C_7328345274_7328345275_0 RECT_OPEN 1.0 1.5 0 0 1
C_7328345274_2268546117_0 RECT_OPEN 1.0 1.5 0 0 1
C_7328345274_2268546110_0 RECT_OPEN 1.0 1.5 0 0 1
C_2268546121_2268546132_0 RECT_OPEN 1.0 1.5 0 0 1
C_2268546121_2268546111_0 RECT_OPEN 1.0 1.5 0 0 1
C_2268546121_2268546125_0 RECT_OPEN 1.0 1.5 0 0 1
C_3148657060_7484216048_0 RECT_OPEN 1.0 1.5 0 0 1
C_3148657060_2268546114_0 RECT_OPEN 1.0 1.5 0 0 1
C_3148657060_12144258014_0 RECT_OPEN 1.0 1.5 0 0 1
C_2268546117_4974503765_0 RECT_OPEN 1.0 1.5 0 0 1
C_2268546117_4448123019_0 RECT_OPEN 1.0 1.5 0 0 1
C_2268546117_7328345274_0 RECT_OPEN 1.0 1.5 0 0 1
C_4448123019_2268546117_0 RECT_OPEN 1.0 1.5 0 0 1
C_4448123019_4448123006_0 RECT_OPEN 1.0 1.5 0 0 1
C_4448123019_4448123015_0 RECT_OPEN 1.0 1.5 0 0 1
C_2268546132_2268546121_0 RECT_OPEN 1.0 1.5 0 0 1
C_6144032627_2268546130_0 RECT_OPEN 1.0 1.5 0 0 1
C_6144032627_6144032626_0 RECT_OPEN 1.0 1.5 0 0 1
C_6144032627_7328379067_0 RECT_OPEN 1.0 1.5 0 0 1
C_5388808643_3148614512_0 RECT_OPEN 1.0 1.5 0 0 1
C_5388808643_2268546143_0 RECT_OPEN 1.0 1.5 0 0 1
C_5388808643_5388808641_0 RECT_OPEN 1.0 1.5 0 0 1
C_2268546146_2268546161_0 RECT_OPEN 1.0 1.5 0 0 1
C_2268546161_4445588631_0 RECT_OPEN 1.0 1.5 0 0 1
C_2268546161_3148614512_0 RECT_OPEN 1.0 1.5 0 0 1
C_2268546161_2268546146_0 RECT_OPEN 1.0 1.5 0 0 1
C_2268546149_2268546151_0 RECT_OPEN 1.0 1.5 0 0 1
C_2268546149_4475150583_0 RECT_OPEN 1.0 1.5 0 0 1
C_2268546149_13142029192_0 RECT_OPEN 1.0 1.5 0 0 1
C_2268546151_2268546149_0 RECT_OPEN 1.0 1.5 0 0 1
C_4475150583_2268546149_0 RECT_OPEN 1.0 1.5 0 0 1
C_4475150583_2268546165_0 RECT_OPEN 1.0 1.5 0 0 1
C_4475150583_2268546159_0 RECT_OPEN 1.0 1.5 0 0 1
C_13142029192_2268546149_0 RECT_OPEN 1.0 1.5 0 0 1
C_2268546156_4475150582_0 RECT_OPEN 1.0 1.5 0 0 1
C_2268546156_2268546158_0 RECT_OPEN 1.0 1.5 0 0 1
C_2268546156_12334925123_0 RECT_OPEN 1.0 1.5 0 0 1
C_2268546158_2268546156_0 RECT_OPEN 1.0 1.5 0 0 1
C_2268546158_2268546159_0 RECT_OPEN 1.0 1.5 0 0 1
C_2268546158_2268546163_0 RECT_OPEN 1.0 1.5 0 0 1
C_2268546159_2268546158_0 RECT_OPEN 1.0 1.5 0 0 1
C_2268546159_4475150583_0 RECT_OPEN 1.0 1.5 0 0 1
C_2268546159_3590694360_0 RECT_OPEN 1.0 1.5 0 0 1
C_2268546163_2268546158_0 RECT_OPEN 1.0 1.5 0 0 1
C_3590694360_2268546159_0 RECT_OPEN 1.0 1.5 0 0 1
C_3148614512_5388808643_0 RECT_OPEN 1.0 1.5 0 0 1
C_3148614512_10994159748_0 RECT_OPEN 1.0 1.5 0 0 1
C_3148614512_2268546161_0 RECT_OPEN 1.0 1.5 0 0 1
C_2268546165_4475150583_0 RECT_OPEN 1.0 1.5 0 0 1
C_2268546165_2268546166_0 RECT_OPEN 1.0 1.5 0 0 1
C_2268546166_3590694361_0 RECT_OPEN 1.0 1.5 0 0 1
C_2268546166_2268546165_0 RECT_OPEN 1.0 1.5 0 0 1
C_2268546166_2268546167_0 RECT_OPEN 1.0 1.5 0 0 1
C_3590694361_2268546166_0 RECT_OPEN 1.0 1.5 0 0 1
C_10725368291_2268546167_0 RECT_OPEN 1.0 1.5 0 0 1
C_3803663193_1827634843_0 RECT_OPEN 1.0 1.5 0 0 1
C_3803663193_9828511707_0 RECT_OPEN 1.0 1.5 0 0 1
C_3141425530_2387290813_0 RECT_OPEN 1.0 1.5 0 0 1
C_5776756946_2387290813_0 RECT_OPEN 1.0 1.5 0 0 1
C_5776756946_264129270_0 RECT_OPEN 1.0 1.5 0 0 1
C_4540978393_4540978394_0 RECT_OPEN 1.0 1.5 0 0 1
C_4540978393_264845660_0 RECT_OPEN 1.0 1.5 0 0 1
C_2387407562_10056058174_0 RECT_OPEN 1.0 1.5 0 0 1
C_10056058174_10056058173_0 RECT_OPEN 1.0 1.5 0 0 1
C_10056058174_11509998741_0 RECT_OPEN 1.0 1.5 0 0 1
C_3872533486_3872540688_0 RECT_OPEN 1.0 1.5 0 0 1
C_3872533486_3148668030_0 RECT_OPEN 1.0 1.5 0 0 1
C_3872533486_2387579012_0 RECT_OPEN 1.0 1.5 0 0 1
C_10094041459_2387579019_0 RECT_OPEN 1.0 1.5 0 0 1
C_3148668068_3148668067_0 RECT_OPEN 1.0 1.5 0 0 1
C_3148668068_3148668071_0 RECT_OPEN 1.0 1.5 0 0 1
C_3148668068_2387579019_0 RECT_OPEN 1.0 1.5 0 0 1
C_3148668100_2387579019_0 RECT_OPEN 1.0 1.5 0 0 1
C_3148668100_3148668099_0 RECT_OPEN 1.0 1.5 0 0 1
C_3148668100_5726284291_0 RECT_OPEN 1.0 1.5 0 0 1
C_3157670226_2389701677_0 RECT_OPEN 1.0 1.5 0 0 1
C_2391229483_3148645652_0 RECT_OPEN 1.0 1.5 0 0 1
C_2391229483_3148645665_0 RECT_OPEN 1.0 1.5 0 0 1
C_2391229483_3148656434_0 RECT_OPEN 1.0 1.5 0 0 1
C_2391229483_3148645692_0 RECT_OPEN 1.0 1.5 0 0 1
C_3148645652_2391229483_0 RECT_OPEN 1.0 1.5 0 0 1
C_3148645652_3148645678_0 RECT_OPEN 1.0 1.5 0 0 1
C_3148645652_3148645653_0 RECT_OPEN 1.0 1.5 0 0 1
C_3148645665_2391229483_0 RECT_OPEN 1.0 1.5 0 0 1
C_3148645665_3148645667_0 RECT_OPEN 1.0 1.5 0 0 1
C_3148645665_7479631170_0 RECT_OPEN 1.0 1.5 0 0 1
C_3148656434_3148656438_0 RECT_OPEN 1.0 1.5 0 0 1
C_3148656434_3148656436_0 RECT_OPEN 1.0 1.5 0 0 1
C_3148656434_2391229483_0 RECT_OPEN 1.0 1.5 0 0 1
C_3148645692_3148645653_0 RECT_OPEN 1.0 1.5 0 0 1
C_3148645692_3148645667_0 RECT_OPEN 1.0 1.5 0 0 1
C_3148645692_3148645664_0 RECT_OPEN 1.0 1.5 0 0 1
C_3148645692_2391229483_0 RECT_OPEN 1.0 1.5 0 0 1
C_2406966810_2406966812_0 RECT_OPEN 1.0 1.5 0 0 1
C_2406966810_6505394016_0 RECT_OPEN 1.0 1.5 0 0 1
C_2406966812_2406966810_0 RECT_OPEN 1.0 1.5 0 0 1
C_2406966812_10147078393_0 RECT_OPEN 1.0 1.5 0 0 1
C_6505394016_3170478574_0 RECT_OPEN 1.0 1.5 0 0 1
C_6505394016_11395791821_0 RECT_OPEN 1.0 1.5 0 0 1
C_10147078393_13903770309_0 RECT_OPEN 1.0 1.5 0 0 1
C_2407838682_10213547238_0 RECT_OPEN 1.0 1.5 0 0 1
C_2407838682_11011650785_0 RECT_OPEN 1.0 1.5 0 0 1
C_10213547238_8609029843_0 RECT_OPEN 1.0 1.5 0 0 1
C_10213547238_10213547236_0 RECT_OPEN 1.0 1.5 0 0 1
C_11011650785_12279397377_0 RECT_OPEN 1.0 1.5 0 0 1
C_11891163804_1614318635_0 RECT_OPEN 1.0 1.5 0 0 1
C_11891163804_11891163805_0 RECT_OPEN 1.0 1.5 0 0 1
C_2413006760_3150118040_0 RECT_OPEN 1.0 1.5 0 0 1
C_3150118040_9846394225_0 RECT_OPEN 1.0 1.5 0 0 1
C_3150118040_2413006760_0 RECT_OPEN 1.0 1.5 0 0 1
C_3150118040_6536473107_0 RECT_OPEN 1.0 1.5 0 0 1
C_2414360817_3157684367_0 RECT_OPEN 1.0 1.5 0 0 1
C_11509998750_11428038817_0 RECT_OPEN 1.0 1.5 0 0 1
C_2828324522_2828324523_0 RECT_OPEN 1.0 1.5 0 0 1
C_9708811990_9708811991_0 RECT_OPEN 1.0 1.5 0 0 1
C_9708811990_3148668115_0 RECT_OPEN 1.0 1.5 0 0 1
C_9708811990_2828324523_0 RECT_OPEN 1.0 1.5 0 0 1
C_3141425537_3141425534_0 RECT_OPEN 1.0 1.5 0 0 1
C_3141425538_3161309799_0 RECT_OPEN 1.0 1.5 0 0 1
C_3141425539_3141425540_0 RECT_OPEN 1.0 1.5 0 0 1
C_3141425540_3141425539_0 RECT_OPEN 1.0 1.5 0 0 1
C_3141425540_3141425541_0 RECT_OPEN 1.0 1.5 0 0 1
C_3141425540_3141425542_0 RECT_OPEN 1.0 1.5 0 0 1
C_3141425541_3141425540_0 RECT_OPEN 1.0 1.5 0 0 1
C_3141425543_3141425542_0 RECT_OPEN 1.0 1.5 0 0 1
C_3141452102_7328379166_0 RECT_OPEN 1.0 1.5 0 0 1
C_3141452102_13736567789_0 RECT_OPEN 1.0 1.5 0 0 1
C_3141452102_3141472722_0 RECT_OPEN 1.0 1.5 0 0 1
C_7328379166_3141452104_0 RECT_OPEN 1.0 1.5 0 0 1
C_7328379166_3141452102_0 RECT_OPEN 1.0 1.5 0 0 1
C_7328379166_7328379167_0 RECT_OPEN 1.0 1.5 0 0 1
C_7328379166_13736562866_0 RECT_OPEN 1.0 1.5 0 0 1
C_13736567789_13736567811_0 RECT_OPEN 1.0 1.5 0 0 1
C_13736567789_3141452102_0 RECT_OPEN 1.0 1.5 0 0 1
C_13736567789_13736562871_0 RECT_OPEN 1.0 1.5 0 0 1
C_3141452104_3141452108_0 RECT_OPEN 1.0 1.5 0 0 1
C_3141452104_7328379166_0 RECT_OPEN 1.0 1.5 0 0 1
C_3141452104_7262830544_0 RECT_OPEN 1.0 1.5 0 0 1
C_3141452108_3141452104_0 RECT_OPEN 1.0 1.5 0 0 1
C_3141452108_7262830543_0 RECT_OPEN 1.0 1.5 0 0 1
C_3141452108_3141452106_0 RECT_OPEN 1.0 1.5 0 0 1
C_7262830544_7262830543_0 RECT_OPEN 1.0 1.5 0 0 1
C_7262830544_3150107773_0 RECT_OPEN 1.0 1.5 0 0 1
C_7262830544_3141452104_0 RECT_OPEN 1.0 1.5 0 0 1
C_3141452106_3141452111_0 RECT_OPEN 1.0 1.5 0 0 1
C_3141452106_3141452107_0 RECT_OPEN 1.0 1.5 0 0 1
C_3141452106_3141452108_0 RECT_OPEN 1.0 1.5 0 0 1
C_3141452106_3141452113_0 RECT_OPEN 1.0 1.5 0 0 1
C_3141452111_3141452106_0 RECT_OPEN 1.0 1.5 0 0 1
C_3141452107_3141452106_0 RECT_OPEN 1.0 1.5 0 0 1
C_3141452113_3504895466_0 RECT_OPEN 1.0 1.5 0 0 1
C_3141452113_3141452114_0 RECT_OPEN 1.0 1.5 0 0 1
C_3141452113_3141452106_0 RECT_OPEN 1.0 1.5 0 0 1
C_7262830543_3141452108_0 RECT_OPEN 1.0 1.5 0 0 1
C_7262830543_7262830544_0 RECT_OPEN 1.0 1.5 0 0 1
C_7262830543_12651830520_0 RECT_OPEN 1.0 1.5 0 0 1
C_3504895466_3141452118_0 RECT_OPEN 1.0 1.5 0 0 1
C_3504895466_3141452113_0 RECT_OPEN 1.0 1.5 0 0 1
C_3504895466_3141452115_0 RECT_OPEN 1.0 1.5 0 0 1
C_3141452114_3141452113_0 RECT_OPEN 1.0 1.5 0 0 1
C_3141452115_3504895466_0 RECT_OPEN 1.0 1.5 0 0 1
C_3141452118_6136413730_0 RECT_OPEN 1.0 1.5 0 0 1
C_3141452118_4474704607_0 RECT_OPEN 1.0 1.5 0 0 1
C_3141452118_3504895466_0 RECT_OPEN 1.0 1.5 0 0 1
C_6136413730_3141452119_0 RECT_OPEN 1.0 1.5 0 0 1
C_6136413730_3141452118_0 RECT_OPEN 1.0 1.5 0 0 1
C_6136413730_6136413729_0 RECT_OPEN 1.0 1.5 0 0 1
C_4474704607_3141452118_0 RECT_OPEN 1.0 1.5 0 0 1
C_4474704607_7263153539_0 RECT_OPEN 1.0 1.5 0 0 1
C_4474704607_6152308058_0 RECT_OPEN 1.0 1.5 0 0 1
C_3141452119_6136413730_0 RECT_OPEN 1.0 1.5 0 0 1
C_3141452120_6136413729_0 RECT_OPEN 1.0 1.5 0 0 1
C_3141452120_10997029517_0 RECT_OPEN 1.0 1.5 0 0 1
C_3141452120_10997029523_0 RECT_OPEN 1.0 1.5 0 0 1
C_6136413729_3141452121_0 RECT_OPEN 1.0 1.5 0 0 1
C_6136413729_3141452120_0 RECT_OPEN 1.0 1.5 0 0 1
C_6136413729_6136413730_0 RECT_OPEN 1.0 1.5 0 0 1
C_10997029517_3141452120_0 RECT_OPEN 1.0 1.5 0 0 1
C_10997029523_3141452120_0 RECT_OPEN 1.0 1.5 0 0 1
C_3141452121_6136413729_0 RECT_OPEN 1.0 1.5 0 0 1
C_3141452121_3141473146_0 RECT_OPEN 1.0 1.5 0 0 1
C_3141452121_3141452122_0 RECT_OPEN 1.0 1.5 0 0 1
C_3141473146_3141473147_0 RECT_OPEN 1.0 1.5 0 0 1
C_3141473146_3141452121_0 RECT_OPEN 1.0 1.5 0 0 1
C_3141473146_3141473150_0 RECT_OPEN 1.0 1.5 0 0 1
C_3141452122_3141452126_0 RECT_OPEN 1.0 1.5 0 0 1
C_3141452122_3141452121_0 RECT_OPEN 1.0 1.5 0 0 1
C_3141452122_3868740751_0 RECT_OPEN 1.0 1.5 0 0 1
C_3141452122_3141452125_0 RECT_OPEN 1.0 1.5 0 0 1
C_3141452126_3141452122_0 RECT_OPEN 1.0 1.5 0 0 1
C_3868740751_3868740750_0 RECT_OPEN 1.0 1.5 0 0 1
C_3868740751_3141452122_0 RECT_OPEN 1.0 1.5 0 0 1
C_3868740751_12145839287_0 RECT_OPEN 1.0 1.5 0 0 1
C_3141452125_3141452122_0 RECT_OPEN 1.0 1.5 0 0 1
C_13742285040_3141472722_0 RECT_OPEN 1.0 1.5 0 0 1
C_13742285040_6180291884_0 RECT_OPEN 1.0 1.5 0 0 1
C_13742285040_13742285043_0 RECT_OPEN 1.0 1.5 0 0 1
C_3141473131_4462376684_0 RECT_OPEN 1.0 1.5 0 0 1
C_4462376684_3141473131_0 RECT_OPEN 1.0 1.5 0 0 1
C_4462376684_4462416977_0 RECT_OPEN 1.0 1.5 0 0 1
C_4462376684_4447421339_0 RECT_OPEN 1.0 1.5 0 0 1
C_4462376684_3170006931_0 RECT_OPEN 1.0 1.5 0 0 1
C_3141473133_4462416977_0 RECT_OPEN 1.0 1.5 0 0 1
C_3141473133_3141473132_0 RECT_OPEN 1.0 1.5 0 0 1
C_3141473133_3141473136_0 RECT_OPEN 1.0 1.5 0 0 1
C_3141473133_3170006931_0 RECT_OPEN 1.0 1.5 0 0 1
C_3141473135_3141473136_0 RECT_OPEN 1.0 1.5 0 0 1
C_3141473135_3141473132_0 RECT_OPEN 1.0 1.5 0 0 1
C_3141473135_3141473138_0 RECT_OPEN 1.0 1.5 0 0 1
C_4462416977_3141473134_0 RECT_OPEN 1.0 1.5 0 0 1
C_4462416977_3141473133_0 RECT_OPEN 1.0 1.5 0 0 1
C_4462416977_13738230989_0 RECT_OPEN 1.0 1.5 0 0 1
C_4462416977_4462376684_0 RECT_OPEN 1.0 1.5 0 0 1
C_3141473136_3141473135_0 RECT_OPEN 1.0 1.5 0 0 1
C_3141473136_3141473133_0 RECT_OPEN 1.0 1.5 0 0 1
C_3141473136_13738230989_0 RECT_OPEN 1.0 1.5 0 0 1
C_3170006931_3141473133_0 RECT_OPEN 1.0 1.5 0 0 1
C_3170006931_3170006930_0 RECT_OPEN 1.0 1.5 0 0 1
C_3170006931_4462376684_0 RECT_OPEN 1.0 1.5 0 0 1
C_3170006931_7328379173_0 RECT_OPEN 1.0 1.5 0 0 1
C_3141473134_4462416977_0 RECT_OPEN 1.0 1.5 0 0 1
C_3141473138_3141473139_0 RECT_OPEN 1.0 1.5 0 0 1
C_3141473138_3141473140_0 RECT_OPEN 1.0 1.5 0 0 1
C_3141473138_3141473135_0 RECT_OPEN 1.0 1.5 0 0 1
C_13738230989_4462384503_0 RECT_OPEN 1.0 1.5 0 0 1
C_13738230989_3141473136_0 RECT_OPEN 1.0 1.5 0 0 1
C_13738230989_4462416977_0 RECT_OPEN 1.0 1.5 0 0 1
C_3141473139_3141473138_0 RECT_OPEN 1.0 1.5 0 0 1
C_6505328002_3141473145_0 RECT_OPEN 1.0 1.5 0 0 1
C_6505328002_7328379175_0 RECT_OPEN 1.0 1.5 0 0 1
C_6505328002_3141473140_0 RECT_OPEN 1.0 1.5 0 0 1
C_3141473149_13738231243_0 RECT_OPEN 1.0 1.5 0 0 1
C_3141473149_10683903422_0 RECT_OPEN 1.0 1.5 0 0 1
C_3141473149_3141473145_0 RECT_OPEN 1.0 1.5 0 0 1
C_3141473147_3141473146_0 RECT_OPEN 1.0 1.5 0 0 1
C_13738231243_3141473149_0 RECT_OPEN 1.0 1.5 0 0 1
C_13738231243_13738231244_0 RECT_OPEN 1.0 1.5 0 0 1
C_13738231243_6142233154_0 RECT_OPEN 1.0 1.5 0 0 1
C_10683903422_3141473149_0 RECT_OPEN 1.0 1.5 0 0 1
C_3141473151_3141473150_0 RECT_OPEN 1.0 1.5 0 0 1
C_3504895273_3141473155_0 RECT_OPEN 1.0 1.5 0 0 1
C_3504895273_3141473152_0 RECT_OPEN 1.0 1.5 0 0 1
C_3504895273_3504895274_0 RECT_OPEN 1.0 1.5 0 0 1
C_3141473155_6195813805_0 RECT_OPEN 1.0 1.5 0 0 1
C_3141473155_3504895273_0 RECT_OPEN 1.0 1.5 0 0 1
C_3141473155_6180293490_0 RECT_OPEN 1.0 1.5 0 0 1
C_6180293490_13742285043_0 RECT_OPEN 1.0 1.5 0 0 1
C_6180293490_6195813805_0 RECT_OPEN 1.0 1.5 0 0 1
C_6180293490_3141473155_0 RECT_OPEN 1.0 1.5 0 0 1
C_3141475564_13743331026_0 RECT_OPEN 1.0 1.5 0 0 1
C_13743331026_3141475564_0 RECT_OPEN 1.0 1.5 0 0 1
C_13743331026_13743331025_0 RECT_OPEN 1.0 1.5 0 0 1
C_13743331026_13743331044_0 RECT_OPEN 1.0 1.5 0 0 1
C_6560163455_3141475567_0 RECT_OPEN 1.0 1.5 0 0 1
C_3148580144_10175047395_0 RECT_OPEN 1.0 1.5 0 0 1
C_3148580144_3148580145_0 RECT_OPEN 1.0 1.5 0 0 1
C_3148580144_12250445349_0 RECT_OPEN 1.0 1.5 0 0 1
C_10175047395_3148580144_0 RECT_OPEN 1.0 1.5 0 0 1
C_10175047395_10175047396_0 RECT_OPEN 1.0 1.5 0 0 1
C_10175047395_5724583886_0 RECT_OPEN 1.0 1.5 0 0 1
C_3148580145_3148580144_0 RECT_OPEN 1.0 1.5 0 0 1
C_12250445349_12250445350_0 RECT_OPEN 1.0 1.5 0 0 1
C_12250445349_3148580144_0 RECT_OPEN 1.0 1.5 0 0 1
C_7465559430_7465559431_0 RECT_OPEN 1.0 1.5 0 0 1
C_7465559430_11432092734_0 RECT_OPEN 1.0 1.5 0 0 1
C_7465559430_3148580198_0 RECT_OPEN 1.0 1.5 0 0 1
C_3148587479_7479630861_0 RECT_OPEN 1.0 1.5 0 0 1
C_3148587479_3148587482_0 RECT_OPEN 1.0 1.5 0 0 1
C_3148587479_6137643400_0 RECT_OPEN 1.0 1.5 0 0 1
C_7479630861_6137643401_0 RECT_OPEN 1.0 1.5 0 0 1
C_7479630861_3148587479_0 RECT_OPEN 1.0 1.5 0 0 1
C_7479630861_7479630860_0 RECT_OPEN 1.0 1.5 0 0 1
C_3148587482_3148587485_0 RECT_OPEN 1.0 1.5 0 0 1
C_3148587482_3148587479_0 RECT_OPEN 1.0 1.5 0 0 1
C_3148587482_13250405522_0 RECT_OPEN 1.0 1.5 0 0 1
C_3148587482_7479630867_0 RECT_OPEN 1.0 1.5 0 0 1
C_6137643400_3148587479_0 RECT_OPEN 1.0 1.5 0 0 1
C_6137643400_2099691584_0 RECT_OPEN 1.0 1.5 0 0 1
C_3148587485_7479630847_0 RECT_OPEN 1.0 1.5 0 0 1
C_3148587485_7479630882_0 RECT_OPEN 1.0 1.5 0 0 1
C_3148587485_3148587482_0 RECT_OPEN 1.0 1.5 0 0 1
C_13250405522_3148587482_0 RECT_OPEN 1.0 1.5 0 0 1
C_7479630867_7479630868_0 RECT_OPEN 1.0 1.5 0 0 1
C_7479630867_7479630871_0 RECT_OPEN 1.0 1.5 0 0 1
C_7479630867_3148587482_0 RECT_OPEN 1.0 1.5 0 0 1
C_7479630847_3148587485_0 RECT_OPEN 1.0 1.5 0 0 1
C_7479630847_7479630846_0 RECT_OPEN 1.0 1.5 0 0 1
C_7479630847_3148587489_0 RECT_OPEN 1.0 1.5 0 0 1
C_7479630882_7479630883_0 RECT_OPEN 1.0 1.5 0 0 1
C_7479630882_3148587485_0 RECT_OPEN 1.0 1.5 0 0 1
C_7479630882_7479630878_0 RECT_OPEN 1.0 1.5 0 0 1
C_3148587489_3148587495_0 RECT_OPEN 1.0 1.5 0 0 1
C_3148587489_7479630469_0 RECT_OPEN 1.0 1.5 0 0 1
C_3148587489_6914358632_0 RECT_OPEN 1.0 1.5 0 0 1
C_3148587489_7479630847_0 RECT_OPEN 1.0 1.5 0 0 1
C_3148587495_3148587489_0 RECT_OPEN 1.0 1.5 0 0 1
C_3148587495_7479630500_0 RECT_OPEN 1.0 1.5 0 0 1
C_3148587495_7479630520_0 RECT_OPEN 1.0 1.5 0 0 1
C_7479630469_3148587489_0 RECT_OPEN 1.0 1.5 0 0 1
C_7479630469_7479630456_0 RECT_OPEN 1.0 1.5 0 0 1
C_7479630469_7479630444_0 RECT_OPEN 1.0 1.5 0 0 1
C_6914358632_6914358631_0 RECT_OPEN 1.0 1.5 0 0 1
C_6914358632_6914358633_0 RECT_OPEN 1.0 1.5 0 0 1
C_6914358632_3148587489_0 RECT_OPEN 1.0 1.5 0 0 1
C_3148587490_6194830173_0 RECT_OPEN 1.0 1.5 0 0 1
C_3148587490_5354906276_0 RECT_OPEN 1.0 1.5 0 0 1
C_3148587490_7479630459_0 RECT_OPEN 1.0 1.5 0 0 1
C_6194830173_7147081175_0 RECT_OPEN 1.0 1.5 0 0 1
C_6194830173_3148587490_0 RECT_OPEN 1.0 1.5 0 0 1
C_6194830173_6194830177_0 RECT_OPEN 1.0 1.5 0 0 1
C_7479630459_3148587490_0 RECT_OPEN 1.0 1.5 0 0 1
C_7479630500_3148587495_0 RECT_OPEN 1.0 1.5 0 0 1
C_7479630520_7479630545_0 RECT_OPEN 1.0 1.5 0 0 1
C_7479630520_7479630537_0 RECT_OPEN 1.0 1.5 0 0 1
C_7479630520_3148587495_0 RECT_OPEN 1.0 1.5 0 0 1
C_3148587502_6143252361_0 RECT_OPEN 1.0 1.5 0 0 1
C_3148587502_7436685266_0 RECT_OPEN 1.0 1.5 0 0 1
C_6143252361_6143252362_0 RECT_OPEN 1.0 1.5 0 0 1
C_6143252361_6143252363_0 RECT_OPEN 1.0 1.5 0 0 1
C_6143252361_3148587502_0 RECT_OPEN 1.0 1.5 0 0 1
C_7436685266_7479631027_0 RECT_OPEN 1.0 1.5 0 0 1
C_7436685266_7479630316_0 RECT_OPEN 1.0 1.5 0 0 1
C_7436685266_3148587502_0 RECT_OPEN 1.0 1.5 0 0 1
C_7478154731_3148587503_0 RECT_OPEN 1.0 1.5 0 0 1
C_7478154731_7478154719_0 RECT_OPEN 1.0 1.5 0 0 1
C_6536473134_6536473137_0 RECT_OPEN 1.0 1.5 0 0 1
C_6536473134_6536473137_1 RECT_OPEN 1.0 1.5 0 0 1
C_6536473134_3148609358_0 RECT_OPEN 1.0 1.5 0 0 1
C_3148614498_3148620681_0 RECT_OPEN 1.0 1.5 0 0 1
C_3148614498_4446468155_0 RECT_OPEN 1.0 1.5 0 0 1
C_3148620681_10182373813_0 RECT_OPEN 1.0 1.5 0 0 1
C_3148620681_3148614498_0 RECT_OPEN 1.0 1.5 0 0 1
C_3148620681_3148620680_0 RECT_OPEN 1.0 1.5 0 0 1
C_4446468155_4446468152_0 RECT_OPEN 1.0 1.5 0 0 1
C_4446468155_3148620677_0 RECT_OPEN 1.0 1.5 0 0 1
C_4446468155_3148614498_0 RECT_OPEN 1.0 1.5 0 0 1
C_3148614507_6885777459_0 RECT_OPEN 1.0 1.5 0 0 1
C_3148614507_10994159748_0 RECT_OPEN 1.0 1.5 0 0 1
C_3148614507_3148614513_0 RECT_OPEN 1.0 1.5 0 0 1
C_6885777459_6902137283_0 RECT_OPEN 1.0 1.5 0 0 1
C_6885777459_6194014544_0 RECT_OPEN 1.0 1.5 0 0 1
C_6885777459_3148614507_0 RECT_OPEN 1.0 1.5 0 0 1
C_10994159748_10994159749_0 RECT_OPEN 1.0 1.5 0 0 1
C_10994159748_3148614507_0 RECT_OPEN 1.0 1.5 0 0 1
C_10994159748_3148614512_0 RECT_OPEN 1.0 1.5 0 0 1
C_3148614513_4475027232_0 RECT_OPEN 1.0 1.5 0 0 1
C_3148614513_3148614507_0 RECT_OPEN 1.0 1.5 0 0 1
C_3148614513_3148614516_0 RECT_OPEN 1.0 1.5 0 0 1
C_4475027232_3148614513_0 RECT_OPEN 1.0 1.5 0 0 1
C_4475027232_4475027221_0 RECT_OPEN 1.0 1.5 0 0 1
C_4475027232_3148614515_0 RECT_OPEN 1.0 1.5 0 0 1
C_3148614516_3148614515_0 RECT_OPEN 1.0 1.5 0 0 1
C_3148614516_3148614513_0 RECT_OPEN 1.0 1.5 0 0 1
C_3148614516_3148620677_0 RECT_OPEN 1.0 1.5 0 0 1
C_3148614515_3148614516_0 RECT_OPEN 1.0 1.5 0 0 1
C_3148614515_6562178338_0 RECT_OPEN 1.0 1.5 0 0 1
C_3148614515_4475027232_0 RECT_OPEN 1.0 1.5 0 0 1
C_6562178338_3148620677_0 RECT_OPEN 1.0 1.5 0 0 1
C_6562178338_3148614515_0 RECT_OPEN 1.0 1.5 0 0 1
C_6562178338_6194089776_0 RECT_OPEN 1.0 1.5 0 0 1
C_3148620677_6562178338_0 RECT_OPEN 1.0 1.5 0 0 1
C_3148620677_3148614516_0 RECT_OPEN 1.0 1.5 0 0 1
C_3148620677_4446468155_0 RECT_OPEN 1.0 1.5 0 0 1
C_3148619693_3148657085_0 RECT_OPEN 1.0 1.5 0 0 1
C_3148657085_3148619693_0 RECT_OPEN 1.0 1.5 0 0 1
C_3148657085_11106970230_0 RECT_OPEN 1.0 1.5 0 0 1
C_3148657085_4475027228_0 RECT_OPEN 1.0 1.5 0 0 1
C_3148619697_3148619698_0 RECT_OPEN 1.0 1.5 0 0 1
C_3148619697_6194291027_0 RECT_OPEN 1.0 1.5 0 0 1
C_3148619697_3148620680_0 RECT_OPEN 1.0 1.5 0 0 1
C_3148619698_3148619697_0 RECT_OPEN 1.0 1.5 0 0 1
C_3148619698_3148619699_0 RECT_OPEN 1.0 1.5 0 0 1
C_3148619698_4475027228_0 RECT_OPEN 1.0 1.5 0 0 1
C_6194291027_3148619697_0 RECT_OPEN 1.0 1.5 0 0 1
C_6194291027_11408964582_0 RECT_OPEN 1.0 1.5 0 0 1
C_6194291027_7484216053_0 RECT_OPEN 1.0 1.5 0 0 1
C_3148620680_3148620676_0 RECT_OPEN 1.0 1.5 0 0 1
C_3148620680_4446471884_0 RECT_OPEN 1.0 1.5 0 0 1
C_3148620680_3148620681_0 RECT_OPEN 1.0 1.5 0 0 1
C_3148620680_3148619697_0 RECT_OPEN 1.0 1.5 0 0 1
C_3148619699_3148619698_0 RECT_OPEN 1.0 1.5 0 0 1
C_4475027228_4475027229_0 RECT_OPEN 1.0 1.5 0 0 1
C_4475027228_3148619698_0 RECT_OPEN 1.0 1.5 0 0 1
C_4475027228_3148657085_0 RECT_OPEN 1.0 1.5 0 0 1
C_3148620676_3148620680_0 RECT_OPEN 1.0 1.5 0 0 1
C_4446471884_3148620680_0 RECT_OPEN 1.0 1.5 0 0 1
C_4446471884_6194089776_0 RECT_OPEN 1.0 1.5 0 0 1
C_4446471884_4446471885_0 RECT_OPEN 1.0 1.5 0 0 1
C_10182373813_3148620681_0 RECT_OPEN 1.0 1.5 0 0 1
C_10182373813_10182373816_0 RECT_OPEN 1.0 1.5 0 0 1
C_3148620696_4475027221_0 RECT_OPEN 1.0 1.5 0 0 1
C_3148620696_4475027226_0 RECT_OPEN 1.0 1.5 0 0 1
C_3148620696_3148620698_0 RECT_OPEN 1.0 1.5 0 0 1
C_4475027221_3148620696_0 RECT_OPEN 1.0 1.5 0 0 1
C_4475027221_4475027224_0 RECT_OPEN 1.0 1.5 0 0 1
C_4475027221_4475027232_0 RECT_OPEN 1.0 1.5 0 0 1
C_4475027226_4475027222_0 RECT_OPEN 1.0 1.5 0 0 1
C_4475027226_4475027231_0 RECT_OPEN 1.0 1.5 0 0 1
C_4475027226_3148620696_0 RECT_OPEN 1.0 1.5 0 0 1
C_3148620698_3148620696_0 RECT_OPEN 1.0 1.5 0 0 1
C_5370756307_5370756309_0 RECT_OPEN 1.0 1.5 0 0 1
C_5370756307_2446054167_0 RECT_OPEN 1.0 1.5 0 0 1
C_13928938241_11260020610_0 RECT_OPEN 1.0 1.5 0 0 1
C_3148645678_3148645652_0 RECT_OPEN 1.0 1.5 0 0 1
C_3148645678_7479631168_0 RECT_OPEN 1.0 1.5 0 0 1
C_3148645678_3148645681_0 RECT_OPEN 1.0 1.5 0 0 1
C_3148645653_3148645652_0 RECT_OPEN 1.0 1.5 0 0 1
C_3148645653_3148645681_0 RECT_OPEN 1.0 1.5 0 0 1
C_3148645653_3148645692_0 RECT_OPEN 1.0 1.5 0 0 1
C_3148645653_3148645655_0 RECT_OPEN 1.0 1.5 0 0 1
C_3148645681_3148645684_0 RECT_OPEN 1.0 1.5 0 0 1
C_3148645681_3148645653_0 RECT_OPEN 1.0 1.5 0 0 1
C_3148645681_3148645673_0 RECT_OPEN 1.0 1.5 0 0 1
C_3148645681_3148645678_0 RECT_OPEN 1.0 1.5 0 0 1
C_3148645655_3148655285_0 RECT_OPEN 1.0 1.5 0 0 1
C_3148645655_3148655284_0 RECT_OPEN 1.0 1.5 0 0 1
C_3148645655_3148645653_0 RECT_OPEN 1.0 1.5 0 0 1
C_3148655285_3148645673_0 RECT_OPEN 1.0 1.5 0 0 1
C_3148655285_3148645655_0 RECT_OPEN 1.0 1.5 0 0 1
C_3148655285_3148655283_0 RECT_OPEN 1.0 1.5 0 0 1
C_3148655284_3148645655_0 RECT_OPEN 1.0 1.5 0 0 1
C_3148655284_3148645664_0 RECT_OPEN 1.0 1.5 0 0 1
C_3148655284_3148655283_0 RECT_OPEN 1.0 1.5 0 0 1
C_3148645664_3148655284_0 RECT_OPEN 1.0 1.5 0 0 1
C_3148645664_3148645670_0 RECT_OPEN 1.0 1.5 0 0 1
C_3148645664_3148645692_0 RECT_OPEN 1.0 1.5 0 0 1
C_3148645670_3148645667_0 RECT_OPEN 1.0 1.5 0 0 1
C_3148645670_3148645664_0 RECT_OPEN 1.0 1.5 0 0 1
C_3148645670_3148645671_0 RECT_OPEN 1.0 1.5 0 0 1
C_3148645667_3148645670_0 RECT_OPEN 1.0 1.5 0 0 1
C_3148645667_3148645665_0 RECT_OPEN 1.0 1.5 0 0 1
C_3148645667_3148645692_0 RECT_OPEN 1.0 1.5 0 0 1
C_3148645667_3148645691_0 RECT_OPEN 1.0 1.5 0 0 1
C_7479631170_3148645665_0 RECT_OPEN 1.0 1.5 0 0 1
C_3148645691_7479631133_0 RECT_OPEN 1.0 1.5 0 0 1
C_3148645691_6888084544_0 RECT_OPEN 1.0 1.5 0 0 1
C_3148645691_6888084544_1 RECT_OPEN 1.0 1.5 0 0 1
C_3148645691_3148645667_0 RECT_OPEN 1.0 1.5 0 0 1
C_3148655234_3148645671_0 RECT_OPEN 1.0 1.5 0 0 1
C_3148655234_3148655235_0 RECT_OPEN 1.0 1.5 0 0 1
C_3148655234_6888084544_0 RECT_OPEN 1.0 1.5 0 0 1
C_3148645673_3148645685_0 RECT_OPEN 1.0 1.5 0 0 1
C_3148645673_3148655285_0 RECT_OPEN 1.0 1.5 0 0 1
C_3148645673_3148645681_0 RECT_OPEN 1.0 1.5 0 0 1
C_3148645685_3148645674_0 RECT_OPEN 1.0 1.5 0 0 1
C_3148645685_3148645673_0 RECT_OPEN 1.0 1.5 0 0 1
C_3148645685_3148645684_0 RECT_OPEN 1.0 1.5 0 0 1
C_3148645674_3148645675_0 RECT_OPEN 1.0 1.5 0 0 1
C_3148645674_3148645685_0 RECT_OPEN 1.0 1.5 0 0 1
C_3148645674_7479631201_0 RECT_OPEN 1.0 1.5 0 0 1
C_3148645675_3148645674_0 RECT_OPEN 1.0 1.5 0 0 1
C_3148645675_3148645700_0 RECT_OPEN 1.0 1.5 0 0 1
C_3148645675_7479631193_0 RECT_OPEN 1.0 1.5 0 0 1
C_7479631201_3148645674_0 RECT_OPEN 1.0 1.5 0 0 1
C_3148645700_3148645677_0 RECT_OPEN 1.0 1.5 0 0 1
C_3148645700_3148645699_0 RECT_OPEN 1.0 1.5 0 0 1
C_3148645700_3148645675_0 RECT_OPEN 1.0 1.5 0 0 1
C_7479631193_3148645693_0 RECT_OPEN 1.0 1.5 0 0 1
C_7479631193_7479631192_0 RECT_OPEN 1.0 1.5 0 0 1
C_7479631193_3148645675_0 RECT_OPEN 1.0 1.5 0 0 1
C_3148645677_3148645700_0 RECT_OPEN 1.0 1.5 0 0 1
C_7479631168_3148645678_0 RECT_OPEN 1.0 1.5 0 0 1
C_7479631168_3148645683_0 RECT_OPEN 1.0 1.5 0 0 1
C_7479631168_7479631169_0 RECT_OPEN 1.0 1.5 0 0 1
C_3148645684_3148645685_0 RECT_OPEN 1.0 1.5 0 0 1
C_3148645684_3148645683_0 RECT_OPEN 1.0 1.5 0 0 1
C_3148645684_3148645693_0 RECT_OPEN 1.0 1.5 0 0 1
C_3148645684_3148645681_0 RECT_OPEN 1.0 1.5 0 0 1
C_3148645683_7479631168_0 RECT_OPEN 1.0 1.5 0 0 1
C_3148645683_3148645684_0 RECT_OPEN 1.0 1.5 0 0 1
C_3148645683_3148645693_0 RECT_OPEN 1.0 1.5 0 0 1
C_3148645693_7479631193_0 RECT_OPEN 1.0 1.5 0 0 1
C_3148645693_3148645698_0 RECT_OPEN 1.0 1.5 0 0 1
C_3148645693_3148645684_0 RECT_OPEN 1.0 1.5 0 0 1
C_3148645693_3148645683_0 RECT_OPEN 1.0 1.5 0 0 1
C_7479631133_7479631135_0 RECT_OPEN 1.0 1.5 0 0 1
C_7479631133_3148645691_0 RECT_OPEN 1.0 1.5 0 0 1
C_7479631133_7479631134_0 RECT_OPEN 1.0 1.5 0 0 1
C_6888084544_3148645691_0 RECT_OPEN 1.0 1.5 0 0 1
C_6888084544_3148645691_1 RECT_OPEN 1.0 1.5 0 0 1
C_6888084544_3148655234_0 RECT_OPEN 1.0 1.5 0 0 1
C_3148645698_3148645693_0 RECT_OPEN 1.0 1.5 0 0 1
C_3148645698_7479631181_0 RECT_OPEN 1.0 1.5 0 0 1
C_3148645698_3148645696_0 RECT_OPEN 1.0 1.5 0 0 1
C_3148645696_3148645698_0 RECT_OPEN 1.0 1.5 0 0 1
C_3148645697_7479631182_0 RECT_OPEN 1.0 1.5 0 0 1
C_7479631182_7479631181_0 RECT_OPEN 1.0 1.5 0 0 1
C_7479631182_3148645697_0 RECT_OPEN 1.0 1.5 0 0 1
C_7479631182_7479631187_0 RECT_OPEN 1.0 1.5 0 0 1
C_7479631181_3148645698_0 RECT_OPEN 1.0 1.5 0 0 1
C_7479631181_7479631182_0 RECT_OPEN 1.0 1.5 0 0 1
C_7479631181_7479631180_0 RECT_OPEN 1.0 1.5 0 0 1
C_3148645699_3148645700_0 RECT_OPEN 1.0 1.5 0 0 1
C_3148655235_3148655234_0 RECT_OPEN 1.0 1.5 0 0 1
C_3148655239_3148655236_0 RECT_OPEN 1.0 1.5 0 0 1
C_3148655239_3148655287_0 RECT_OPEN 1.0 1.5 0 0 1
C_3148655239_3148655283_0 RECT_OPEN 1.0 1.5 0 0 1
C_3148655239_3148655242_0 RECT_OPEN 1.0 1.5 0 0 1
C_7479631141_3148655236_0 RECT_OPEN 1.0 1.5 0 0 1
C_3148655287_3148655239_0 RECT_OPEN 1.0 1.5 0 0 1
C_3148655287_3148655243_0 RECT_OPEN 1.0 1.5 0 0 1
C_3148655287_3148655290_0 RECT_OPEN 1.0 1.5 0 0 1
C_3148655283_3148655239_0 RECT_OPEN 1.0 1.5 0 0 1
C_3148655283_3148655284_0 RECT_OPEN 1.0 1.5 0 0 1
C_3148655283_3148655285_0 RECT_OPEN 1.0 1.5 0 0 1
C_3148655242_3148655239_0 RECT_OPEN 1.0 1.5 0 0 1
C_3148655243_3148655287_0 RECT_OPEN 1.0 1.5 0 0 1
C_3148655243_3148655291_0 RECT_OPEN 1.0 1.5 0 0 1
C_3148655243_3148655248_0 RECT_OPEN 1.0 1.5 0 0 1
C_3148655291_3148655243_0 RECT_OPEN 1.0 1.5 0 0 1
C_3148655291_3148655249_0 RECT_OPEN 1.0 1.5 0 0 1
C_3148655291_3148655295_0 RECT_OPEN 1.0 1.5 0 0 1
C_3148655248_3148655243_0 RECT_OPEN 1.0 1.5 0 0 1
C_3148655249_3148655291_0 RECT_OPEN 1.0 1.5 0 0 1
C_3148655249_7479631204_0 RECT_OPEN 1.0 1.5 0 0 1
C_3148655249_3148655253_0 RECT_OPEN 1.0 1.5 0 0 1
C_7479631204_3148655249_0 RECT_OPEN 1.0 1.5 0 0 1
C_7479631204_12695959789_0 RECT_OPEN 1.0 1.5 0 0 1
C_7479631204_3148655308_0 RECT_OPEN 1.0 1.5 0 0 1
C_3148655253_3148655249_0 RECT_OPEN 1.0 1.5 0 0 1
C_3148655260_7479631146_0 RECT_OPEN 1.0 1.5 0 0 1
C_7479631146_3148655261_0 RECT_OPEN 1.0 1.5 0 0 1
C_7479631146_3148655260_0 RECT_OPEN 1.0 1.5 0 0 1
C_7479631146_12695959789_0 RECT_OPEN 1.0 1.5 0 0 1
C_3148655261_7479631146_0 RECT_OPEN 1.0 1.5 0 0 1
C_3148655261_7479631148_0 RECT_OPEN 1.0 1.5 0 0 1
C_3148655261_3148655262_0 RECT_OPEN 1.0 1.5 0 0 1
C_7479631148_3148655261_0 RECT_OPEN 1.0 1.5 0 0 1
C_7479631148_3148655263_0 RECT_OPEN 1.0 1.5 0 0 1
C_7479631148_7479631147_0 RECT_OPEN 1.0 1.5 0 0 1
C_3148655262_3148655261_0 RECT_OPEN 1.0 1.5 0 0 1
C_3148655263_7479631148_0 RECT_OPEN 1.0 1.5 0 0 1
C_3148655263_3148655266_0 RECT_OPEN 1.0 1.5 0 0 1
C_3148655263_3148655264_0 RECT_OPEN 1.0 1.5 0 0 1
C_3148655264_3148655263_0 RECT_OPEN 1.0 1.5 0 0 1
C_3148655265_3148655266_0 RECT_OPEN 1.0 1.5 0 0 1
C_3148655268_7479631149_0 RECT_OPEN 1.0 1.5 0 0 1
C_3148655268_7479631210_0 RECT_OPEN 1.0 1.5 0 0 1
C_3148655268_3148655266_0 RECT_OPEN 1.0 1.5 0 0 1
C_3148655268_3148656432_0 RECT_OPEN 1.0 1.5 0 0 1
C_7479631149_3148655325_0 RECT_OPEN 1.0 1.5 0 0 1
C_7479631149_3148655268_0 RECT_OPEN 1.0 1.5 0 0 1
C_7479631149_7479631152_0 RECT_OPEN 1.0 1.5 0 0 1
C_7479631210_3148655268_0 RECT_OPEN 1.0 1.5 0 0 1
C_7479631210_3148655275_0 RECT_OPEN 1.0 1.5 0 0 1
C_7479631210_7479631213_0 RECT_OPEN 1.0 1.5 0 0 1
C_3148656432_3148655268_0 RECT_OPEN 1.0 1.5 0 0 1
C_9720271254_12147412804_0 RECT_OPEN 1.0 1.5 0 0 1
C_9720271254_12147412806_0 RECT_OPEN 1.0 1.5 0 0 1
C_9720271254_3148655277_0 RECT_OPEN 1.0 1.5 0 0 1
C_3148655290_3148655287_0 RECT_OPEN 1.0 1.5 0 0 1
C_3148655295_3148655302_0 RECT_OPEN 1.0 1.5 0 0 1
C_3148655295_3148655291_0 RECT_OPEN 1.0 1.5 0 0 1
C_3148655295_3148655300_0 RECT_OPEN 1.0 1.5 0 0 1
C_3148655302_3148655308_0 RECT_OPEN 1.0 1.5 0 0 1
C_3148655302_3148655295_0 RECT_OPEN 1.0 1.5 0 0 1
C_3148655302_3148655312_0 RECT_OPEN 1.0 1.5 0 0 1
C_3148655300_3148655295_0 RECT_OPEN 1.0 1.5 0 0 1
C_3148655296_12695959789_0 RECT_OPEN 1.0 1.5 0 0 1
C_3148655296_3148655317_0 RECT_OPEN 1.0 1.5 0 0 1
C_3148655296_3148655299_0 RECT_OPEN 1.0 1.5 0 0 1
C_12695959789_7479631204_0 RECT_OPEN 1.0 1.5 0 0 1
C_12695959789_3148655296_0 RECT_OPEN 1.0 1.5 0 0 1
C_12695959789_7479631146_0 RECT_OPEN 1.0 1.5 0 0 1
C_3148655317_3148655296_0 RECT_OPEN 1.0 1.5 0 0 1
C_3148655317_3148655325_0 RECT_OPEN 1.0 1.5 0 0 1
C_3148655317_3148655322_0 RECT_OPEN 1.0 1.5 0 0 1
C_3148655299_3148655296_0 RECT_OPEN 1.0 1.5 0 0 1
C_3148655299_3148655307_0 RECT_OPEN 1.0 1.5 0 0 1
C_3148655299_3148655313_0 RECT_OPEN 1.0 1.5 0 0 1
C_3148655307_3148655299_0 RECT_OPEN 1.0 1.5 0 0 1
C_3148655313_3148655308_0 RECT_OPEN 1.0 1.5 0 0 1
C_3148655313_3148655299_0 RECT_OPEN 1.0 1.5 0 0 1
C_3148655313_3148655316_0 RECT_OPEN 1.0 1.5 0 0 1
C_3148655308_3148655313_0 RECT_OPEN 1.0 1.5 0 0 1
C_3148655308_3148655302_0 RECT_OPEN 1.0 1.5 0 0 1
C_3148655308_7479631204_0 RECT_OPEN 1.0 1.5 0 0 1
C_3148655312_3148655302_0 RECT_OPEN 1.0 1.5 0 0 1
C_3148655316_3148655313_0 RECT_OPEN 1.0 1.5 0 0 1
C_3148655325_3148655317_0 RECT_OPEN 1.0 1.5 0 0 1
C_3148655325_7479631149_0 RECT_OPEN 1.0 1.5 0 0 1
C_3148655325_3148655328_0 RECT_OPEN 1.0 1.5 0 0 1
C_3148655322_3148655317_0 RECT_OPEN 1.0 1.5 0 0 1
C_3148655328_3148655325_0 RECT_OPEN 1.0 1.5 0 0 1
C_3148656436_3148656435_0 RECT_OPEN 1.0 1.5 0 0 1
C_3148656436_3148656434_0 RECT_OPEN 1.0 1.5 0 0 1
C_3148656436_7479631153_0 RECT_OPEN 1.0 1.5 0 0 1
C_3148656435_3148656436_0 RECT_OPEN 1.0 1.5 0 0 1
C_7479631153_3148656436_0 RECT_OPEN 1.0 1.5 0 0 1
C_3148656440_3148656438_0 RECT_OPEN 1.0 1.5 0 0 1
C_3148656442_10994386528_0 RECT_OPEN 1.0 1.5 0 0 1
C_3148656442_10994402342_0 RECT_OPEN 1.0 1.5 0 0 1
C_3148656442_3148656446_0 RECT_OPEN 1.0 1.5 0 0 1
C_10994386528_3148656442_0 RECT_OPEN 1.0 1.5 0 0 1
C_10994386528_3148656451_0 RECT_OPEN 1.0 1.5 0 0 1
C_10994386528_12443901195_0 RECT_OPEN 1.0 1.5 0 0 1
C_10994402342_3148656442_0 RECT_OPEN 1.0 1.5 0 0 1
C_10994402342_10994411032_0 RECT_OPEN 1.0 1.5 0 0 1
C_10994402342_10994402343_0 RECT_OPEN 1.0 1.5 0 0 1
C_3148656446_3148656442_0 RECT_OPEN 1.0 1.5 0 0 1
C_3148656451_3148656447_0 RECT_OPEN 1.0 1.5 0 0 1
C_3148656451_10994386528_0 RECT_OPEN 1.0 1.5 0 0 1
C_3148656451_12443901843_0 RECT_OPEN 1.0 1.5 0 0 1
C_10994386529_3148656447_0 RECT_OPEN 1.0 1.5 0 0 1
C_12443901843_3148656451_0 RECT_OPEN 1.0 1.5 0 0 1
C_7484216048_10182376309_0 RECT_OPEN 1.0 1.5 0 0 1
C_7484216048_3148657060_0 RECT_OPEN 1.0 1.5 0 0 1
C_7484216048_7484216047_0 RECT_OPEN 1.0 1.5 0 0 1
C_12144258014_4445503529_0 RECT_OPEN 1.0 1.5 0 0 1
C_12144258014_12144258013_0 RECT_OPEN 1.0 1.5 0 0 1
C_12144258014_3148657060_0 RECT_OPEN 1.0 1.5 0 0 1
C_3148657069_10182376307_0 RECT_OPEN 1.0 1.5 0 0 1
C_10182376307_3148657069_0 RECT_OPEN 1.0 1.5 0 0 1
C_10182376307_10182376308_0 RECT_OPEN 1.0 1.5 0 0 1
C_10182376307_10182376305_0 RECT_OPEN 1.0 1.5 0 0 1
C_3148657081_4475027129_0 RECT_OPEN 1.0 1.5 0 0 1
C_3148657081_6194014544_0 RECT_OPEN 1.0 1.5 0 0 1
C_3148657081_3148657084_0 RECT_OPEN 1.0 1.5 0 0 1
C_4475027129_3148657081_0 RECT_OPEN 1.0 1.5 0 0 1
C_6194014544_3148657081_0 RECT_OPEN 1.0 1.5 0 0 1
C_6194014544_6885777459_0 RECT_OPEN 1.0 1.5 0 0 1
C_6194014544_6194014538_0 RECT_OPEN 1.0 1.5 0 0 1
C_3148657084_3148657081_0 RECT_OPEN 1.0 1.5 0 0 1
C_11106970230_3148657085_0 RECT_OPEN 1.0 1.5 0 0 1
C_10172979414_3148667896_0 RECT_OPEN 1.0 1.5 0 0 1
C_10172979414_10172979415_0 RECT_OPEN 1.0 1.5 0 0 1
C_10172979414_3157670219_0 RECT_OPEN 1.0 1.5 0 0 1
C_6204951065_3148667896_0 RECT_OPEN 1.0 1.5 0 0 1
C_3148667908_3148667904_0 RECT_OPEN 1.0 1.5 0 0 1
C_3148667924_6194008055_0 RECT_OPEN 1.0 1.5 0 0 1
C_6194008055_3148667924_0 RECT_OPEN 1.0 1.5 0 0 1
C_6194008055_3148667925_0 RECT_OPEN 1.0 1.5 0 0 1
C_6194008055_6194008056_0 RECT_OPEN 1.0 1.5 0 0 1
C_3148667925_6194008055_0 RECT_OPEN 1.0 1.5 0 0 1
C_3148667925_3148668030_0 RECT_OPEN 1.0 1.5 0 0 1
C_3148667925_10172979410_0 RECT_OPEN 1.0 1.5 0 0 1
C_3148668030_3148667925_0 RECT_OPEN 1.0 1.5 0 0 1
C_3148668030_3872533486_0 RECT_OPEN 1.0 1.5 0 0 1
C_3148668030_10172979411_0 RECT_OPEN 1.0 1.5 0 0 1
C_10172979410_10172979411_0 RECT_OPEN 1.0 1.5 0 0 1
C_10172979410_3148668029_0 RECT_OPEN 1.0 1.5 0 0 1
C_10172979410_3148667925_0 RECT_OPEN 1.0 1.5 0 0 1
C_3148668029_10172979410_0 RECT_OPEN 1.0 1.5 0 0 1
C_10172979411_10172979410_0 RECT_OPEN 1.0 1.5 0 0 1
C_10172979411_3148668037_0 RECT_OPEN 1.0 1.5 0 0 1
C_10172979411_3148668030_0 RECT_OPEN 1.0 1.5 0 0 1
C_3148668041_3148668038_0 RECT_OPEN 1.0 1.5 0 0 1
C_3148668043_3148668044_0 RECT_OPEN 1.0 1.5 0 0 1
C_3148668045_3148668044_0 RECT_OPEN 1.0 1.5 0 0 1
C_10172982419_3148668048_0 RECT_OPEN 1.0 1.5 0 0 1
C_6204951079_3148668048_0 RECT_OPEN 1.0 1.5 0 0 1
C_5726284291_3148668100_0 RECT_OPEN 1.0 1.5 0 0 1
C_3148668105_3148668106_0 RECT_OPEN 1.0 1.5 0 0 1
C_3148668105_10172979380_0 RECT_OPEN 1.0 1.5 0 0 1
C_3148668105_3148668107_0 RECT_OPEN 1.0 1.5 0 0 1
C_3148668106_3148668105_0 RECT_OPEN 1.0 1.5 0 0 1
C_3148668111_10172979382_0 RECT_OPEN 1.0 1.5 0 0 1
C_3148668111_3148668107_0 RECT_OPEN 1.0 1.5 0 0 1
C_3148668111_3148668112_0 RECT_OPEN 1.0 1.5 0 0 1
C_10172979382_3148668111_0 RECT_OPEN 1.0 1.5 0 0 1
C_10172979382_11432115299_0 RECT_OPEN 1.0 1.5 0 0 1
C_10172979382_3148668112_0 RECT_OPEN 1.0 1.5 0 0 1
C_3148668115_10173119095_0 RECT_OPEN 1.0 1.5 0 0 1
C_3148668115_9708811990_0 RECT_OPEN 1.0 1.5 0 0 1
C_3148668115_3148668116_0 RECT_OPEN 1.0 1.5 0 0 1
C_10173119095_3148668115_0 RECT_OPEN 1.0 1.5 0 0 1
C_10173119095_10173119096_0 RECT_OPEN 1.0 1.5 0 0 1
C_10173119095_6758646579_0 RECT_OPEN 1.0 1.5 0 0 1
C_3148668116_3148668115_0 RECT_OPEN 1.0 1.5 0 0 1
C_3149619837_3149619853_0 RECT_OPEN 1.0 1.5 0 0 1
C_3149619838_10994470325_0 RECT_OPEN 1.0 1.5 0 0 1
C_10994470325_3149619838_0 RECT_OPEN 1.0 1.5 0 0 1
C_10994470325_11017145233_0 RECT_OPEN 1.0 1.5 0 0 1
C_10994470325_3149619839_0 RECT_OPEN 1.0 1.5 0 0 1
C_3149619839_3149619841_0 RECT_OPEN 1.0 1.5 0 0 1
C_3149619839_3149619847_0 RECT_OPEN 1.0 1.5 0 0 1
C_3149619839_10994470325_0 RECT_OPEN 1.0 1.5 0 0 1
C_3149619839_11378886517_0 RECT_OPEN 1.0 1.5 0 0 1
C_3149619841_3149619842_0 RECT_OPEN 1.0 1.5 0 0 1
C_3149619841_3149619839_0 RECT_OPEN 1.0 1.5 0 0 1
C_3149619841_3149619840_0 RECT_OPEN 1.0 1.5 0 0 1
C_11378886517_13140521149_0 RECT_OPEN 1.0 1.5 0 0 1
C_11378886517_13144006534_0 RECT_OPEN 1.0 1.5 0 0 1
C_11378886517_3149619839_0 RECT_OPEN 1.0 1.5 0 0 1
C_3149619840_3149619841_0 RECT_OPEN 1.0 1.5 0 0 1
C_13140521075_3149619847_0 RECT_OPEN 1.0 1.5 0 0 1
C_3149619850_3149619851_0 RECT_OPEN 1.0 1.5 0 0 1
C_3149619854_3149619852_0 RECT_OPEN 1.0 1.5 0 0 1
C_3149619854_3149619851_0 RECT_OPEN 1.0 1.5 0 0 1
C_3149619854_3149619853_0 RECT_OPEN 1.0 1.5 0 0 1
C_3149619852_3149619854_0 RECT_OPEN 1.0 1.5 0 0 1
C_3149622362_3149622352_0 RECT_OPEN 1.0 1.5 0 0 1
C_3149622362_13140521149_0 RECT_OPEN 1.0 1.5 0 0 1
C_3149622362_7239768143_0 RECT_OPEN 1.0 1.5 0 0 1
C_3149622354_3149622352_0 RECT_OPEN 1.0 1.5 0 0 1
C_13140521149_11378886517_0 RECT_OPEN 1.0 1.5 0 0 1
C_13140521149_3149622362_0 RECT_OPEN 1.0 1.5 0 0 1
C_13140521149_13140521147_0 RECT_OPEN 1.0 1.5 0 0 1
C_7239768143_3149622362_0 RECT_OPEN 1.0 1.5 0 0 1
C_3150107475_3150107474_0 RECT_OPEN 1.0 1.5 0 0 1
C_3150107475_3150107476_0 RECT_OPEN 1.0 1.5 0 0 1
C_3150107475_3150107472_0 RECT_OPEN 1.0 1.5 0 0 1
C_3150107474_3150107475_0 RECT_OPEN 1.0 1.5 0 0 1
C_3150107476_3150107475_0 RECT_OPEN 1.0 1.5 0 0 1
C_3150107476_3150107479_0 RECT_OPEN 1.0 1.5 0 0 1
C_3150107476_12155154060_0 RECT_OPEN 1.0 1.5 0 0 1
C_3150107479_3150107476_0 RECT_OPEN 1.0 1.5 0 0 1
C_3150107479_12155154062_0 RECT_OPEN 1.0 1.5 0 0 1
C_3150107479_12155154056_0 RECT_OPEN 1.0 1.5 0 0 1
C_12155154060_3150107476_0 RECT_OPEN 1.0 1.5 0 0 1
C_12155154062_3150107479_0 RECT_OPEN 1.0 1.5 0 0 1
C_12155154056_3150107479_0 RECT_OPEN 1.0 1.5 0 0 1
C_3150107773_7262830544_0 RECT_OPEN 1.0 1.5 0 0 1
C_9846394225_3150118040_0 RECT_OPEN 1.0 1.5 0 0 1
C_9846394225_10969136196_0 RECT_OPEN 1.0 1.5 0 0 1
C_6536473107_6536473109_0 RECT_OPEN 1.0 1.5 0 0 1
C_6536473107_6536473106_0 RECT_OPEN 1.0 1.5 0 0 1
C_6536473107_3150118040_0 RECT_OPEN 1.0 1.5 0 0 1
C_3157670219_10172979413_0 RECT_OPEN 1.0 1.5 0 0 1
C_3157670219_10172979414_0 RECT_OPEN 1.0 1.5 0 0 1
C_3157670219_3157670223_0 RECT_OPEN 1.0 1.5 0 0 1
C_10172979413_3157670219_0 RECT_OPEN 1.0 1.5 0 0 1
C_10172979413_10172979412_0 RECT_OPEN 1.0 1.5 0 0 1
C_10172979413_13135627938_0 RECT_OPEN 1.0 1.5 0 0 1
C_3157670223_3157670219_0 RECT_OPEN 1.0 1.5 0 0 1
C_13903770310_13903770309_0 RECT_OPEN 1.0 1.5 0 0 1
C_13903770310_12157177352_0 RECT_OPEN 1.0 1.5 0 0 1
C_3161309795_3161309798_0 RECT_OPEN 1.0 1.5 0 0 1
C_3161309798_3161309795_0 RECT_OPEN 1.0 1.5 0 0 1
C_3161309798_3161309801_0 RECT_OPEN 1.0 1.5 0 0 1
C_3161309798_3161309797_0 RECT_OPEN 1.0 1.5 0 0 1
C_3161309797_3161309798_0 RECT_OPEN 1.0 1.5 0 0 1
C_3161309801_3161309799_0 RECT_OPEN 1.0 1.5 0 0 1
C_3161309801_3161309798_0 RECT_OPEN 1.0 1.5 0 0 1
C_3161309801_3161309802_0 RECT_OPEN 1.0 1.5 0 0 1
C_3161309801_3161309800_0 RECT_OPEN 1.0 1.5 0 0 1
C_3161309800_3161309801_0 RECT_OPEN 1.0 1.5 0 0 1
C_12506414299_2387407562_0 RECT_OPEN 1.0 1.5 0 0 1
C_12506414299_12506414300_0 RECT_OPEN 1.0 1.5 0 0 1
C_9830778271_7097308434_0 RECT_OPEN 1.0 1.5 0 0 1
C_9830778271_12506414300_0 RECT_OPEN 1.0 1.5 0 0 1
C_9830778271_3170006921_0 RECT_OPEN 1.0 1.5 0 0 1
C_4447421339_3170006930_0 RECT_OPEN 1.0 1.5 0 0 1
C_4447421339_4462376684_0 RECT_OPEN 1.0 1.5 0 0 1
C_4447421339_4824673767_0 RECT_OPEN 1.0 1.5 0 0 1
C_3170478574_10996992466_0 RECT_OPEN 1.0 1.5 0 0 1
C_3170478574_9788419608_0 RECT_OPEN 1.0 1.5 0 0 1
C_10996992466_6505394017_0 RECT_OPEN 1.0 1.5 0 0 1
C_10996992466_3170478574_0 RECT_OPEN 1.0 1.5 0 0 1
C_10996992466_10996992471_0 RECT_OPEN 1.0 1.5 0 0 1
C_9788419608_818634513_0 RECT_OPEN 1.0 1.5 0 0 1
C_9788419608_12506414299_0 RECT_OPEN 1.0 1.5 0 0 1
C_9788419608_13343872440_0 RECT_OPEN 1.0 1.5 0 0 1
C_4447382437_3170496474_0 RECT_OPEN 1.0 1.5 0 0 1
C_3170496477_11002608083_0 RECT_OPEN 1.0 1.5 0 0 1
C_3170496477_11002591551_0 RECT_OPEN 1.0 1.5 0 0 1
C_3170496477_3170496474_0 RECT_OPEN 1.0 1.5 0 0 1
C_11002608083_3170496477_0 RECT_OPEN 1.0 1.5 0 0 1
C_11002608083_11002608085_0 RECT_OPEN 1.0 1.5 0 0 1
C_11002608083_13347226823_0 RECT_OPEN 1.0 1.5 0 0 1
C_3463462869_3463462871_0 RECT_OPEN 1.0 1.5 0 0 1
C_3463462869_3463462870_0 RECT_OPEN 1.0 1.5 0 0 1
C_3463462869_6458940001_0 RECT_OPEN 1.0 1.5 0 0 1
C_3463462869_10182729200_0 RECT_OPEN 1.0 1.5 0 0 1
C_3463462871_3463462869_0 RECT_OPEN 1.0 1.5 0 0 1
C_3463462870_3463462869_0 RECT_OPEN 1.0 1.5 0 0 1
C_6458940001_7263153539_0 RECT_OPEN 1.0 1.5 0 0 1
C_6458940001_3463462869_0 RECT_OPEN 1.0 1.5 0 0 1
C_6458940001_11290340685_0 RECT_OPEN 1.0 1.5 0 0 1
C_10182729200_3463462869_0 RECT_OPEN 1.0 1.5 0 0 1
C_10182729200_11290335534_0 RECT_OPEN 1.0 1.5 0 0 1
C_10182729200_12651793611_0 RECT_OPEN 1.0 1.5 0 0 1
C_3500405710_7479630768_0 RECT_OPEN 1.0 1.5 0 0 1
C_7479630768_7479630770_0 RECT_OPEN 1.0 1.5 0 0 1
C_7479630768_3500405710_0 RECT_OPEN 1.0 1.5 0 0 1
C_7479630768_7479630767_0 RECT_OPEN 1.0 1.5 0 0 1
C_3500405711_3500405714_0 RECT_OPEN 1.0 1.5 0 0 1
C_3500405711_7479630771_0 RECT_OPEN 1.0 1.5 0 0 1
C_3500405711_3500405734_0 RECT_OPEN 1.0 1.5 0 0 1
C_3500405714_3500405711_0 RECT_OPEN 1.0 1.5 0 0 1
C_3500405714_7479630770_0 RECT_OPEN 1.0 1.5 0 0 1
C_3500405714_3500405713_0 RECT_OPEN 1.0 1.5 0 0 1
C_7479630771_3500405711_0 RECT_OPEN 1.0 1.5 0 0 1
C_7479630771_7479630772_0 RECT_OPEN 1.0 1.5 0 0 1
C_7479630771_3500405737_0 RECT_OPEN 1.0 1.5 0 0 1
C_3500405734_3500405738_0 RECT_OPEN 1.0 1.5 0 0 1
C_3500405734_6196989888_0 RECT_OPEN 1.0 1.5 0 0 1
C_3500405734_10172938611_0 RECT_OPEN 1.0 1.5 0 0 1
C_3500405734_3500405711_0 RECT_OPEN 1.0 1.5 0 0 1
C_3500405712_3500405713_0 RECT_OPEN 1.0 1.5 0 0 1
C_3500405713_3500405737_0 RECT_OPEN 1.0 1.5 0 0 1
C_3500405713_3500405714_0 RECT_OPEN 1.0 1.5 0 0 1
C_3500405713_3500405712_0 RECT_OPEN 1.0 1.5 0 0 1
C_3500405737_3500405715_0 RECT_OPEN 1.0 1.5 0 0 1
C_3500405737_3500405713_0 RECT_OPEN 1.0 1.5 0 0 1
C_3500405737_7479630771_0 RECT_OPEN 1.0 1.5 0 0 1
C_7479630770_3500405714_0 RECT_OPEN 1.0 1.5 0 0 1
C_7479630770_7479630768_0 RECT_OPEN 1.0 1.5 0 0 1
C_7479630770_7479630769_0 RECT_OPEN 1.0 1.5 0 0 1
C_3500405715_7479630775_0 RECT_OPEN 1.0 1.5 0 0 1
C_3500405715_3500405737_0 RECT_OPEN 1.0 1.5 0 0 1
C_3500405715_3500405717_0 RECT_OPEN 1.0 1.5 0 0 1
C_7479630775_3500405715_0 RECT_OPEN 1.0 1.5 0 0 1
C_7479630775_12477867928_0 RECT_OPEN 1.0 1.5 0 0 1
C_7479630775_11434263477_0 RECT_OPEN 1.0 1.5 0 0 1
C_3500405717_3500405715_0 RECT_OPEN 1.0 1.5 0 0 1
C_3500405717_3500405720_0 RECT_OPEN 1.0 1.5 0 0 1
C_3500405717_7479630763_0 RECT_OPEN 1.0 1.5 0 0 1
C_3500405720_7479630763_0 RECT_OPEN 1.0 1.5 0 0 1
C_3500405720_3500405717_0 RECT_OPEN 1.0 1.5 0 0 1
C_3500405720_3500405723_0 RECT_OPEN 1.0 1.5 0 0 1
C_7479630763_3500405720_0 RECT_OPEN 1.0 1.5 0 0 1
C_7479630763_10172935935_0 RECT_OPEN 1.0 1.5 0 0 1
C_7479630763_3500405717_0 RECT_OPEN 1.0 1.5 0 0 1
C_3500405723_3500405722_0 RECT_OPEN 1.0 1.5 0 0 1
C_3500405723_10172935936_0 RECT_OPEN 1.0 1.5 0 0 1
C_3500405723_3500405720_0 RECT_OPEN 1.0 1.5 0 0 1
C_3500405722_3500405723_0 RECT_OPEN 1.0 1.5 0 0 1
C_10172935936_10172935938_0 RECT_OPEN 1.0 1.5 0 0 1
C_10172935936_3500405723_0 RECT_OPEN 1.0 1.5 0 0 1
C_10172935936_10172935937_0 RECT_OPEN 1.0 1.5 0 0 1
C_3500405725_10172935938_0 RECT_OPEN 1.0 1.5 0 0 1
C_10172935938_10172935936_0 RECT_OPEN 1.0 1.5 0 0 1
C_10172935938_10172935939_0 RECT_OPEN 1.0 1.5 0 0 1
C_10172935938_3500405725_0 RECT_OPEN 1.0 1.5 0 0 1
C_3500405729_11434263477_0 RECT_OPEN 1.0 1.5 0 0 1
C_11434263477_3500405729_0 RECT_OPEN 1.0 1.5 0 0 1
C_11434263477_11434263476_0 RECT_OPEN 1.0 1.5 0 0 1
C_11434263477_7479630775_0 RECT_OPEN 1.0 1.5 0 0 1
C_3500405730_3500405731_0 RECT_OPEN 1.0 1.5 0 0 1
C_3500405731_3500405730_0 RECT_OPEN 1.0 1.5 0 0 1
C_3500405731_7479630782_0 RECT_OPEN 1.0 1.5 0 0 1
C_3500405731_13816806093_0 RECT_OPEN 1.0 1.5 0 0 1
C_7479630782_3500405731_0 RECT_OPEN 1.0 1.5 0 0 1
C_7479630782_7479630779_0 RECT_OPEN 1.0 1.5 0 0 1
C_7479630782_7479630777_0 RECT_OPEN 1.0 1.5 0 0 1
C_13816806093_3500405731_0 RECT_OPEN 1.0 1.5 0 0 1
C_3500405732_6196989888_0 RECT_OPEN 1.0 1.5 0 0 1
C_3500405732_10172938609_0 RECT_OPEN 1.0 1.5 0 0 1
C_3500405732_10172938606_0 RECT_OPEN 1.0 1.5 0 0 1
C_6196989888_3500405734_0 RECT_OPEN 1.0 1.5 0 0 1
C_6196989888_3500405732_0 RECT_OPEN 1.0 1.5 0 0 1
C_6196989888_10172938610_0 RECT_OPEN 1.0 1.5 0 0 1
C_6196989888_10172938605_0 RECT_OPEN 1.0 1.5 0 0 1
C_10172938609_3500405732_0 RECT_OPEN 1.0 1.5 0 0 1
C_10172938609_6196989893_0 RECT_OPEN 1.0 1.5 0 0 1
C_10172938609_10172938610_0 RECT_OPEN 1.0 1.5 0 0 1
C_10172938609_7479630751_0 RECT_OPEN 1.0 1.5 0 0 1
C_10172938606_3500405732_0 RECT_OPEN 1.0 1.5 0 0 1
C_3500405738_3500405740_0 RECT_OPEN 1.0 1.5 0 0 1
C_3500405738_3500405734_0 RECT_OPEN 1.0 1.5 0 0 1
C_3500405738_7479630758_0 RECT_OPEN 1.0 1.5 0 0 1
C_10172938611_3500405734_0 RECT_OPEN 1.0 1.5 0 0 1
C_10172938611_6196989886_0 RECT_OPEN 1.0 1.5 0 0 1
C_10172938611_10172938610_0 RECT_OPEN 1.0 1.5 0 0 1
C_3500405740_3500405738_0 RECT_OPEN 1.0 1.5 0 0 1
C_3500405740_3500405741_0 RECT_OPEN 1.0 1.5 0 0 1
C_3500405740_7479630780_0 RECT_OPEN 1.0 1.5 0 0 1
C_7479630758_9784518335_0 RECT_OPEN 1.0 1.5 0 0 1
C_7479630758_7479630756_0 RECT_OPEN 1.0 1.5 0 0 1
C_7479630758_3500405738_0 RECT_OPEN 1.0 1.5 0 0 1
C_3500405741_3500405740_0 RECT_OPEN 1.0 1.5 0 0 1
C_7479630780_9784518332_0 RECT_OPEN 1.0 1.5 0 0 1
C_7479630780_7479630774_0 RECT_OPEN 1.0 1.5 0 0 1
C_7479630780_3500405740_0 RECT_OPEN 1.0 1.5 0 0 1
C_3500405745_6196989893_0 RECT_OPEN 1.0 1.5 0 0 1
C_3500405745_2099691661_0 RECT_OPEN 1.0 1.5 0 0 1
C_6196989893_6196989889_0 RECT_OPEN 1.0 1.5 0 0 1
C_6196989893_10172938609_0 RECT_OPEN 1.0 1.5 0 0 1
C_6196989893_7479630751_0 RECT_OPEN 1.0 1.5 0 0 1
C_6196989893_3500405745_0 RECT_OPEN 1.0 1.5 0 0 1
C_7301789574_7301789573_0 RECT_OPEN 1.0 1.5 0 0 1
C_7301789574_10996655571_0 RECT_OPEN 1.0 1.5 0 0 1
C_7301789574_3504349795_0 RECT_OPEN 1.0 1.5 0 0 1
C_6758558444_10996648270_0 RECT_OPEN 1.0 1.5 0 0 1
C_6758558444_6758558441_0 RECT_OPEN 1.0 1.5 0 0 1
C_6758558444_3504349796_0 RECT_OPEN 1.0 1.5 0 0 1
C_3504895274_3504895273_0 RECT_OPEN 1.0 1.5 0 0 1
C_3715148285_3715148292_0 RECT_OPEN 1.0 1.5 0 0 1
C_11234065453_3715148292_0 RECT_OPEN 1.0 1.5 0 0 1
C_3771990469_3771990505_0 RECT_OPEN 1.0 1.5 0 0 1
C_3771990522_3771990524_0 RECT_OPEN 1.0 1.5 0 0 1
C_3771990523_3771990536_0 RECT_OPEN 1.0 1.5 0 0 1
C_3771990536_3771990535_0 RECT_OPEN 1.0 1.5 0 0 1
C_3771990536_3771990553_0 RECT_OPEN 1.0 1.5 0 0 1
C_3771990536_3771990523_0 RECT_OPEN 1.0 1.5 0 0 1
C_3771990535_3771990536_0 RECT_OPEN 1.0 1.5 0 0 1
C_3771990535_3771990524_0 RECT_OPEN 1.0 1.5 0 0 1
C_3771990535_3771990914_0 RECT_OPEN 1.0 1.5 0 0 1
C_3771990914_3771990535_0 RECT_OPEN 1.0 1.5 0 0 1
C_3771990914_3771990894_0 RECT_OPEN 1.0 1.5 0 0 1
C_3771990553_3771990866_0 RECT_OPEN 1.0 1.5 0 0 1
C_3771990553_3771990545_0 RECT_OPEN 1.0 1.5 0 0 1
C_3771990553_3771990536_0 RECT_OPEN 1.0 1.5 0 0 1
C_3771990545_3771990553_0 RECT_OPEN 1.0 1.5 0 0 1
C_3771990866_3771990553_0 RECT_OPEN 1.0 1.5 0 0 1
C_3771990866_3771990873_0 RECT_OPEN 1.0 1.5 0 0 1
C_3771990866_3771990859_0 RECT_OPEN 1.0 1.5 0 0 1
C_3771990555_3771990873_0 RECT_OPEN 1.0 1.5 0 0 1
C_3771990873_3771990866_0 RECT_OPEN 1.0 1.5 0 0 1
C_3771990873_3771990555_0 RECT_OPEN 1.0 1.5 0 0 1
C_3771990873_3771990888_0 RECT_OPEN 1.0 1.5 0 0 1
C_3771990859_3771990866_0 RECT_OPEN 1.0 1.5 0 0 1
C_3771990861_3771990888_0 RECT_OPEN 1.0 1.5 0 0 1
C_3771990888_3771990894_0 RECT_OPEN 1.0 1.5 0 0 1
C_3771990888_3771990873_0 RECT_OPEN 1.0 1.5 0 0 1
C_3771990888_3771990861_0 RECT_OPEN 1.0 1.5 0 0 1
C_3771990869_3771990894_0 RECT_OPEN 1.0 1.5 0 0 1
C_3771990894_3771990888_0 RECT_OPEN 1.0 1.5 0 0 1
C_3771990894_3771990914_0 RECT_OPEN 1.0 1.5 0 0 1
C_3771990894_3771990869_0 RECT_OPEN 1.0 1.5 0 0 1
C_3778310159_3778310161_0 RECT_OPEN 1.0 1.5 0 0 1
C_3778310159_12059211981_0 RECT_OPEN 1.0 1.5 0 0 1
C_3778310159_7328379200_0 RECT_OPEN 1.0 1.5 0 0 1
C_3778310161_3778310159_0 RECT_OPEN 1.0 1.5 0 0 1
C_3868740750_3868740751_0 RECT_OPEN 1.0 1.5 0 0 1
C_12145839287_3868740751_0 RECT_OPEN 1.0 1.5 0 0 1
C_12145839287_7097308434_0 RECT_OPEN 1.0 1.5 0 0 1
C_12145839287_12145839288_0 RECT_OPEN 1.0 1.5 0 0 1
C_3870651478_3870651477_0 RECT_OPEN 1.0 1.5 0 0 1
C_3870651480_3870651479_0 RECT_OPEN 1.0 1.5 0 0 1
C_3872407423_7328007223_0 RECT_OPEN 1.0 1.5 0 0 1
C_3872407423_3872407428_0 RECT_OPEN 1.0 1.5 0 0 1
C_7328007223_3872407423_0 RECT_OPEN 1.0 1.5 0 0 1
C_3872407428_3872407429_0 RECT_OPEN 1.0 1.5 0 0 1
C_3872407428_3872407427_0 RECT_OPEN 1.0 1.5 0 0 1
C_3872407428_3872407423_0 RECT_OPEN 1.0 1.5 0 0 1
C_3872407427_3872407428_0 RECT_OPEN 1.0 1.5 0 0 1
C_3872407427_6132071550_0 RECT_OPEN 1.0 1.5 0 0 1
C_3872407427_7328007225_0 RECT_OPEN 1.0 1.5 0 0 1
C_6132071550_3872407427_0 RECT_OPEN 1.0 1.5 0 0 1
C_6132071550_7328007243_0 RECT_OPEN 1.0 1.5 0 0 1
C_7328007225_3872407427_0 RECT_OPEN 1.0 1.5 0 0 1
C_3872407429_3872407428_0 RECT_OPEN 1.0 1.5 0 0 1
C_3872407429_3872407466_0 RECT_OPEN 1.0 1.5 0 0 1
C_3872407466_3872407468_0 RECT_OPEN 1.0 1.5 0 0 1
C_3872407466_3872407429_0 RECT_OPEN 1.0 1.5 0 0 1
C_3872407468_3872407466_0 RECT_OPEN 1.0 1.5 0 0 1
C_3872533474_3872533478_0 RECT_OPEN 1.0 1.5 0 0 1
C_3872533476_3872533478_0 RECT_OPEN 1.0 1.5 0 0 1
C_3872533479_3872533480_0 RECT_OPEN 1.0 1.5 0 0 1
C_3872533480_3872533479_0 RECT_OPEN 1.0 1.5 0 0 1
C_3872533480_10172979407_0 RECT_OPEN 1.0 1.5 0 0 1
C_3872533480_3872533482_0 RECT_OPEN 1.0 1.5 0 0 1
C_3872533480_11268733245_0 RECT_OPEN 1.0 1.5 0 0 1
C_10172979407_3872533480_0 RECT_OPEN 1.0 1.5 0 0 1
C_3872533482_3872533488_0 RECT_OPEN 1.0 1.5 0 0 1
C_3872533482_3872533483_0 RECT_OPEN 1.0 1.5 0 0 1
C_3872533482_3872533480_0 RECT_OPEN 1.0 1.5 0 0 1
C_3872533482_11432094041_0 RECT_OPEN 1.0 1.5 0 0 1
C_11268733245_3872533480_0 RECT_OPEN 1.0 1.5 0 0 1
C_3872533483_3872533484_0 RECT_OPEN 1.0 1.5 0 0 1
C_3872533483_11404841379_0 RECT_OPEN 1.0 1.5 0 0 1
C_3872533483_3872533489_0 RECT_OPEN 1.0 1.5 0 0 1
C_3872533483_3872533482_0 RECT_OPEN 1.0 1.5 0 0 1
C_11432094041_3872533482_0 RECT_OPEN 1.0 1.5 0 0 1
C_3872533484_3872533485_0 RECT_OPEN 1.0 1.5 0 0 1
C_3872533484_3872533483_0 RECT_OPEN 1.0 1.5 0 0 1
C_3872533484_3872540685_0 RECT_OPEN 1.0 1.5 0 0 1
C_3872533484_3872540684_0 RECT_OPEN 1.0 1.5 0 0 1
C_11404841379_3872533483_0 RECT_OPEN 1.0 1.5 0 0 1
C_11404841379_3872533488_0 RECT_OPEN 1.0 1.5 0 0 1
C_11404841379_3872540684_0 RECT_OPEN 1.0 1.5 0 0 1
C_3872533489_3872533483_0 RECT_OPEN 1.0 1.5 0 0 1
C_3872533485_3872540688_0 RECT_OPEN 1.0 1.5 0 0 1
C_3872533485_3872533484_0 RECT_OPEN 1.0 1.5 0 0 1
C_3872533485_3872540687_0 RECT_OPEN 1.0 1.5 0 0 1
C_3872533485_3872540686_0 RECT_OPEN 1.0 1.5 0 0 1
C_3872540685_3872533484_0 RECT_OPEN 1.0 1.5 0 0 1
C_3872540684_3872540686_0 RECT_OPEN 1.0 1.5 0 0 1
C_3872540684_3872533484_0 RECT_OPEN 1.0 1.5 0 0 1
C_3872540684_11404841379_0 RECT_OPEN 1.0 1.5 0 0 1
C_3872540687_3872533485_0 RECT_OPEN 1.0 1.5 0 0 1
C_3872540689_3872540688_0 RECT_OPEN 1.0 1.5 0 0 1
C_4285700668_4285700669_0 RECT_OPEN 1.0 1.5 0 0 1
C_4285700669_4285700668_0 RECT_OPEN 1.0 1.5 0 0 1
C_4285700669_2099691637_0 RECT_OPEN 1.0 1.5 0 0 1
C_4445503529_12144258014_0 RECT_OPEN 1.0 1.5 0 0 1
C_4446468152_4446468155_0 RECT_OPEN 1.0 1.5 0 0 1
C_6194089776_4446471884_0 RECT_OPEN 1.0 1.5 0 0 1
C_6194089776_4475027231_0 RECT_OPEN 1.0 1.5 0 0 1
C_6194089776_6562178338_0 RECT_OPEN 1.0 1.5 0 0 1
C_4446471885_4446471884_0 RECT_OPEN 1.0 1.5 0 0 1
C_10056058173_10056058174_0 RECT_OPEN 1.0 1.5 0 0 1
C_10056058173_13877530781_0 RECT_OPEN 1.0 1.5 0 0 1
C_13142028598_13142028597_0 RECT_OPEN 1.0 1.5 0 0 1
C_13142028598_13142028564_0 RECT_OPEN 1.0 1.5 0 0 1
C_13142028598_4448123006_0 RECT_OPEN 1.0 1.5 0 0 1
C_4448123015_4448123019_0 RECT_OPEN 1.0 1.5 0 0 1
C_4462384503_13738230989_0 RECT_OPEN 1.0 1.5 0 0 1
C_4462384503_7328379175_0 RECT_OPEN 1.0 1.5 0 0 1
C_4462384503_13738231056_0 RECT_OPEN 1.0 1.5 0 0 1
C_7328379175_7328379176_0 RECT_OPEN 1.0 1.5 0 0 1
C_7328379175_6505328002_0 RECT_OPEN 1.0 1.5 0 0 1
C_7328379175_4462384503_0 RECT_OPEN 1.0 1.5 0 0 1
C_13738231056_4462384503_0 RECT_OPEN 1.0 1.5 0 0 1
C_4472266103_4472266108_0 RECT_OPEN 1.0 1.5 0 0 1
C_8403844097_1714984568_0 RECT_OPEN 1.0 1.5 0 0 1
C_8403844097_8403844099_0 RECT_OPEN 1.0 1.5 0 0 1
C_4474487225_11011971395_0 RECT_OPEN 1.0 1.5 0 0 1
C_4474487225_11399454153_0 RECT_OPEN 1.0 1.5 0 0 1
C_4474487225_4474487238_0 RECT_OPEN 1.0 1.5 0 0 1
C_11011971395_4474487225_0 RECT_OPEN 1.0 1.5 0 0 1
C_11011971395_11011971396_0 RECT_OPEN 1.0 1.5 0 0 1
C_11011971395_6152784946_0 RECT_OPEN 1.0 1.5 0 0 1
C_11399454153_4474487225_0 RECT_OPEN 1.0 1.5 0 0 1
C_4474487238_12517783371_0 RECT_OPEN 1.0 1.5 0 0 1
C_4474487238_4474487225_0 RECT_OPEN 1.0 1.5 0 0 1
C_4474487238_6884558833_0 RECT_OPEN 1.0 1.5 0 0 1
C_6884558833_4474487265_0 RECT_OPEN 1.0 1.5 0 0 1
C_6884558833_4474487238_0 RECT_OPEN 1.0 1.5 0 0 1
C_6884558833_6884558829_0 RECT_OPEN 1.0 1.5 0 0 1
C_4474487265_6884558833_0 RECT_OPEN 1.0 1.5 0 0 1
C_7263153539_6458940001_0 RECT_OPEN 1.0 1.5 0 0 1
C_7263153539_7265834819_0 RECT_OPEN 1.0 1.5 0 0 1
C_7263153539_4474704607_0 RECT_OPEN 1.0 1.5 0 0 1
C_6152308058_4474704607_0 RECT_OPEN 1.0 1.5 0 0 1
C_4475027224_4475027221_0 RECT_OPEN 1.0 1.5 0 0 1
C_4475027222_4475027226_0 RECT_OPEN 1.0 1.5 0 0 1
C_4475027231_4475027230_0 RECT_OPEN 1.0 1.5 0 0 1
C_4475027231_6194089776_0 RECT_OPEN 1.0 1.5 0 0 1
C_4475027231_4475027226_0 RECT_OPEN 1.0 1.5 0 0 1
C_4475027229_4475027228_0 RECT_OPEN 1.0 1.5 0 0 1
C_4475027230_4475027231_0 RECT_OPEN 1.0 1.5 0 0 1
C_4540978394_4540978393_0 RECT_OPEN 1.0 1.5 0 0 1
C_7479630892_4682937550_0 RECT_OPEN 1.0 1.5 0 0 1
C_13238937706_13238937707_0 RECT_OPEN 1.0 1.5 0 0 1
C_13238937706_12106511659_0 RECT_OPEN 1.0 1.5 0 0 1
C_13238937706_4682937550_0 RECT_OPEN 1.0 1.5 0 0 1
C_4734151709_10213547236_0 RECT_OPEN 1.0 1.5 0 0 1
C_4734151709_2407838682_0 RECT_OPEN 1.0 1.5 0 0 1
C_12185693394_6894177760_0 RECT_OPEN 1.0 1.5 0 0 1
C_12185693394_12185693393_0 RECT_OPEN 1.0 1.5 0 0 1
C_12185693394_4915966850_0 RECT_OPEN 1.0 1.5 0 0 1
C_9921271169_4915966850_0 RECT_OPEN 1.0 1.5 0 0 1
C_7479630483_6901616703_0 RECT_OPEN 1.0 1.5 0 0 1
C_7479630483_7479630480_0 RECT_OPEN 1.0 1.5 0 0 1
C_5370756309_1694231991_0 RECT_OPEN 1.0 1.5 0 0 1
C_5388808641_5388808643_0 RECT_OPEN 1.0 1.5 0 0 1
C_5398408451_2406966812_0 RECT_OPEN 1.0 1.5 0 0 1
C_5689989226_5689989225_0 RECT_OPEN 1.0 1.5 0 0 1
C_5689989228_5689989227_0 RECT_OPEN 1.0 1.5 0 0 1
C_5689989230_5689989229_0 RECT_OPEN 1.0 1.5 0 0 1
C_9958736551_5724583886_0 RECT_OPEN 1.0 1.5 0 0 1
C_5773497557_7736381406_0 RECT_OPEN 1.0 1.5 0 0 1
C_5773497557_8374410177_0 RECT_OPEN 1.0 1.5 0 0 1
C_7736381406_5773497557_0 RECT_OPEN 1.0 1.5 0 0 1
C_7736381406_8374410177_0 RECT_OPEN 1.0 1.5 0 0 1
C_7736381406_7736381401_0 RECT_OPEN 1.0 1.5 0 0 1
C_8374410177_7736381406_0 RECT_OPEN 1.0 1.5 0 0 1
C_8374410177_6183009077_0 RECT_OPEN 1.0 1.5 0 0 1
C_5774292417_5774292427_0 RECT_OPEN 1.0 1.5 0 0 1
C_5774292417_5774293614_0 RECT_OPEN 1.0 1.5 0 0 1
C_5774292427_9828511707_0 RECT_OPEN 1.0 1.5 0 0 1
C_5774292427_1827634843_0 RECT_OPEN 1.0 1.5 0 0 1
C_5774293614_1827247449_0 RECT_OPEN 1.0 1.5 0 0 1
C_5776596292_6130070511_0 RECT_OPEN 1.0 1.5 0 0 1
C_5776596292_2387361293_0 RECT_OPEN 1.0 1.5 0 0 1
C_12009305215_264129270_0 RECT_OPEN 1.0 1.5 0 0 1
C_12009305215_12137575005_0 RECT_OPEN 1.0 1.5 0 0 1
C_13136176386_5777147337_0 RECT_OPEN 1.0 1.5 0 0 1
C_13136176386_7095228341_0 RECT_OPEN 1.0 1.5 0 0 1
C_13136176386_13136176381_0 RECT_OPEN 1.0 1.5 0 0 1
C_5777147338_5777147341_0 RECT_OPEN 1.0 1.5 0 0 1
C_5777147338_5777147337_0 RECT_OPEN 1.0 1.5 0 0 1
C_5777147338_7478154515_0 RECT_OPEN 1.0 1.5 0 0 1
C_5777147341_5777147345_0 RECT_OPEN 1.0 1.5 0 0 1
C_5777147341_5777147338_0 RECT_OPEN 1.0 1.5 0 0 1
C_5777147341_7478154516_0 RECT_OPEN 1.0 1.5 0 0 1
C_7478154515_5777147338_0 RECT_OPEN 1.0 1.5 0 0 1
C_5777147345_5777147341_0 RECT_OPEN 1.0 1.5 0 0 1
C_7478154516_7478154524_0 RECT_OPEN 1.0 1.5 0 0 1
C_7478154516_7478154518_0 RECT_OPEN 1.0 1.5 0 0 1
C_7478154516_5777147341_0 RECT_OPEN 1.0 1.5 0 0 1
C_5777246392_5777246422_0 RECT_OPEN 1.0 1.5 0 0 1
C_5777246392_5777246394_0 RECT_OPEN 1.0 1.5 0 0 1
C_5777246392_7328007285_0 RECT_OPEN 1.0 1.5 0 0 1
C_5777246422_5777246392_0 RECT_OPEN 1.0 1.5 0 0 1
C_5777246422_7328007289_0 RECT_OPEN 1.0 1.5 0 0 1
C_5777246422_7328007286_0 RECT_OPEN 1.0 1.5 0 0 1
C_5777246394_5777246392_0 RECT_OPEN 1.0 1.5 0 0 1
C_5777246394_5777246395_0 RECT_OPEN 1.0 1.5 0 0 1
C_7328007285_5777246392_0 RECT_OPEN 1.0 1.5 0 0 1
C_7328007285_7328007284_0 RECT_OPEN 1.0 1.5 0 0 1
C_7328007285_5777246412_0 RECT_OPEN 1.0 1.5 0 0 1
C_5777246395_5777246394_0 RECT_OPEN 1.0 1.5 0 0 1
C_5777246407_5777246413_0 RECT_OPEN 1.0 1.5 0 0 1
C_5777246407_5777246412_0 RECT_OPEN 1.0 1.5 0 0 1
C_5777246407_5777246409_0 RECT_OPEN 1.0 1.5 0 0 1
C_5777246413_5777246407_0 RECT_OPEN 1.0 1.5 0 0 1
C_5777246413_5777246426_0 RECT_OPEN 1.0 1.5 0 0 1
C_5777246412_7328007288_0 RECT_OPEN 1.0 1.5 0 0 1
C_5777246412_5777246407_0 RECT_OPEN 1.0 1.5 0 0 1
C_5777246412_7328007285_0 RECT_OPEN 1.0 1.5 0 0 1
C_5777246409_5777246411_0 RECT_OPEN 1.0 1.5 0 0 1
C_5777246409_7328007265_0 RECT_OPEN 1.0 1.5 0 0 1
C_5777246409_5777246407_0 RECT_OPEN 1.0 1.5 0 0 1
C_5777246411_5777246410_0 RECT_OPEN 1.0 1.5 0 0 1
C_5777246411_5777246409_0 RECT_OPEN 1.0 1.5 0 0 1
C_5777246411_7328007288_0 RECT_OPEN 1.0 1.5 0 0 1
C_7328007265_5777246409_0 RECT_OPEN 1.0 1.5 0 0 1
C_5777246410_5777246411_0 RECT_OPEN 1.0 1.5 0 0 1
C_7328007288_5777246412_0 RECT_OPEN 1.0 1.5 0 0 1
C_7328007288_5777246411_0 RECT_OPEN 1.0 1.5 0 0 1
C_7328007288_7328007287_0 RECT_OPEN 1.0 1.5 0 0 1
C_7328007288_7328007289_0 RECT_OPEN 1.0 1.5 0 0 1
C_5777246426_8530739259_0 RECT_OPEN 1.0 1.5 0 0 1
C_5777246426_5777246413_0 RECT_OPEN 1.0 1.5 0 0 1
C_7328007289_5777246422_0 RECT_OPEN 1.0 1.5 0 0 1
C_7328007289_7328007288_0 RECT_OPEN 1.0 1.5 0 0 1
C_7328007289_5777246425_0 RECT_OPEN 1.0 1.5 0 0 1
C_7328007286_5777246422_0 RECT_OPEN 1.0 1.5 0 0 1
C_5777246425_7328007289_0 RECT_OPEN 1.0 1.5 0 0 1
C_5778503766_12183845711_0 RECT_OPEN 1.0 1.5 0 0 1
C_12690206052_5778521345_0 RECT_OPEN 1.0 1.5 0 0 1
C_5843951128_10168257533_0 RECT_OPEN 1.0 1.5 0 0 1
C_5843951128_6894177760_0 RECT_OPEN 1.0 1.5 0 0 1
C_5843951128_11414694995_0 RECT_OPEN 1.0 1.5 0 0 1
C_6894177760_12185693394_0 RECT_OPEN 1.0 1.5 0 0 1
C_6894177760_5843951128_0 RECT_OPEN 1.0 1.5 0 0 1
C_7147053364_5919853090_0 RECT_OPEN 1.0 1.5 0 0 1
C_10175064193_5930997555_0 RECT_OPEN 1.0 1.5 0 0 1
C_7298619209_9179098227_0 RECT_OPEN 1.0 1.5 0 0 1
C_7298619209_9179098228_0 RECT_OPEN 1.0 1.5 0 0 1
C_7298619209_5930997555_0 RECT_OPEN 1.0 1.5 0 0 1
C_6019669025_1714977975_0 RECT_OPEN 1.0 1.5 0 0 1
C_6019669026_6019669025_0 RECT_OPEN 1.0 1.5 0 0 1
C_7479631470_7479631471_0 RECT_OPEN 1.0 1.5 0 0 1
C_7479631470_2099691686_0 RECT_OPEN 1.0 1.5 0 0 1
C_7328007243_6132071550_0 RECT_OPEN 1.0 1.5 0 0 1
C_7328007243_7478154531_0 RECT_OPEN 1.0 1.5 0 0 1
C_7328007243_7328007238_0 RECT_OPEN 1.0 1.5 0 0 1
C_6137643401_7479630861_0 RECT_OPEN 1.0 1.5 0 0 1
C_6137643401_13134720405_0 RECT_OPEN 1.0 1.5 0 0 1
C_6137643401_13134720410_0 RECT_OPEN 1.0 1.5 0 0 1
C_13134720405_6137643401_0 RECT_OPEN 1.0 1.5 0 0 1
C_13134720405_7479630857_0 RECT_OPEN 1.0 1.5 0 0 1
C_13134720405_13134720404_0 RECT_OPEN 1.0 1.5 0 0 1
C_13134720410_6137643401_0 RECT_OPEN 1.0 1.5 0 0 1
C_6141748417_6141748418_0 RECT_OPEN 1.0 1.5 0 0 1
C_6141748418_1683173716_0 RECT_OPEN 1.0 1.5 0 0 1
C_6141748418_6141748417_0 RECT_OPEN 1.0 1.5 0 0 1
C_6141753923_12100338250_0 RECT_OPEN 1.0 1.5 0 0 1
C_6141753923_9510028744_0 RECT_OPEN 1.0 1.5 0 0 1
C_6141753923_6141753927_0 RECT_OPEN 1.0 1.5 0 0 1
C_12100338250_6536884402_0 RECT_OPEN 1.0 1.5 0 0 1
C_12100338250_12100338251_0 RECT_OPEN 1.0 1.5 0 0 1
C_12100338250_6141753923_0 RECT_OPEN 1.0 1.5 0 0 1
C_9510028744_6141753923_0 RECT_OPEN 1.0 1.5 0 0 1
C_9510028744_10994329194_0 RECT_OPEN 1.0 1.5 0 0 1
C_9510028744_9510028747_0 RECT_OPEN 1.0 1.5 0 0 1
C_6141753927_6141753923_0 RECT_OPEN 1.0 1.5 0 0 1
C_6141753927_6141753929_0 RECT_OPEN 1.0 1.5 0 0 1
C_6141753927_10994377647_0 RECT_OPEN 1.0 1.5 0 0 1
C_10994377647_6141753929_0 RECT_OPEN 1.0 1.5 0 0 1
C_10994377647_6904648005_0 RECT_OPEN 1.0 1.5 0 0 1
C_10994377647_6141753927_0 RECT_OPEN 1.0 1.5 0 0 1
C_6141957193_6141957194_0 RECT_OPEN 1.0 1.5 0 0 1
C_6141957194_6141957193_0 RECT_OPEN 1.0 1.5 0 0 1
C_6141957194_6141957197_0 RECT_OPEN 1.0 1.5 0 0 1
C_6141957194_6141957196_0 RECT_OPEN 1.0 1.5 0 0 1
C_6141957197_6141957194_0 RECT_OPEN 1.0 1.5 0 0 1
C_6141957196_6141957195_0 RECT_OPEN 1.0 1.5 0 0 1
C_6141957196_6141957199_0 RECT_OPEN 1.0 1.5 0 0 1
C_6141957196_6141957194_0 RECT_OPEN 1.0 1.5 0 0 1
C_6141957195_6141957196_0 RECT_OPEN 1.0 1.5 0 0 1
C_6142233154_7043760928_0 RECT_OPEN 1.0 1.5 0 0 1
C_6142233154_13738231243_0 RECT_OPEN 1.0 1.5 0 0 1
C_6142233154_6142233157_0 RECT_OPEN 1.0 1.5 0 0 1
C_7043760928_6142233154_0 RECT_OPEN 1.0 1.5 0 0 1
C_6142233157_6142233154_0 RECT_OPEN 1.0 1.5 0 0 1
C_6142233157_4446729192_0 RECT_OPEN 1.0 1.5 0 0 1
C_6143252362_6143252361_0 RECT_OPEN 1.0 1.5 0 0 1
C_6143252362_7437331404_0 RECT_OPEN 1.0 1.5 0 0 1
C_6143252363_6143252361_0 RECT_OPEN 1.0 1.5 0 0 1
C_6143252363_7437331404_0 RECT_OPEN 1.0 1.5 0 0 1
C_6143252363_7437296682_0 RECT_OPEN 1.0 1.5 0 0 1
C_7437331404_6143252362_0 RECT_OPEN 1.0 1.5 0 0 1
C_7437331404_7437296683_0 RECT_OPEN 1.0 1.5 0 0 1
C_7437331404_6143252363_0 RECT_OPEN 1.0 1.5 0 0 1
C_7437296682_7437296683_0 RECT_OPEN 1.0 1.5 0 0 1
C_7437296682_7479630950_0 RECT_OPEN 1.0 1.5 0 0 1
C_7437296682_6143252363_0 RECT_OPEN 1.0 1.5 0 0 1
C_6144032626_6144032627_0 RECT_OPEN 1.0 1.5 0 0 1
C_6144095981_13875979441_0 RECT_OPEN 1.0 1.5 0 0 1
C_6144095981_13875979441_1 RECT_OPEN 1.0 1.5 0 0 1
C_13875979441_3148633513_0 RECT_OPEN 1.0 1.5 0 0 1
C_6152784946_11011971395_0 RECT_OPEN 1.0 1.5 0 0 1
C_11395651197_6168052376_0 RECT_OPEN 1.0 1.5 0 0 1
C_11685087325_6168052376_0 RECT_OPEN 1.0 1.5 0 0 1
C_7478154579_7478154575_0 RECT_OPEN 1.0 1.5 0 0 1
C_7478154579_6168067117_0 RECT_OPEN 1.0 1.5 0 0 1
C_7478154579_6168067117_1 RECT_OPEN 1.0 1.5 0 0 1
C_6180290589_6180290590_0 RECT_OPEN 1.0 1.5 0 0 1
C_6180290590_6180290589_0 RECT_OPEN 1.0 1.5 0 0 1
C_6180290590_5777246426_0 RECT_OPEN 1.0 1.5 0 0 1
C_6180291877_13736567811_0 RECT_OPEN 1.0 1.5 0 0 1
C_13736567811_6180291877_0 RECT_OPEN 1.0 1.5 0 0 1
C_13736567811_13736567789_0 RECT_OPEN 1.0 1.5 0 0 1
C_13736567811_13736567810_0 RECT_OPEN 1.0 1.5 0 0 1
C_6180291884_13742285040_0 RECT_OPEN 1.0 1.5 0 0 1
C_6180291884_6180293488_0 RECT_OPEN 1.0 1.5 0 0 1
C_6180291884_13742285043_0 RECT_OPEN 1.0 1.5 0 0 1
C_6180293488_6180291884_0 RECT_OPEN 1.0 1.5 0 0 1
C_13742285043_6180293490_0 RECT_OPEN 1.0 1.5 0 0 1
C_13742285043_6180291884_0 RECT_OPEN 1.0 1.5 0 0 1
C_13742285043_13742285040_0 RECT_OPEN 1.0 1.5 0 0 1
C_6180297957_10996777702_0 RECT_OPEN 1.0 1.5 0 0 1
C_10996777702_6180297957_0 RECT_OPEN 1.0 1.5 0 0 1
C_10996777702_6180297958_0 RECT_OPEN 1.0 1.5 0 0 1
C_10996777702_10996777703_0 RECT_OPEN 1.0 1.5 0 0 1
C_10996868634_6180297958_0 RECT_OPEN 1.0 1.5 0 0 1
C_10996868634_10996868635_0 RECT_OPEN 1.0 1.5 0 0 1
C_10996868634_11034031540_0 RECT_OPEN 1.0 1.5 0 0 1
C_6194008056_6194008055_0 RECT_OPEN 1.0 1.5 0 0 1
C_6194014538_6194014544_0 RECT_OPEN 1.0 1.5 0 0 1
C_11408964582_11408964584_0 RECT_OPEN 1.0 1.5 0 0 1
C_11408964582_6194291027_0 RECT_OPEN 1.0 1.5 0 0 1
C_11408964582_11408964583_0 RECT_OPEN 1.0 1.5 0 0 1
C_7484216053_6194291027_0 RECT_OPEN 1.0 1.5 0 0 1
C_7147081175_7479630457_0 RECT_OPEN 1.0 1.5 0 0 1
C_7147081175_7479630456_0 RECT_OPEN 1.0 1.5 0 0 1
C_7147081175_6194830173_0 RECT_OPEN 1.0 1.5 0 0 1
C_7479631105_6194830177_0 RECT_OPEN 1.0 1.5 0 0 1
C_6196883741_10168279045_0 RECT_OPEN 1.0 1.5 0 0 1
C_10168279045_6196883741_0 RECT_OPEN 1.0 1.5 0 0 1
C_10168279045_6888399011_0 RECT_OPEN 1.0 1.5 0 0 1
C_10168279045_10168279044_0 RECT_OPEN 1.0 1.5 0 0 1
C_6196883747_6888399011_0 RECT_OPEN 1.0 1.5 0 0 1
C_6196883747_9749202516_0 RECT_OPEN 1.0 1.5 0 0 1
C_6888399011_10168279045_0 RECT_OPEN 1.0 1.5 0 0 1
C_6888399011_9796082511_0 RECT_OPEN 1.0 1.5 0 0 1
C_6888399011_9796082514_0 RECT_OPEN 1.0 1.5 0 0 1
C_6888399011_6196883747_0 RECT_OPEN 1.0 1.5 0 0 1
C_9749202516_6196883747_0 RECT_OPEN 1.0 1.5 0 0 1
C_9749202516_6749666079_0 RECT_OPEN 1.0 1.5 0 0 1
C_9749202516_12169759724_0 RECT_OPEN 1.0 1.5 0 0 1
C_6196989886_10172938611_0 RECT_OPEN 1.0 1.5 0 0 1
C_6196989886_6196989887_0 RECT_OPEN 1.0 1.5 0 0 1
C_6196989886_10172938612_0 RECT_OPEN 1.0 1.5 0 0 1
C_6196989887_6196989886_0 RECT_OPEN 1.0 1.5 0 0 1
C_6196989887_6196989892_0 RECT_OPEN 1.0 1.5 0 0 1
C_6196989887_6196989891_0 RECT_OPEN 1.0 1.5 0 0 1
C_10172938612_6196989886_0 RECT_OPEN 1.0 1.5 0 0 1
C_6196989892_6196989887_0 RECT_OPEN 1.0 1.5 0 0 1
C_6196989891_10172942118_0 RECT_OPEN 1.0 1.5 0 0 1
C_6196989891_6196989887_0 RECT_OPEN 1.0 1.5 0 0 1
C_6196989891_6196989889_0 RECT_OPEN 1.0 1.5 0 0 1
C_10172938610_6196989888_0 RECT_OPEN 1.0 1.5 0 0 1
C_10172938610_6196989889_0 RECT_OPEN 1.0 1.5 0 0 1
C_10172938610_10172938611_0 RECT_OPEN 1.0 1.5 0 0 1
C_10172938610_10172938609_0 RECT_OPEN 1.0 1.5 0 0 1
C_10172938605_6196989888_0 RECT_OPEN 1.0 1.5 0 0 1
C_6196989889_10172938610_0 RECT_OPEN 1.0 1.5 0 0 1
C_6196989889_6196989891_0 RECT_OPEN 1.0 1.5 0 0 1
C_6196989889_6196989893_0 RECT_OPEN 1.0 1.5 0 0 1
C_6196989889_11066374004_0 RECT_OPEN 1.0 1.5 0 0 1
C_11066374004_6196989889_0 RECT_OPEN 1.0 1.5 0 0 1
C_6196989890_10172942118_0 RECT_OPEN 1.0 1.5 0 0 1
C_10172942118_6196989890_0 RECT_OPEN 1.0 1.5 0 0 1
C_10172942118_6196989891_0 RECT_OPEN 1.0 1.5 0 0 1
C_10172942118_10172942119_0 RECT_OPEN 1.0 1.5 0 0 1
C_7479630751_7479630747_0 RECT_OPEN 1.0 1.5 0 0 1
C_7479630751_6196989893_0 RECT_OPEN 1.0 1.5 0 0 1
C_7479630751_10172938609_0 RECT_OPEN 1.0 1.5 0 0 1
C_7263153521_7263153520_0 RECT_OPEN 1.0 1.5 0 0 1
C_7263153521_6197379428_0 RECT_OPEN 1.0 1.5 0 0 1
C_7263153521_7265834830_0 RECT_OPEN 1.0 1.5 0 0 1
C_6197671075_10182468120_0 RECT_OPEN 1.0 1.5 0 0 1
C_11290340685_6458940001_0 RECT_OPEN 1.0 1.5 0 0 1
C_6499300016_6499300015_0 RECT_OPEN 1.0 1.5 0 0 1
C_7328007824_7328007823_0 RECT_OPEN 1.0 1.5 0 0 1
C_7328007824_6499300015_0 RECT_OPEN 1.0 1.5 0 0 1
C_7328007824_7328007827_0 RECT_OPEN 1.0 1.5 0 0 1
C_11395791821_6505394016_0 RECT_OPEN 1.0 1.5 0 0 1
C_6505394017_10996992466_0 RECT_OPEN 1.0 1.5 0 0 1
C_6505394017_10680776590_0 RECT_OPEN 1.0 1.5 0 0 1
C_6505394017_6753563683_0 RECT_OPEN 1.0 1.5 0 0 1
C_10680776590_6505394017_0 RECT_OPEN 1.0 1.5 0 0 1
C_6753563683_6768481191_0 RECT_OPEN 1.0 1.5 0 0 1
C_6753563683_7043731241_0 RECT_OPEN 1.0 1.5 0 0 1
C_6753563683_6505394017_0 RECT_OPEN 1.0 1.5 0 0 1
C_6536473096_6536473097_0 RECT_OPEN 1.0 1.5 0 0 1
C_6536473097_6536473099_0 RECT_OPEN 1.0 1.5 0 0 1
C_6536473097_9846394226_0 RECT_OPEN 1.0 1.5 0 0 1
C_6536473097_6536473096_0 RECT_OPEN 1.0 1.5 0 0 1
C_9846394226_6536473097_0 RECT_OPEN 1.0 1.5 0 0 1
C_9846394226_1615767007_0 RECT_OPEN 1.0 1.5 0 0 1
C_6536473098_6536473099_0 RECT_OPEN 1.0 1.5 0 0 1
C_6536473100_6536473101_0 RECT_OPEN 1.0 1.5 0 0 1
C_11397532787_6536473104_0 RECT_OPEN 1.0 1.5 0 0 1
C_6536473106_6536473107_0 RECT_OPEN 1.0 1.5 0 0 1
C_6536473109_6536473107_0 RECT_OPEN 1.0 1.5 0 0 1
C_6536473109_11397532788_0 RECT_OPEN 1.0 1.5 0 0 1
C_6536473109_11397532789_0 RECT_OPEN 1.0 1.5 0 0 1
C_11397532788_6536473109_0 RECT_OPEN 1.0 1.5 0 0 1
C_11397532789_6536473109_0 RECT_OPEN 1.0 1.5 0 0 1
C_6536473137_6536473134_0 RECT_OPEN 1.0 1.5 0 0 1
C_6536473137_6536473134_1 RECT_OPEN 1.0 1.5 0 0 1
C_6536473137_6536473139_0 RECT_OPEN 1.0 1.5 0 0 1
C_6536473138_6536473139_0 RECT_OPEN 1.0 1.5 0 0 1
C_6536882163_6536882164_0 RECT_OPEN 1.0 1.5 0 0 1
C_6536882164_6536882163_0 RECT_OPEN 1.0 1.5 0 0 1
C_6536882164_6536884402_0 RECT_OPEN 1.0 1.5 0 0 1
C_6536882164_10994329181_0 RECT_OPEN 1.0 1.5 0 0 1
C_6536884402_10994329190_0 RECT_OPEN 1.0 1.5 0 0 1
C_6536884402_12100338250_0 RECT_OPEN 1.0 1.5 0 0 1
C_6536884402_6536882164_0 RECT_OPEN 1.0 1.5 0 0 1
C_6536884402_6536884401_0 RECT_OPEN 1.0 1.5 0 0 1
C_10994329181_6536882164_0 RECT_OPEN 1.0 1.5 0 0 1
C_6536884398_6536884399_0 RECT_OPEN 1.0 1.5 0 0 1
C_10994377346_6536884399_0 RECT_OPEN 1.0 1.5 0 0 1
C_10994377346_6536884405_0 RECT_OPEN 1.0 1.5 0 0 1
C_10994377346_10994377348_0 RECT_OPEN 1.0 1.5 0 0 1
C_6536884400_6536884401_0 RECT_OPEN 1.0 1.5 0 0 1
C_6536884401_6536884400_0 RECT_OPEN 1.0 1.5 0 0 1
C_6536884401_6536884402_0 RECT_OPEN 1.0 1.5 0 0 1
C_6536884401_6536884405_0 RECT_OPEN 1.0 1.5 0 0 1
C_6536884405_10994377346_0 RECT_OPEN 1.0 1.5 0 0 1
C_6536884405_10994329190_0 RECT_OPEN 1.0 1.5 0 0 1
C_6536884405_6536884401_0 RECT_OPEN 1.0 1.5 0 0 1
C_10994329190_6536884402_0 RECT_OPEN 1.0 1.5 0 0 1
C_10994329190_6536884405_0 RECT_OPEN 1.0 1.5 0 0 1
C_10994329190_10994329192_0 RECT_OPEN 1.0 1.5 0 0 1
C_6562185320_1275552789_0 RECT_OPEN 1.0 1.5 0 0 1
C_6562185320_6562185321_0 RECT_OPEN 1.0 1.5 0 0 1
C_6631012279_10172868164_0 RECT_OPEN 1.0 1.5 0 0 1
C_6631012279_12060861673_0 RECT_OPEN 1.0 1.5 0 0 1
C_10172868164_10172868165_0 RECT_OPEN 1.0 1.5 0 0 1
C_10172868164_6631012279_0 RECT_OPEN 1.0 1.5 0 0 1
C_10172868164_6968263671_0 RECT_OPEN 1.0 1.5 0 0 1
C_9824245046_9824245043_0 RECT_OPEN 1.0 1.5 0 0 1
C_9824245046_9824245043_1 RECT_OPEN 1.0 1.5 0 0 1
C_9824245046_6749666079_0 RECT_OPEN 1.0 1.5 0 0 1
C_6749735684_4734151709_0 RECT_OPEN 1.0 1.5 0 0 1
C_6768481191_6753563683_0 RECT_OPEN 1.0 1.5 0 0 1
C_6768481191_6768481190_0 RECT_OPEN 1.0 1.5 0 0 1
C_6768481191_6753563684_0 RECT_OPEN 1.0 1.5 0 0 1
C_7043731241_6753563683_0 RECT_OPEN 1.0 1.5 0 0 1
C_6753563684_6768481191_0 RECT_OPEN 1.0 1.5 0 0 1
C_6755740921_10989354751_0 RECT_OPEN 1.0 1.5 0 0 1
C_10989354751_6755740921_0 RECT_OPEN 1.0 1.5 0 0 1
C_10989354751_6755740924_0 RECT_OPEN 1.0 1.5 0 0 1
C_10989354751_6755740924_1 RECT_OPEN 1.0 1.5 0 0 1
C_6755740924_10989354751_0 RECT_OPEN 1.0 1.5 0 0 1
C_6755740924_10989354751_1 RECT_OPEN 1.0 1.5 0 0 1
C_6755740924_6755740926_0 RECT_OPEN 1.0 1.5 0 0 1
C_6755740926_7328007827_0 RECT_OPEN 1.0 1.5 0 0 1
C_6755740926_6755740924_0 RECT_OPEN 1.0 1.5 0 0 1
C_7328007827_7328007824_0 RECT_OPEN 1.0 1.5 0 0 1
C_7328007827_6755740926_0 RECT_OPEN 1.0 1.5 0 0 1
C_7328007827_7328007822_0 RECT_OPEN 1.0 1.5 0 0 1
C_6758558441_6758558444_0 RECT_OPEN 1.0 1.5 0 0 1
C_10996648270_6758558444_0 RECT_OPEN 1.0 1.5 0 0 1
C_6758646579_10173119095_0 RECT_OPEN 1.0 1.5 0 0 1
C_6768481190_6768481191_0 RECT_OPEN 1.0 1.5 0 0 1
C_6802224014_6802224021_0 RECT_OPEN 1.0 1.5 0 0 1
C_6802224015_6802224021_0 RECT_OPEN 1.0 1.5 0 0 1
C_6884558829_6884558833_0 RECT_OPEN 1.0 1.5 0 0 1
C_6885777456_6902137283_0 RECT_OPEN 1.0 1.5 0 0 1
C_6902137283_6885777459_0 RECT_OPEN 1.0 1.5 0 0 1
C_6902137283_6885777458_0 RECT_OPEN 1.0 1.5 0 0 1
C_6902137283_6885777456_0 RECT_OPEN 1.0 1.5 0 0 1
C_6885777458_6902137283_0 RECT_OPEN 1.0 1.5 0 0 1
C_6887668015_9840153329_0 RECT_OPEN 1.0 1.5 0 0 1
C_6887668015_12443097988_0 RECT_OPEN 1.0 1.5 0 0 1
C_6887668015_12147412804_0 RECT_OPEN 1.0 1.5 0 0 1
C_9840153329_6887668015_0 RECT_OPEN 1.0 1.5 0 0 1
C_12443097988_12443097987_0 RECT_OPEN 1.0 1.5 0 0 1
C_12443097988_12443097989_0 RECT_OPEN 1.0 1.5 0 0 1
C_12443097988_6887668015_0 RECT_OPEN 1.0 1.5 0 0 1
C_12147412804_9720271254_0 RECT_OPEN 1.0 1.5 0 0 1
C_12147412804_12147412805_0 RECT_OPEN 1.0 1.5 0 0 1
C_12147412804_6887668015_0 RECT_OPEN 1.0 1.5 0 0 1
C_9796082511_6888399011_0 RECT_OPEN 1.0 1.5 0 0 1
C_9796082511_9525461684_0 RECT_OPEN 1.0 1.5 0 0 1
C_9796082514_10168279044_0 RECT_OPEN 1.0 1.5 0 0 1
C_9796082514_9759551602_0 RECT_OPEN 1.0 1.5 0 0 1
C_9796082514_6888399011_0 RECT_OPEN 1.0 1.5 0 0 1
C_6894631549_6894631550_0 RECT_OPEN 1.0 1.5 0 0 1
C_6894631550_6894631549_0 RECT_OPEN 1.0 1.5 0 0 1
C_6894631550_6536271335_0 RECT_OPEN 1.0 1.5 0 0 1
C_6901616696_6901616701_0 RECT_OPEN 1.0 1.5 0 0 1
C_6901616701_6901616703_0 RECT_OPEN 1.0 1.5 0 0 1
C_6901616701_12452602835_0 RECT_OPEN 1.0 1.5 0 0 1
C_6901616701_12194261264_0 RECT_OPEN 1.0 1.5 0 0 1
C_6901616701_6901616696_0 RECT_OPEN 1.0 1.5 0 0 1
C_6901616703_6901616701_0 RECT_OPEN 1.0 1.5 0 0 1
C_12452602835_6901616701_0 RECT_OPEN 1.0 1.5 0 0 1
C_12194261264_6901616701_0 RECT_OPEN 1.0 1.5 0 0 1
C_6904648003_6911622972_0 RECT_OPEN 1.0 1.5 0 0 1
C_6911622972_6904648005_0 RECT_OPEN 1.0 1.5 0 0 1
C_6911622972_6911622971_0 RECT_OPEN 1.0 1.5 0 0 1
C_6911622972_6904648003_0 RECT_OPEN 1.0 1.5 0 0 1
C_6911622971_6911622972_0 RECT_OPEN 1.0 1.5 0 0 1
C_6914358596_6914358633_0 RECT_OPEN 1.0 1.5 0 0 1
C_6914358633_6914358632_0 RECT_OPEN 1.0 1.5 0 0 1
C_6914358633_7479631061_0 RECT_OPEN 1.0 1.5 0 0 1
C_6914358633_6914358596_0 RECT_OPEN 1.0 1.5 0 0 1
C_6914358616_7479630561_0 RECT_OPEN 1.0 1.5 0 0 1
C_6914358625_6914358630_0 RECT_OPEN 1.0 1.5 0 0 1
C_6914358625_12462722212_0 RECT_OPEN 1.0 1.5 0 0 1
C_6914358630_7479631061_0 RECT_OPEN 1.0 1.5 0 0 1
C_6914358630_6914358648_0 RECT_OPEN 1.0 1.5 0 0 1
C_6914358630_6914358625_0 RECT_OPEN 1.0 1.5 0 0 1
C_12462722212_7479631049_0 RECT_OPEN 1.0 1.5 0 0 1
C_12462722212_7479631043_0 RECT_OPEN 1.0 1.5 0 0 1
C_12462722212_6914358625_0 RECT_OPEN 1.0 1.5 0 0 1
C_6914358626_6914358627_0 RECT_OPEN 1.0 1.5 0 0 1
C_6914358626_9179098233_0 RECT_OPEN 1.0 1.5 0 0 1
C_6914358626_7479631046_0 RECT_OPEN 1.0 1.5 0 0 1
C_6914358627_6914358626_0 RECT_OPEN 1.0 1.5 0 0 1
C_6914358627_7479631043_0 RECT_OPEN 1.0 1.5 0 0 1
C_6914358627_7479631050_0 RECT_OPEN 1.0 1.5 0 0 1
C_9179098233_6914358626_0 RECT_OPEN 1.0 1.5 0 0 1
C_9179098233_7479631043_0 RECT_OPEN 1.0 1.5 0 0 1
C_9179098233_6914358649_0 RECT_OPEN 1.0 1.5 0 0 1
C_7479631043_6914358627_0 RECT_OPEN 1.0 1.5 0 0 1
C_7479631043_12462722212_0 RECT_OPEN 1.0 1.5 0 0 1
C_7479631043_9179098233_0 RECT_OPEN 1.0 1.5 0 0 1
C_7479631050_6914358627_0 RECT_OPEN 1.0 1.5 0 0 1
C_7479631061_7479630985_0 RECT_OPEN 1.0 1.5 0 0 1
C_7479631061_6914358633_0 RECT_OPEN 1.0 1.5 0 0 1
C_7479631061_6914358630_0 RECT_OPEN 1.0 1.5 0 0 1
C_6914358648_6914358649_0 RECT_OPEN 1.0 1.5 0 0 1
C_6914358648_10182456214_0 RECT_OPEN 1.0 1.5 0 0 1
C_6914358648_6914358630_0 RECT_OPEN 1.0 1.5 0 0 1
C_6914358631_6914358632_0 RECT_OPEN 1.0 1.5 0 0 1
C_6914358649_6914358648_0 RECT_OPEN 1.0 1.5 0 0 1
C_6914358649_9179098233_0 RECT_OPEN 1.0 1.5 0 0 1
C_6914358649_7479630545_0 RECT_OPEN 1.0 1.5 0 0 1
C_10182456214_6914358648_0 RECT_OPEN 1.0 1.5 0 0 1
C_7479630545_7479630520_0 RECT_OPEN 1.0 1.5 0 0 1
C_7479630545_7479630537_0 RECT_OPEN 1.0 1.5 0 0 1
C_7479630545_6914358649_0 RECT_OPEN 1.0 1.5 0 0 1
C_6968263670_6968263671_0 RECT_OPEN 1.0 1.5 0 0 1
C_7095228341_7478154530_0 RECT_OPEN 1.0 1.5 0 0 1
C_7095228341_13136176386_0 RECT_OPEN 1.0 1.5 0 0 1
C_7095228341_7095228343_0 RECT_OPEN 1.0 1.5 0 0 1
C_7478154530_11370378569_0 RECT_OPEN 1.0 1.5 0 0 1
C_7478154530_7095228341_0 RECT_OPEN 1.0 1.5 0 0 1
C_7478154530_7478154518_0 RECT_OPEN 1.0 1.5 0 0 1
C_7095228343_7095228341_0 RECT_OPEN 1.0 1.5 0 0 1
C_7095265249_11370378569_0 RECT_OPEN 1.0 1.5 0 0 1
C_7097308434_12145839287_0 RECT_OPEN 1.0 1.5 0 0 1
C_7097308434_9830778271_0 RECT_OPEN 1.0 1.5 0 0 1
C_7097308434_7097308435_0 RECT_OPEN 1.0 1.5 0 0 1
C_7097308435_7097308434_0 RECT_OPEN 1.0 1.5 0 0 1
C_7138066340_13130383416_0 RECT_OPEN 1.0 1.5 0 0 1
C_13130383416_7328007816_0 RECT_OPEN 1.0 1.5 0 0 1
C_7147081174_7479630457_0 RECT_OPEN 1.0 1.5 0 0 1
C_7479630457_7147081174_0 RECT_OPEN 1.0 1.5 0 0 1
C_7479630457_7147081175_0 RECT_OPEN 1.0 1.5 0 0 1
C_7479630457_7479630458_0 RECT_OPEN 1.0 1.5 0 0 1
C_7479630456_7479630455_0 RECT_OPEN 1.0 1.5 0 0 1
C_7479630456_7479630469_0 RECT_OPEN 1.0 1.5 0 0 1
C_7479630456_7147081175_0 RECT_OPEN 1.0 1.5 0 0 1
C_7147100015_13134720443_0 RECT_OPEN 1.0 1.5 0 0 1
C_13134720443_13134720442_0 RECT_OPEN 1.0 1.5 0 0 1
C_13134720443_7147100015_0 RECT_OPEN 1.0 1.5 0 0 1
C_13134720443_7147100023_0 RECT_OPEN 1.0 1.5 0 0 1
C_7147100023_13823559216_0 RECT_OPEN 1.0 1.5 0 0 1
C_7147100023_13134720443_0 RECT_OPEN 1.0 1.5 0 0 1
C_13823559216_6180290590_0 RECT_OPEN 1.0 1.5 0 0 1
C_7147986885_7147949887_0 RECT_OPEN 1.0 1.5 0 0 1
C_7147986187_7147949887_0 RECT_OPEN 1.0 1.5 0 0 1
C_12651830520_7262830543_0 RECT_OPEN 1.0 1.5 0 0 1
C_7263153520_7263153521_0 RECT_OPEN 1.0 1.5 0 0 1
C_7265834830_7263153521_0 RECT_OPEN 1.0 1.5 0 0 1
C_7263153527_7263153533_0 RECT_OPEN 1.0 1.5 0 0 1
C_7265834819_7263153539_0 RECT_OPEN 1.0 1.5 0 0 1
C_7263316361_7263316354_0 RECT_OPEN 1.0 1.5 0 0 1
C_7266164815_7266164820_0 RECT_OPEN 1.0 1.5 0 0 1
C_9179098228_7298619209_0 RECT_OPEN 1.0 1.5 0 0 1
C_7298619246_12558535618_0 RECT_OPEN 1.0 1.5 0 0 1
C_7298619246_13135583058_0 RECT_OPEN 1.0 1.5 0 0 1
C_7298619246_9757079871_0 RECT_OPEN 1.0 1.5 0 0 1
C_12558535618_7298619246_0 RECT_OPEN 1.0 1.5 0 0 1
C_12558535618_13135627938_0 RECT_OPEN 1.0 1.5 0 0 1
C_12558535618_13135583074_0 RECT_OPEN 1.0 1.5 0 0 1
C_13135583058_7298619246_0 RECT_OPEN 1.0 1.5 0 0 1
C_9757079871_9757079872_0 RECT_OPEN 1.0 1.5 0 0 1
C_9757079871_9757079870_0 RECT_OPEN 1.0 1.5 0 0 1
C_9757079871_7298619246_0 RECT_OPEN 1.0 1.5 0 0 1
C_7301789573_7301789574_0 RECT_OPEN 1.0 1.5 0 0 1
C_10996655571_10996655572_0 RECT_OPEN 1.0 1.5 0 0 1
C_10996655571_9826793285_0 RECT_OPEN 1.0 1.5 0 0 1
C_10996655571_7301789574_0 RECT_OPEN 1.0 1.5 0 0 1
C_7301790589_7301790590_0 RECT_OPEN 1.0 1.5 0 0 1
C_7328007238_7328007243_0 RECT_OPEN 1.0 1.5 0 0 1
C_7478154531_7328007243_0 RECT_OPEN 1.0 1.5 0 0 1
C_7478154531_7479631472_0 RECT_OPEN 1.0 1.5 0 0 1
C_7478154531_7478154532_0 RECT_OPEN 1.0 1.5 0 0 1
C_7328007284_7328007285_0 RECT_OPEN 1.0 1.5 0 0 1
C_7328007287_7328007288_0 RECT_OPEN 1.0 1.5 0 0 1
C_7478154670_7328007720_0 RECT_OPEN 1.0 1.5 0 0 1
C_7328007723_7328007720_0 RECT_OPEN 1.0 1.5 0 0 1
C_7328007816_7602632240_0 RECT_OPEN 1.0 1.5 0 0 1
C_7328007816_7328099161_0 RECT_OPEN 1.0 1.5 0 0 1
C_7602632240_13130383417_0 RECT_OPEN 1.0 1.5 0 0 1
C_7602632240_7602632242_0 RECT_OPEN 1.0 1.5 0 0 1
C_7328099161_7328099162_0 RECT_OPEN 1.0 1.5 0 0 1
C_7328099161_7328099147_0 RECT_OPEN 1.0 1.5 0 0 1
C_7328007822_7328007827_0 RECT_OPEN 1.0 1.5 0 0 1
C_7328007823_7328007824_0 RECT_OPEN 1.0 1.5 0 0 1
C_7328099142_7328099146_0 RECT_OPEN 1.0 1.5 0 0 1
C_7328099147_7328099157_0 RECT_OPEN 1.0 1.5 0 0 1
C_7328099147_695079385_0 RECT_OPEN 1.0 1.5 0 0 1
C_7328099157_7328099147_0 RECT_OPEN 1.0 1.5 0 0 1
C_7328099162_7328099161_0 RECT_OPEN 1.0 1.5 0 0 1
C_7328345273_13142028564_0 RECT_OPEN 1.0 1.5 0 0 1
C_13142028564_13142028598_0 RECT_OPEN 1.0 1.5 0 0 1
C_13142028564_7328345273_0 RECT_OPEN 1.0 1.5 0 0 1
C_13142028564_13142028560_0 RECT_OPEN 1.0 1.5 0 0 1
C_7328345275_7328345274_0 RECT_OPEN 1.0 1.5 0 0 1
C_7328345275_12415673019_0 RECT_OPEN 1.0 1.5 0 0 1
C_7328345275_13142028560_0 RECT_OPEN 1.0 1.5 0 0 1
C_12415673019_7328345275_0 RECT_OPEN 1.0 1.5 0 0 1
C_13142028560_13142028562_0 RECT_OPEN 1.0 1.5 0 0 1
C_13142028560_7328345275_0 RECT_OPEN 1.0 1.5 0 0 1
C_13142028560_13142028564_0 RECT_OPEN 1.0 1.5 0 0 1
C_7328379058_7328379067_0 RECT_OPEN 1.0 1.5 0 0 1
C_7328379077_7328379076_0 RECT_OPEN 1.0 1.5 0 0 1
C_7328379154_7328379151_0 RECT_OPEN 1.0 1.5 0 0 1
C_7328379156_7328379155_0 RECT_OPEN 1.0 1.5 0 0 1
C_9849585566_7328379155_0 RECT_OPEN 1.0 1.5 0 0 1
C_11707855552_7328379157_0 RECT_OPEN 1.0 1.5 0 0 1
C_7328379167_7328379166_0 RECT_OPEN 1.0 1.5 0 0 1
C_13736562866_7328379166_0 RECT_OPEN 1.0 1.5 0 0 1
C_7328379176_7328379175_0 RECT_OPEN 1.0 1.5 0 0 1
C_7328379201_7328379200_0 RECT_OPEN 1.0 1.5 0 0 1
C_7432261686_7432261687_0 RECT_OPEN 1.0 1.5 0 0 1
C_7432261686_6894631550_0 RECT_OPEN 1.0 1.5 0 0 1
C_7432261687_7432261686_0 RECT_OPEN 1.0 1.5 0 0 1
C_7479631027_7436685266_0 RECT_OPEN 1.0 1.5 0 0 1
C_7479631027_7437331394_0 RECT_OPEN 1.0 1.5 0 0 1
C_7479631027_7479631021_0 RECT_OPEN 1.0 1.5 0 0 1
C_7479630316_7437331400_0 RECT_OPEN 1.0 1.5 0 0 1
C_7479630316_7436685266_0 RECT_OPEN 1.0 1.5 0 0 1
C_7437296683_7437296682_0 RECT_OPEN 1.0 1.5 0 0 1
C_7437296683_7479630324_0 RECT_OPEN 1.0 1.5 0 0 1
C_7437296683_7437331404_0 RECT_OPEN 1.0 1.5 0 0 1
C_7479630324_7437296683_0 RECT_OPEN 1.0 1.5 0 0 1
C_7479630324_7479630325_0 RECT_OPEN 1.0 1.5 0 0 1
C_7437331394_7437331401_0 RECT_OPEN 1.0 1.5 0 0 1
C_7437331394_7479631027_0 RECT_OPEN 1.0 1.5 0 0 1
C_7437331394_7479631031_0 RECT_OPEN 1.0 1.5 0 0 1
C_7437331401_7437331394_0 RECT_OPEN 1.0 1.5 0 0 1
C_7437331401_7437331400_0 RECT_OPEN 1.0 1.5 0 0 1
C_7479631031_7479630422_0 RECT_OPEN 1.0 1.5 0 0 1
C_7479631031_7437331394_0 RECT_OPEN 1.0 1.5 0 0 1
C_7479631031_7479631029_0 RECT_OPEN 1.0 1.5 0 0 1
C_7437331400_7479630316_0 RECT_OPEN 1.0 1.5 0 0 1
C_7437331400_7437331401_0 RECT_OPEN 1.0 1.5 0 0 1
C_7465559431_7465559430_0 RECT_OPEN 1.0 1.5 0 0 1
C_11432092734_7465559430_0 RECT_OPEN 1.0 1.5 0 0 1
C_7478154505_7478154497_0 RECT_OPEN 1.0 1.5 0 0 1
C_7478154524_7478154516_0 RECT_OPEN 1.0 1.5 0 0 1
C_7478154524_7478154523_0 RECT_OPEN 1.0 1.5 0 0 1
C_7478154524_7478154518_0 RECT_OPEN 1.0 1.5 0 0 1
C_7478154518_7478154516_0 RECT_OPEN 1.0 1.5 0 0 1
C_7478154518_7478154530_0 RECT_OPEN 1.0 1.5 0 0 1
C_7478154518_7478154524_0 RECT_OPEN 1.0 1.5 0 0 1
C_7478154523_7478154524_0 RECT_OPEN 1.0 1.5 0 0 1
C_7478154532_7478154531_0 RECT_OPEN 1.0 1.5 0 0 1
C_7478154534_7478154539_0 RECT_OPEN 1.0 1.5 0 0 1
C_7478154539_7478154545_0 RECT_OPEN 1.0 1.5 0 0 1
C_7478154539_7478154534_0 RECT_OPEN 1.0 1.5 0 0 1
C_7478154539_7478154540_0 RECT_OPEN 1.0 1.5 0 0 1
C_7478154545_7478154539_0 RECT_OPEN 1.0 1.5 0 0 1
C_7478154544_7478154540_0 RECT_OPEN 1.0 1.5 0 0 1
C_7478154575_7478154579_0 RECT_OPEN 1.0 1.5 0 0 1
C_7478154575_7478154576_0 RECT_OPEN 1.0 1.5 0 0 1
C_7478154575_7478154577_0 RECT_OPEN 1.0 1.5 0 0 1
C_7478154576_7478154575_0 RECT_OPEN 1.0 1.5 0 0 1
C_7478154577_7478154575_0 RECT_OPEN 1.0 1.5 0 0 1
C_11433644719_11433644720_0 RECT_OPEN 1.0 1.5 0 0 1
C_11433644719_7478154651_0 RECT_OPEN 1.0 1.5 0 0 1
C_11433644719_11433644721_0 RECT_OPEN 1.0 1.5 0 0 1
C_7478154725_7478154729_0 RECT_OPEN 1.0 1.5 0 0 1
C_7478154725_7478154786_0 RECT_OPEN 1.0 1.5 0 0 1
C_7478154786_7478154787_0 RECT_OPEN 1.0 1.5 0 0 1
C_7478154786_11921590003_0 RECT_OPEN 1.0 1.5 0 0 1
C_7478154786_7478154725_0 RECT_OPEN 1.0 1.5 0 0 1
C_12447971611_7478154729_0 RECT_OPEN 1.0 1.5 0 0 1
C_7478154787_7478154786_0 RECT_OPEN 1.0 1.5 0 0 1
C_11921590003_11414759654_0 RECT_OPEN 1.0 1.5 0 0 1
C_11921590003_7478154786_0 RECT_OPEN 1.0 1.5 0 0 1
C_12446863535_12963900368_0 RECT_OPEN 1.0 1.5 0 0 1
C_12446863535_7478155165_0 RECT_OPEN 1.0 1.5 0 0 1
C_12446863535_12446863536_0 RECT_OPEN 1.0 1.5 0 0 1
C_12443097983_12443097985_0 RECT_OPEN 1.0 1.5 0 0 1
C_12443097983_12443097982_0 RECT_OPEN 1.0 1.5 0 0 1
C_12443097983_7478155165_0 RECT_OPEN 1.0 1.5 0 0 1
C_7479630319_7479630320_0 RECT_OPEN 1.0 1.5 0 0 1
C_7479630422_7479631031_0 RECT_OPEN 1.0 1.5 0 0 1
C_7479630444_7479630469_0 RECT_OPEN 1.0 1.5 0 0 1
C_7479630455_7479630456_0 RECT_OPEN 1.0 1.5 0 0 1
C_7479630458_7479630457_0 RECT_OPEN 1.0 1.5 0 0 1
C_7479630480_7479630483_0 RECT_OPEN 1.0 1.5 0 0 1
C_7479630512_7479630537_0 RECT_OPEN 1.0 1.5 0 0 1
C_7479630537_7479630512_0 RECT_OPEN 1.0 1.5 0 0 1
C_7479630537_7479630520_0 RECT_OPEN 1.0 1.5 0 0 1
C_7479630537_7479630545_0 RECT_OPEN 1.0 1.5 0 0 1
C_7479630747_7479630751_0 RECT_OPEN 1.0 1.5 0 0 1
C_7479630756_7479630758_0 RECT_OPEN 1.0 1.5 0 0 1
C_9784518335_7479630758_0 RECT_OPEN 1.0 1.5 0 0 1
C_9784518335_9784518334_0 RECT_OPEN 1.0 1.5 0 0 1
C_9784518335_11434263478_0 RECT_OPEN 1.0 1.5 0 0 1
C_10172935935_7479630763_0 RECT_OPEN 1.0 1.5 0 0 1
C_7479630767_7479630768_0 RECT_OPEN 1.0 1.5 0 0 1
C_7479630769_7479630770_0 RECT_OPEN 1.0 1.5 0 0 1
C_7479630772_7479630771_0 RECT_OPEN 1.0 1.5 0 0 1
C_7479630773_9784518332_0 RECT_OPEN 1.0 1.5 0 0 1
C_9784518332_7479630773_0 RECT_OPEN 1.0 1.5 0 0 1
C_9784518332_7479630780_0 RECT_OPEN 1.0 1.5 0 0 1
C_9784518332_9784518333_0 RECT_OPEN 1.0 1.5 0 0 1
C_7479630774_7479630779_0 RECT_OPEN 1.0 1.5 0 0 1
C_7479630774_11434263476_0 RECT_OPEN 1.0 1.5 0 0 1
C_7479630774_7479630780_0 RECT_OPEN 1.0 1.5 0 0 1
C_7479630779_7479630782_0 RECT_OPEN 1.0 1.5 0 0 1
C_7479630779_7479630774_0 RECT_OPEN 1.0 1.5 0 0 1
C_7479630779_7479630778_0 RECT_OPEN 1.0 1.5 0 0 1
C_11434263476_7479630774_0 RECT_OPEN 1.0 1.5 0 0 1
C_11434263476_12477867929_0 RECT_OPEN 1.0 1.5 0 0 1
C_11434263476_11434263477_0 RECT_OPEN 1.0 1.5 0 0 1
C_12477867928_7479630775_0 RECT_OPEN 1.0 1.5 0 0 1
C_7479630777_7479630782_0 RECT_OPEN 1.0 1.5 0 0 1
C_7479630778_7479630779_0 RECT_OPEN 1.0 1.5 0 0 1
C_7479630836_6137643400_0 RECT_OPEN 1.0 1.5 0 0 1
C_7479630836_7479630845_0 RECT_OPEN 1.0 1.5 0 0 1
C_7479630845_7479630836_0 RECT_OPEN 1.0 1.5 0 0 1
C_7479630846_7479630847_0 RECT_OPEN 1.0 1.5 0 0 1
C_7479630851_7479630857_0 RECT_OPEN 1.0 1.5 0 0 1
C_7479630857_13134720405_0 RECT_OPEN 1.0 1.5 0 0 1
C_7479630857_7479630851_0 RECT_OPEN 1.0 1.5 0 0 1
C_7479630857_9784652733_0 RECT_OPEN 1.0 1.5 0 0 1
C_9784652733_7479630857_0 RECT_OPEN 1.0 1.5 0 0 1
C_7479630860_7479630861_0 RECT_OPEN 1.0 1.5 0 0 1
C_7479630866_7479630871_0 RECT_OPEN 1.0 1.5 0 0 1
C_7479630871_7479630866_0 RECT_OPEN 1.0 1.5 0 0 1
C_7479630871_7479630867_0 RECT_OPEN 1.0 1.5 0 0 1
C_7479630871_7479630875_0 RECT_OPEN 1.0 1.5 0 0 1
C_7479630868_7479630867_0 RECT_OPEN 1.0 1.5 0 0 1
C_7479630875_7479630871_0 RECT_OPEN 1.0 1.5 0 0 1
C_7479630878_7479630882_0 RECT_OPEN 1.0 1.5 0 0 1
C_7479630883_7479630882_0 RECT_OPEN 1.0 1.5 0 0 1
C_7479630901_7479630959_0 RECT_OPEN 1.0 1.5 0 0 1
C_7479630959_7479630944_0 RECT_OPEN 1.0 1.5 0 0 1
C_7479630959_7479630901_0 RECT_OPEN 1.0 1.5 0 0 1
C_7479630959_12464922958_0 RECT_OPEN 1.0 1.5 0 0 1
C_11434843380_7479630930_0 RECT_OPEN 1.0 1.5 0 0 1
C_7479630941_7479630944_0 RECT_OPEN 1.0 1.5 0 0 1
C_7479630944_7479630959_0 RECT_OPEN 1.0 1.5 0 0 1
C_7479630944_7479630941_0 RECT_OPEN 1.0 1.5 0 0 1
C_7479630944_7479630950_0 RECT_OPEN 1.0 1.5 0 0 1
C_12464922958_7479630959_0 RECT_OPEN 1.0 1.5 0 0 1
C_7479630985_7479631061_0 RECT_OPEN 1.0 1.5 0 0 1
C_7479631021_7479631027_0 RECT_OPEN 1.0 1.5 0 0 1
C_7479631030_7479631029_0 RECT_OPEN 1.0 1.5 0 0 1
C_7479631047_7479631046_0 RECT_OPEN 1.0 1.5 0 0 1
C_7479631049_12462722212_0 RECT_OPEN 1.0 1.5 0 0 1
C_7479631125_7479631129_0 RECT_OPEN 1.0 1.5 0 0 1
C_7479631135_12468537412_0 RECT_OPEN 1.0 1.5 0 0 1
C_7479631135_7479631133_0 RECT_OPEN 1.0 1.5 0 0 1
C_7479631135_7479631136_0 RECT_OPEN 1.0 1.5 0 0 1
C_7479631134_7479631133_0 RECT_OPEN 1.0 1.5 0 0 1
C_7479631136_7479631135_0 RECT_OPEN 1.0 1.5 0 0 1
C_7479631147_7479631148_0 RECT_OPEN 1.0 1.5 0 0 1
C_7479631152_7479631149_0 RECT_OPEN 1.0 1.5 0 0 1
C_7479631169_7479631168_0 RECT_OPEN 1.0 1.5 0 0 1
C_7479631180_7479631181_0 RECT_OPEN 1.0 1.5 0 0 1
C_7479631187_7479631182_0 RECT_OPEN 1.0 1.5 0 0 1
C_7479631192_7479631193_0 RECT_OPEN 1.0 1.5 0 0 1
C_7479631213_7479631210_0 RECT_OPEN 1.0 1.5 0 0 1
C_7479631444_10948126480_0 RECT_OPEN 1.0 1.5 0 0 1
C_10948126480_10948126479_0 RECT_OPEN 1.0 1.5 0 0 1
C_10948126480_6144095981_0 RECT_OPEN 1.0 1.5 0 0 1
C_10948126480_7479631444_0 RECT_OPEN 1.0 1.5 0 0 1
C_7479631471_7479631470_0 RECT_OPEN 1.0 1.5 0 0 1
C_7479631476_7479631472_0 RECT_OPEN 1.0 1.5 0 0 1
C_7484216047_7484216048_0 RECT_OPEN 1.0 1.5 0 0 1
C_10182376309_7484216048_0 RECT_OPEN 1.0 1.5 0 0 1
C_10182376309_10182376310_0 RECT_OPEN 1.0 1.5 0 0 1
C_10182376309_7484216052_0 RECT_OPEN 1.0 1.5 0 0 1
C_7484216051_7484216052_0 RECT_OPEN 1.0 1.5 0 0 1
C_7484216052_7484216051_0 RECT_OPEN 1.0 1.5 0 0 1
C_7484216052_10182376302_0 RECT_OPEN 1.0 1.5 0 0 1
C_7484216052_10182376309_0 RECT_OPEN 1.0 1.5 0 0 1
C_10182376302_10182376305_0 RECT_OPEN 1.0 1.5 0 0 1
C_10182376302_7484216052_0 RECT_OPEN 1.0 1.5 0 0 1
C_10182376302_10182376304_0 RECT_OPEN 1.0 1.5 0 0 1
C_13130383417_7602632240_0 RECT_OPEN 1.0 1.5 0 0 1
C_13130383417_9824051075_0 RECT_OPEN 1.0 1.5 0 0 1
C_13130383417_13130383416_0 RECT_OPEN 1.0 1.5 0 0 1
C_11009632658_8433749411_0 RECT_OPEN 1.0 1.5 0 0 1
C_10196255890_8530739259_0 RECT_OPEN 1.0 1.5 0 0 1
C_8609029843_11011650785_0 RECT_OPEN 1.0 1.5 0 0 1
C_8609029843_10213547238_0 RECT_OPEN 1.0 1.5 0 0 1
C_8609029843_12279397377_0 RECT_OPEN 1.0 1.5 0 0 1
C_12279397377_12278137174_0 RECT_OPEN 1.0 1.5 0 0 1
C_12279397377_8609029843_0 RECT_OPEN 1.0 1.5 0 0 1
C_9179098226_9179098227_0 RECT_OPEN 1.0 1.5 0 0 1
C_9510028747_11121177292_0 RECT_OPEN 1.0 1.5 0 0 1
C_9510028747_10994453386_0 RECT_OPEN 1.0 1.5 0 0 1
C_9510028747_9510028744_0 RECT_OPEN 1.0 1.5 0 0 1
C_11121177292_9510028770_0 RECT_OPEN 1.0 1.5 0 0 1
C_11121177292_9510028747_0 RECT_OPEN 1.0 1.5 0 0 1
C_11121177292_11121177293_0 RECT_OPEN 1.0 1.5 0 0 1
C_10994453386_9510028747_0 RECT_OPEN 1.0 1.5 0 0 1
C_9510028770_11121177292_0 RECT_OPEN 1.0 1.5 0 0 1
C_9525461684_9796082511_0 RECT_OPEN 1.0 1.5 0 0 1
C_9708811991_9708811990_0 RECT_OPEN 1.0 1.5 0 0 1
C_12147412806_9720271254_0 RECT_OPEN 1.0 1.5 0 0 1
C_12169759724_9749202516_0 RECT_OPEN 1.0 1.5 0 0 1
C_12169759724_12169759731_0 RECT_OPEN 1.0 1.5 0 0 1
C_9757079870_9757079871_0 RECT_OPEN 1.0 1.5 0 0 1
C_9757079872_9757079871_0 RECT_OPEN 1.0 1.5 0 0 1
C_9757079872_13135583074_0 RECT_OPEN 1.0 1.5 0 0 1
C_9757079872_13135583071_0 RECT_OPEN 1.0 1.5 0 0 1
C_13135583074_12558535618_0 RECT_OPEN 1.0 1.5 0 0 1
C_13135583074_9757079872_0 RECT_OPEN 1.0 1.5 0 0 1
C_13135583074_13135583069_0 RECT_OPEN 1.0 1.5 0 0 1
C_13135583071_9757079872_0 RECT_OPEN 1.0 1.5 0 0 1
C_9759551602_9796082514_0 RECT_OPEN 1.0 1.5 0 0 1
C_9759551602_12169759734_0 RECT_OPEN 1.0 1.5 0 0 1
C_12169759734_12169759733_0 RECT_OPEN 1.0 1.5 0 0 1
C_12169759734_10221211848_0 RECT_OPEN 1.0 1.5 0 0 1
C_9784518333_9784518332_0 RECT_OPEN 1.0 1.5 0 0 1
C_9784518334_9784518335_0 RECT_OPEN 1.0 1.5 0 0 1
C_11434263478_9784518335_0 RECT_OPEN 1.0 1.5 0 0 1
C_13343872440_9788419608_0 RECT_OPEN 1.0 1.5 0 0 1
C_10168279044_9796082514_0 RECT_OPEN 1.0 1.5 0 0 1
C_10168279044_10168279045_0 RECT_OPEN 1.0 1.5 0 0 1
C_10168279044_9796082515_0 RECT_OPEN 1.0 1.5 0 0 1
C_9796082515_10168279044_0 RECT_OPEN 1.0 1.5 0 0 1
C_9796708050_1614318730_0 RECT_OPEN 1.0 1.5 0 0 1
C_9824051075_13130383417_0 RECT_OPEN 1.0 1.5 0 0 1
C_9824051075_7138066340_0 RECT_OPEN 1.0 1.5 0 0 1
C_9824245043_11184918138_0 RECT_OPEN 1.0 1.5 0 0 1
C_9824245043_9824245046_0 RECT_OPEN 1.0 1.5 0 0 1
C_9824245043_9824245046_1 RECT_OPEN 1.0 1.5 0 0 1
C_11184918138_9824245043_0 RECT_OPEN 1.0 1.5 0 0 1
C_9826793285_9826793286_0 RECT_OPEN 1.0 1.5 0 0 1
C_9826793285_10996944954_0 RECT_OPEN 1.0 1.5 0 0 1
C_9826793285_10996655571_0 RECT_OPEN 1.0 1.5 0 0 1
C_9826793286_9826793285_0 RECT_OPEN 1.0 1.5 0 0 1
C_11233009356_307401420_0 RECT_OPEN 1.0 1.5 0 0 1
C_12506414300_6142233157_0 RECT_OPEN 1.0 1.5 0 0 1
C_9846394217_11428038811_0 RECT_OPEN 1.0 1.5 0 0 1
C_11428038811_11428038810_0 RECT_OPEN 1.0 1.5 0 0 1
C_11428038811_9846394217_0 RECT_OPEN 1.0 1.5 0 0 1
C_11428038811_11922878281_0 RECT_OPEN 1.0 1.5 0 0 1
C_10969136196_10969136192_0 RECT_OPEN 1.0 1.5 0 0 1
C_10969136196_695070306_0 RECT_OPEN 1.0 1.5 0 0 1
C_10969136194_10969136196_0 RECT_OPEN 1.0 1.5 0 0 1
C_10969136194_9846394225_0 RECT_OPEN 1.0 1.5 0 0 1
C_13877530781_13877530782_0 RECT_OPEN 1.0 1.5 0 0 1
C_13877530781_12956054174_0 RECT_OPEN 1.0 1.5 0 0 1
C_11509998741_11509998750_0 RECT_OPEN 1.0 1.5 0 0 1
C_11509998741_13928938237_0 RECT_OPEN 1.0 1.5 0 0 1
C_13903770309_13903770310_0 RECT_OPEN 1.0 1.5 0 0 1
C_13903770309_11873774240_0 RECT_OPEN 1.0 1.5 0 0 1
C_10172868165_10172868164_0 RECT_OPEN 1.0 1.5 0 0 1
C_10172914467_10172914465_0 RECT_OPEN 1.0 1.5 0 0 1
C_10172935937_10172935936_0 RECT_OPEN 1.0 1.5 0 0 1
C_10172935939_10172935938_0 RECT_OPEN 1.0 1.5 0 0 1
C_10172942119_10172942118_0 RECT_OPEN 1.0 1.5 0 0 1
C_10172979378_10172979379_0 RECT_OPEN 1.0 1.5 0 0 1
C_11359603296_10172979380_0 RECT_OPEN 1.0 1.5 0 0 1
C_11432115299_10172979382_0 RECT_OPEN 1.0 1.5 0 0 1
C_10172979412_10172979413_0 RECT_OPEN 1.0 1.5 0 0 1
C_10172979415_10172979414_0 RECT_OPEN 1.0 1.5 0 0 1
C_10172982422_10172982423_0 RECT_OPEN 1.0 1.5 0 0 1
C_10173119094_10173119093_0 RECT_OPEN 1.0 1.5 0 0 1
C_13140374056_10173119093_0 RECT_OPEN 1.0 1.5 0 0 1
C_10173119096_10173119095_0 RECT_OPEN 1.0 1.5 0 0 1
C_10175047394_10175047393_0 RECT_OPEN 1.0 1.5 0 0 1
C_10175047396_10175047395_0 RECT_OPEN 1.0 1.5 0 0 1
C_10182373816_10182373813_0 RECT_OPEN 1.0 1.5 0 0 1
C_10182376305_10182376306_0 RECT_OPEN 1.0 1.5 0 0 1
C_10182376305_10182376307_0 RECT_OPEN 1.0 1.5 0 0 1
C_10182376305_10182376302_0 RECT_OPEN 1.0 1.5 0 0 1
C_10182376304_10182376302_0 RECT_OPEN 1.0 1.5 0 0 1
C_10182376306_10182376305_0 RECT_OPEN 1.0 1.5 0 0 1
C_10182376308_10182376307_0 RECT_OPEN 1.0 1.5 0 0 1
C_10182376310_10182376309_0 RECT_OPEN 1.0 1.5 0 0 1
C_10182379412_12198988557_0 RECT_OPEN 1.0 1.5 0 0 1
C_10182379412_12432886068_0 RECT_OPEN 1.0 1.5 0 0 1
C_12198988557_12198988556_0 RECT_OPEN 1.0 1.5 0 0 1
C_12432886068_11921590006_0 RECT_OPEN 1.0 1.5 0 0 1
C_12432886068_12543439896_0 RECT_OPEN 1.0 1.5 0 0 1
C_10182451858_10182451857_0 RECT_OPEN 1.0 1.5 0 0 1
C_11290335534_10182729200_0 RECT_OPEN 1.0 1.5 0 0 1
C_12651793611_10182729200_0 RECT_OPEN 1.0 1.5 0 0 1
C_10221211848_12169759733_0 RECT_OPEN 1.0 1.5 0 0 1
C_10221211848_12169759721_0 RECT_OPEN 1.0 1.5 0 0 1
C_12169759733_12169759734_0 RECT_OPEN 1.0 1.5 0 0 1
C_12169759733_9759551602_0 RECT_OPEN 1.0 1.5 0 0 1
C_12169759721_12169759723_0 RECT_OPEN 1.0 1.5 0 0 1
C_12169759721_10221211848_0 RECT_OPEN 1.0 1.5 0 0 1
C_12169759721_12169759726_0 RECT_OPEN 1.0 1.5 0 0 1
C_10948126479_10948126480_0 RECT_OPEN 1.0 1.5 0 0 1
C_10948126479_12106511659_0 RECT_OPEN 1.0 1.5 0 0 1
C_12106511659_10948126479_0 RECT_OPEN 1.0 1.5 0 0 1
C_12106511659_13238937706_0 RECT_OPEN 1.0 1.5 0 0 1
C_12106511659_12106511663_0 RECT_OPEN 1.0 1.5 0 0 1
C_12144258015_10994097991_0 RECT_OPEN 1.0 1.5 0 0 1
C_10994159749_10994159748_0 RECT_OPEN 1.0 1.5 0 0 1
C_10994329192_10994329190_0 RECT_OPEN 1.0 1.5 0 0 1
C_10994329200_10994329194_0 RECT_OPEN 1.0 1.5 0 0 1
C_10994377348_10994377346_0 RECT_OPEN 1.0 1.5 0 0 1
C_12443901195_10994386528_0 RECT_OPEN 1.0 1.5 0 0 1
C_10994411032_10994402342_0 RECT_OPEN 1.0 1.5 0 0 1
C_10994411032_10994411033_0 RECT_OPEN 1.0 1.5 0 0 1
C_10994411032_10994402344_0 RECT_OPEN 1.0 1.5 0 0 1
C_10994402343_10994402342_0 RECT_OPEN 1.0 1.5 0 0 1
C_10994402344_10994402345_0 RECT_OPEN 1.0 1.5 0 0 1
C_10994402344_10994411032_0 RECT_OPEN 1.0 1.5 0 0 1
C_10994402344_12435660636_0 RECT_OPEN 1.0 1.5 0 0 1
C_10994402345_10994402344_0 RECT_OPEN 1.0 1.5 0 0 1
C_12435660636_12435660637_0 RECT_OPEN 1.0 1.5 0 0 1
C_12435660636_10994402344_0 RECT_OPEN 1.0 1.5 0 0 1
C_12435660636_13077693351_0 RECT_OPEN 1.0 1.5 0 0 1
C_10994411033_10994411032_0 RECT_OPEN 1.0 1.5 0 0 1
C_11017145233_10994470325_0 RECT_OPEN 1.0 1.5 0 0 1
C_10996655572_10996655571_0 RECT_OPEN 1.0 1.5 0 0 1
C_10996777703_10996777702_0 RECT_OPEN 1.0 1.5 0 0 1
C_10996868635_10996868634_0 RECT_OPEN 1.0 1.5 0 0 1
C_11034031540_11034031541_0 RECT_OPEN 1.0 1.5 0 0 1
C_11034031540_10996869891_0 RECT_OPEN 1.0 1.5 0 0 1
C_11034031540_10996868634_0 RECT_OPEN 1.0 1.5 0 0 1
C_10996869891_11034031538_0 RECT_OPEN 1.0 1.5 0 0 1
C_10996869891_11034031540_0 RECT_OPEN 1.0 1.5 0 0 1
C_10996869891_10996869896_0 RECT_OPEN 1.0 1.5 0 0 1
C_11034031538_10996869891_0 RECT_OPEN 1.0 1.5 0 0 1
C_11034031538_11034031539_0 RECT_OPEN 1.0 1.5 0 0 1
C_11034031538_11075395480_0 RECT_OPEN 1.0 1.5 0 0 1
C_10996869896_10996869891_0 RECT_OPEN 1.0 1.5 0 0 1
C_10996944953_10996944954_0 RECT_OPEN 1.0 1.5 0 0 1
C_10996992471_10996992466_0 RECT_OPEN 1.0 1.5 0 0 1
C_11002591560_11002591551_0 RECT_OPEN 1.0 1.5 0 0 1
C_11002608085_11002608083_0 RECT_OPEN 1.0 1.5 0 0 1
C_13347226823_13347226822_0 RECT_OPEN 1.0 1.5 0 0 1
C_13347226823_11002608083_0 RECT_OPEN 1.0 1.5 0 0 1
C_13347226823_13137760956_0 RECT_OPEN 1.0 1.5 0 0 1
C_11009627053_11009627049_0 RECT_OPEN 1.0 1.5 0 0 1
C_11009632657_11009632656_0 RECT_OPEN 1.0 1.5 0 0 1
C_11011674943_6749735684_0 RECT_OPEN 1.0 1.5 0 0 1
C_11011971396_11011971395_0 RECT_OPEN 1.0 1.5 0 0 1
C_11025131193_9824051075_0 RECT_OPEN 1.0 1.5 0 0 1
C_11034031539_11034031538_0 RECT_OPEN 1.0 1.5 0 0 1
C_11034031541_11034031540_0 RECT_OPEN 1.0 1.5 0 0 1
C_11075395481_11075395480_0 RECT_OPEN 1.0 1.5 0 0 1
C_11121177293_11121177292_0 RECT_OPEN 1.0 1.5 0 0 1
C_12151494704_5773497557_0 RECT_OPEN 1.0 1.5 0 0 1
C_12151494704_12151458578_0 RECT_OPEN 1.0 1.5 0 0 1
C_11220661004_11220661003_0 RECT_OPEN 1.0 1.5 0 0 1
C_11220661004_3500405745_0 RECT_OPEN 1.0 1.5 0 0 1
C_11233009357_11233009356_0 RECT_OPEN 1.0 1.5 0 0 1
C_11233009357_9828540923_0 RECT_OPEN 1.0 1.5 0 0 1
C_11260020609_11260020610_0 RECT_OPEN 1.0 1.5 0 0 1
C_11260020609_5398408451_0 RECT_OPEN 1.0 1.5 0 0 1
C_11260020610_11955031767_0 RECT_OPEN 1.0 1.5 0 0 1
C_11955031767_5398408451_0 RECT_OPEN 1.0 1.5 0 0 1
C_11955031767_2406966810_0 RECT_OPEN 1.0 1.5 0 0 1
C_11395511434_12655271583_0 RECT_OPEN 1.0 1.5 0 0 1
C_11397517841_11397517840_0 RECT_OPEN 1.0 1.5 0 0 1
C_11408964579_11408964580_0 RECT_OPEN 1.0 1.5 0 0 1
C_11408964580_11408964584_0 RECT_OPEN 1.0 1.5 0 0 1
C_11408964580_11408964581_0 RECT_OPEN 1.0 1.5 0 0 1
C_11408964580_11408964579_0 RECT_OPEN 1.0 1.5 0 0 1
C_11408964584_11408964580_0 RECT_OPEN 1.0 1.5 0 0 1
C_11408964584_11408964582_0 RECT_OPEN 1.0 1.5 0 0 1
C_11408964584_11408964589_0 RECT_OPEN 1.0 1.5 0 0 1
C_11408964581_11408964580_0 RECT_OPEN 1.0 1.5 0 0 1
C_11408964583_11408964582_0 RECT_OPEN 1.0 1.5 0 0 1
C_11408964589_11408964590_0 RECT_OPEN 1.0 1.5 0 0 1
C_11408964589_11408964584_0 RECT_OPEN 1.0 1.5 0 0 1
C_11408964589_11408964588_0 RECT_OPEN 1.0 1.5 0 0 1
C_11408964585_11408964587_0 RECT_OPEN 1.0 1.5 0 0 1
C_11408964587_11408964585_0 RECT_OPEN 1.0 1.5 0 0 1
C_11408964587_11408964590_0 RECT_OPEN 1.0 1.5 0 0 1
C_11408964587_11408964586_0 RECT_OPEN 1.0 1.5 0 0 1
C_11408964586_11408964587_0 RECT_OPEN 1.0 1.5 0 0 1
C_11408964590_11408964587_0 RECT_OPEN 1.0 1.5 0 0 1
C_11408964590_11408964589_0 RECT_OPEN 1.0 1.5 0 0 1
C_11408964590_11408964591_0 RECT_OPEN 1.0 1.5 0 0 1
C_11408964588_11408964589_0 RECT_OPEN 1.0 1.5 0 0 1
C_11408964591_11408964590_0 RECT_OPEN 1.0 1.5 0 0 1
C_11414694996_10168257533_0 RECT_OPEN 1.0 1.5 0 0 1
C_11414759654_10182379412_0 RECT_OPEN 1.0 1.5 0 0 1
C_11428038810_11428038811_0 RECT_OPEN 1.0 1.5 0 0 1
C_11428038812_11428038813_0 RECT_OPEN 1.0 1.5 0 0 1
C_11428038812_11428038814_0 RECT_OPEN 1.0 1.5 0 0 1
C_11428038814_11922878283_0 RECT_OPEN 1.0 1.5 0 0 1
C_11428038815_11428038814_0 RECT_OPEN 1.0 1.5 0 0 1
C_11428038815_12060861662_0 RECT_OPEN 1.0 1.5 0 0 1
C_11922878283_1321535551_0 RECT_OPEN 1.0 1.5 0 0 1
C_11922878283_11922878281_0 RECT_OPEN 1.0 1.5 0 0 1
C_12060861662_12060861661_0 RECT_OPEN 1.0 1.5 0 0 1
C_12060861662_11260020609_0 RECT_OPEN 1.0 1.5 0 0 1
C_11428038817_11428038816_0 RECT_OPEN 1.0 1.5 0 0 1
C_11428038817_2412953615_0 RECT_OPEN 1.0 1.5 0 0 1
C_11433644720_11433644719_0 RECT_OPEN 1.0 1.5 0 0 1
C_11433644721_11433644719_0 RECT_OPEN 1.0 1.5 0 0 1
C_12477867929_11434263476_0 RECT_OPEN 1.0 1.5 0 0 1
C_13928938237_5370756307_0 RECT_OPEN 1.0 1.5 0 0 1
C_13928938237_13928938241_0 RECT_OPEN 1.0 1.5 0 0 1
C_11703595135_6894177760_0 RECT_OPEN 1.0 1.5 0 0 1
C_11873774240_12157177352_0 RECT_OPEN 1.0 1.5 0 0 1
C_11873774240_1319974914_0 RECT_OPEN 1.0 1.5 0 0 1
C_12157177352_11873774240_0 RECT_OPEN 1.0 1.5 0 0 1
C_12157177352_1319974913_0 RECT_OPEN 1.0 1.5 0 0 1
C_11921590006_12462993523_0 RECT_OPEN 1.0 1.5 0 0 1
C_11921590006_1383248309_0 RECT_OPEN 1.0 1.5 0 0 1
C_12169759722_12169759731_0 RECT_OPEN 1.0 1.5 0 0 1
C_12169759722_12169759724_0 RECT_OPEN 1.0 1.5 0 0 1
C_12137575005_5776756946_0 RECT_OPEN 1.0 1.5 0 0 1
C_13757868548_12059211981_0 RECT_OPEN 1.0 1.5 0 0 1
C_12060861592_1645178612_0 RECT_OPEN 1.0 1.5 0 0 1
C_12100338251_12100338250_0 RECT_OPEN 1.0 1.5 0 0 1
C_12106511663_12106511659_0 RECT_OPEN 1.0 1.5 0 0 1
C_12144258013_12144258014_0 RECT_OPEN 1.0 1.5 0 0 1
C_12145839288_12145839287_0 RECT_OPEN 1.0 1.5 0 0 1
C_12147412805_12147412804_0 RECT_OPEN 1.0 1.5 0 0 1
C_12169759723_12169759722_0 RECT_OPEN 1.0 1.5 0 0 1
C_12169759723_1300454732_0 RECT_OPEN 1.0 1.5 0 0 1
C_12169759726_12963900368_0 RECT_OPEN 1.0 1.5 0 0 1
C_12169759726_12169759723_0 RECT_OPEN 1.0 1.5 0 0 1
C_12169759731_12169759721_0 RECT_OPEN 1.0 1.5 0 0 1
C_12963900368_12446863535_0 RECT_OPEN 1.0 1.5 0 0 1
C_12963900368_12169759726_0 RECT_OPEN 1.0 1.5 0 0 1
C_12963900368_12963900366_0 RECT_OPEN 1.0 1.5 0 0 1
C_12176161390_13743331082_0 RECT_OPEN 1.0 1.5 0 0 1
C_12176161390_13743331082_1 RECT_OPEN 1.0 1.5 0 0 1
C_12176161390_12176161387_0 RECT_OPEN 1.0 1.5 0 0 1
C_13743331082_12176161400_0 RECT_OPEN 1.0 1.5 0 0 1
C_13743331082_12176161390_0 RECT_OPEN 1.0 1.5 0 0 1
C_13743331082_12176161390_1 RECT_OPEN 1.0 1.5 0 0 1
C_12176161400_13743331082_0 RECT_OPEN 1.0 1.5 0 0 1
C_12187854997_5930945945_0 RECT_OPEN 1.0 1.5 0 0 1
C_12198988556_11414759654_0 RECT_OPEN 1.0 1.5 0 0 1
C_12198988556_11921590003_0 RECT_OPEN 1.0 1.5 0 0 1
C_12250445350_12250445349_0 RECT_OPEN 1.0 1.5 0 0 1
C_12278137174_12319493407_0 RECT_OPEN 1.0 1.5 0 0 1
C_12278137174_12279397378_0 RECT_OPEN 1.0 1.5 0 0 1
C_12543439896_12432886068_0 RECT_OPEN 1.0 1.5 0 0 1
C_12435660637_12435660636_0 RECT_OPEN 1.0 1.5 0 0 1
C_12443097982_12443097983_0 RECT_OPEN 1.0 1.5 0 0 1
C_12443097985_12443097987_0 RECT_OPEN 1.0 1.5 0 0 1
C_12443097985_12443097983_0 RECT_OPEN 1.0 1.5 0 0 1
C_12443097985_12443097984_0 RECT_OPEN 1.0 1.5 0 0 1
C_12443097984_12443097985_0 RECT_OPEN 1.0 1.5 0 0 1
C_12443097987_12443097988_0 RECT_OPEN 1.0 1.5 0 0 1
C_12443097987_12443097985_0 RECT_OPEN 1.0 1.5 0 0 1
C_12443097987_12443097986_0 RECT_OPEN 1.0 1.5 0 0 1
C_12443097986_12443097987_0 RECT_OPEN 1.0 1.5 0 0 1
C_12443097989_12443097988_0 RECT_OPEN 1.0 1.5 0 0 1
C_12446863536_12446863535_0 RECT_OPEN 1.0 1.5 0 0 1
C_12468537408_12468537412_0 RECT_OPEN 1.0 1.5 0 0 1
C_12655271582_12655271583_0 RECT_OPEN 1.0 1.5 0 0 1
C_12963900366_12963900368_0 RECT_OPEN 1.0 1.5 0 0 1
C_12997741438_13877530782_0 RECT_OPEN 1.0 1.5 0 0 1
C_13877530782_5370756309_0 RECT_OPEN 1.0 1.5 0 0 1
C_13077693352_13077693351_0 RECT_OPEN 1.0 1.5 0 0 1
C_13130383419_13130383417_0 RECT_OPEN 1.0 1.5 0 0 1
C_13134720404_13134720405_0 RECT_OPEN 1.0 1.5 0 0 1
C_13134720442_13134720443_0 RECT_OPEN 1.0 1.5 0 0 1
C_13135583069_13135583074_0 RECT_OPEN 1.0 1.5 0 0 1
C_13136176381_13136176386_0 RECT_OPEN 1.0 1.5 0 0 1
C_13137760928_13137760931_0 RECT_OPEN 1.0 1.5 0 0 1
C_13137760928_13137760931_1 RECT_OPEN 1.0 1.5 0 0 1
C_13137760956_13347226823_0 RECT_OPEN 1.0 1.5 0 0 1
C_13140521147_13140521149_0 RECT_OPEN 1.0 1.5 0 0 1
C_13142028562_13142028560_0 RECT_OPEN 1.0 1.5 0 0 1
C_13142028597_13142028598_0 RECT_OPEN 1.0 1.5 0 0 1
C_13238937707_13238937706_0 RECT_OPEN 1.0 1.5 0 0 1
C_13347226822_13347226823_0 RECT_OPEN 1.0 1.5 0 0 1
C_13736562871_13736567789_0 RECT_OPEN 1.0 1.5 0 0 1
C_13736567810_13736567811_0 RECT_OPEN 1.0 1.5 0 0 1
C_13738231244_13738231243_0 RECT_OPEN 1.0 1.5 0 0 1
C_13743331025_13743331026_0 RECT_OPEN 1.0 1.5 0 0 1
C_13743331043_13743331044_0 RECT_OPEN 1.0 1.5 0 0 1
C_13875979598_13875979600_0 RECT_OPEN 1.0 1.5 0 0 1
C_outfall RECT_OPEN 1.0 1.5 0 0 1

